<?xml version="1.0"?>
<VTKFile type="UnstructuredGrid" version="0.1" byte_order="LittleEndian">
<UnstructuredGrid>
<Piece NumberOfPoints="3162" NumberOfCells="1054">
<Points>
<DataArray type="Float64" NumberOfComponents="3" format="ascii">
0.39507969989512881 0.74417394063201048 0 0.42715538333808079 0.70077759375307946 0 0.44764943295894188 0.73752415265401661 0 0.74417394063200648 0.6049203001048884 0 0.70087539567735502 0.57165914616526226 0 0.73752415265401194 0.55235056704108476 0 0.25582605936799319 0.39507969989513358 0 0.2963043386970643 0.4298320229681446 0 0.26247584734598628 0.44764943295894732 0 0.60492030010488373 0.25582605936799729 0 0.57188338999077359 0.29874123486230147 0 0.55175647814720108 0.26104505532086641 0 0.56566515596461675 0.63670464971409091 0 0.61233489393901674 0.60846740003560018 0 0.60879112811253555 0.66592422311595834 0 0.6519524273377173 0.64249931920594539 0 0.60879112811253555 0.66592422311595834 0 0.61233489393901674 0.60846740003560018 0 0.640156794425081 0.43301393728221721 0 0.60122390529523662 0.39097801071820221 0 0.66346942254826746 0.391530810754116 0 0.6424993192059415 0.3480475726622802 0 0.66346942254826746 0.391530810754116 0 0.60122390529523662 0.39097801071820221 0 0.74198804864688339 0.90892718720327403 0 0.77688977118331393 0.94706199857866258 0 0.71789175274016548 0.95136708251202151 0 0.091072812796719582 0.74198804864687795 0 0.052938001421335763 0.77688977118331159 0 0.04863291748797445 0.71789175274016204 0 0.89586000931544074 0.25714619498770419 0 0.94465622530468663 0.23167460333446291 0 0.94915666091748963 0.28320804985299752 0 0.25714619498771307 0.1041399906845497 0 0.23167460333446299 0.05534377469531044 0 0.28320804985300141 0.050843339082505573 0 0.89999999999958358 1 0 0.84999999999965292 1 0 0.90554214442080472 0.95994154153067524 0 0 0.89999999999958358 0 0 0.84999999999965292 0 0.040058458469322648 0.90554214442079806 0 0.040058458469319477 0.094457855579157729 0 0 0.15000000000062411 0 0 0.10000000000041601 0 0.094457855579188163 0.95994154153068711 0 0.15000000000062411 1 0 0.10000000000041601 1 0 0.90554214442081604 0.040058458469347469 0 0.84999999999960507 0 0 0.89999999999973679 0 0 0.95994154153065969 0.90554214442078618 0 1 0.84999999999960507 0 1 0.89999999999973679 0 1 0.099999999999814668 0 1 0.14999999999970359 0 0.95994154153057998 0.094457855579277675 0 0.099999999999814668 0 0 0.14999999999970359 0 0 0.094457855579284614 0.040058458469418363 0 1 0.19999999999955789 0 0.94465622530468663 0.23167460333446291 0 0.96080966346491015 0.18035159017841959 0 0.19999999999955789 0 0 0.23167460333446299 0.05534377469531044 0 0.18035159017842109 0.039190336535090492 0 0.79999999999999982 1 0 0.77688977118331393 0.94706199857866258 0 0.82675923981951416 0.95611053755456221 0 0 0.79999999999999982 0 0.052938001421335763 0.77688977118331159 0 0.043889462445437968 0.82675923981951283 0 1 0.79999999999947335 0 0.96071093996985157 0.81954008780615684 0 0.9442075111696665 0.76777356182390766 0 0.79999999999947335 0 0 0.82050174006822896 0.038839999600956771 0 0.76543419162344684 0.056452228708420968 0 0.20000000000083221 1 0 0.18045991219397989 0.960710939969875 0 0.23222643817617661 0.94420751116970569 0 0 0.20000000000083221 0 0.038839999600931263 0.17949825993190149 0 0.056452228708379938 0.23456580837661581 0 0.50000000000002642 0.7803135888501761 0 0.53770425635794761 0.80104587463999666 0 0.49771727055908782 0.83998685797641781 0 0.2196864111498267 0.50000000000003153 0 0.1989632851005598 0.53769147668950479 0 0.16001314202358469 0.49771727055909287 0 0.78031358885017377 0.49999999999997569 0 0.80106707846564795 0.46230714888029367 0 0.83998574657308889 0.50228528270184081 0 0.49999999999997108 0.21968641114982909 0 0.46229330881044273 0.19890916456654811 0 0.50228272944093777 0.16001314202359701 0 0.79999999999999982 1 0 0.75000000000034661 1 0 0.77688977118331393 0.94706199857866258 0 0 0.79999999999999982 0 0 0.75000000000034661 0 0.052938001421335763 0.77688977118331159 0 1 0.19999999999955789 0 1 0.24999999999941211 0 0.94465622530468663 0.23167460333446291 0 0.19999999999955789 0 0 0.24999999999941211 0 0 0.23167460333446299 0.05534377469531044 0 1 0.74999999999934175 0 1 0.79999999999947335 0 0.9442075111696665 0.76777356182390766 0 0.74999999999934175 0 0 0.79999999999947335 0 0 0.76543419162344684 0.056452228708420968 0 0.25000000000104028 1 0 0.20000000000083221 1 0 0.23222643817617661 0.94420751116970569 0 0 0.25000000000104028 0 0 0.20000000000083221 0 0.056452228708379938 0.23456580837661581 0 1 0.74999999999934175 0 0.9442075111696665 0.76777356182390766 0 0.94635952848698612 0.71209247961721311 0 0.74999999999934175 0 0 0.76543419162344684 0.056452228708420968 0 0.71174922810186925 0.053730171687687178 0 0.25000000000104028 1 0 0.23222643817617661 0.94420751116970569 0 0.28790752038294382 0.94635952848702642 0 0 0.25000000000104028 0 0.056452228708379938 0.23456580837661581 0 0.053730171687646627 0.28825077189828552 0 0.8289812646369813 0.82898126463698818 0 0.87660297360393757 0.8104127896505644 0 0.88962265630811221 0.85311725681459705 0 0.17101873536300011 0.82898126463696109 0 0.18958721034944021 0.87660297360394568 0 0.14688274318541941 0.88962265630811932 0 0.39507969989512881 0.74417394063201048 0 0.44764943295894188 0.73752415265401661 0 0.43306783640023289 0.78031198216144404 0 0.74417394063200648 0.6049203001048884 0 0.73752415265401194 0.55235056704108476 0 0.78031198216143516 0.56693216359979737 0 0.25582605936799319 0.39507969989513358 0 0.26247584734598628 0.44764943295894732 0 0.21968801783855879 0.43306783640023788 0 0.60492030010488373 0.25582605936799729 0 0.55175647814720108 0.26104505532086641 0 0.56683314878414581 0.21944955250104689 0 0.90554214442080472 0.95994154153067524 0 0.84999999999965292 1 0 0.86696410734367158 0.94753096683315619 0 0.040058458469322648 0.90554214442079806 0 0 0.84999999999965292 0 0.052469033166843738 0.86696410734366991 0 0.054872692726595548 0.13410685639845171 0 0 0.15000000000062411 0 0.040058458469319477 0.094457855579157729 0 0.13834721989462789 0.94095916274077984 0 0.15000000000062411 1 0 0.094457855579188163 0.95994154153068711 0 0.86589314360155567 0.054872692726639853 0 0.84999999999960507 0 0 0.90554214442081604 0.040058458469347469 0 0.94095916274074942 0.86165278010542579 0 1 0.84999999999960507 0 0.95994154153065969 0.90554214442078618 0 0.95994154153057998 0.094457855579277675 0 1 0.14999999999970359 0 0.94100406608115506 0.1383574446607955 0 0.094457855579284614 0.040058458469418363 0 0.14999999999970359 0 0 0.1383574446607988 0.058995933918849157 0 0.1104775404132264 0.2631175359816938 0 0.099694771212264055 0.22074048840547039 0 0.15899695163321451 0.22783674912227669 0 0.73688246401832591 0.11047754041323141 0 0.77925951159456153 0.09969477121230251 0 0.77216325087772952 0.15899695163319821 0 0.88949062093135778 0.73694585442531257 0 0.9041449437197947 0.7786886066890556 0 0.839908789927305 0.77106070975262608 0 0.26305414557470391 0.88949062093136155 0 0.22131139331094829 0.9041449437198319 0 0.22893929024737289 0.83990878992727813 0 0.74198804864688339 0.90892718720327403 0 0.71789175274016548 0.95136708251202151 0 0.70475631558365914 0.90098127745102974 0 0.091072812796719582 0.74198804864687795 0 0.04863291748797445 0.71789175274016204 0 0.099018722548963364 0.70475631558365193 0 0.89586000931544074 0.25714619498770419 0 0.94915666091748963 0.28320804985299752 0 0.89886191075654698 0.29506339503703172 0 0.25714619498771307 0.1041399906845497 0 0.28320804985300141 0.050843339082505573 0 0.29506339503703888 0.1011380892434444 0 0.65773042910151891 0.073296788161472337 0 0.62160809078275991 0.1093532031139005 0 0.6048537357103756 0.060530514380187868 0 0.92670321183853355 0.65773042910151081 0 0.89064679688610338 0.6216080907827598 0 0.93946948561981514 0.60485373571037115 0 0.073296788161418117 0.34226957089850552 0 0.10935320311385981 0.37839190921727089 0 0.06053051438015096 0.39514626428972788 0 0.3422695708985129 0.92670321183858773 0 0.37839190921727062 0.89064679688614412 0 0.39514626428973221 0.93946948561985189 0 0.49771727055908782 0.83998685797641781 0 0.53770425635794761 0.80104587463999666 0 0.54047998161173716 0.84333512669480526 0 0.16001314202358469 0.49771727055909287 0 0.1989632851005598 0.53769147668950479 0 0.1566648733051971 0.54047998161174216 0 0.83998574657308889 0.50228528270184081 0 0.80106707846564795 0.46230714888029367 0 0.84333218736938698 0.4595365182652234 0 0.50228272944093777 0.16001314202359701 0 0.46229330881044273 0.19890916456654811 0 0.45952001838826873 0.15666487330524251 0 0.8289812646369813 0.82898126463698818 0 0.88962265630811221 0.85311725681459705 0 0.85174853583809862 0.87705234031428159 0 0.17101873536300011 0.82898126463696109 0 0.14688274318541941 0.88962265630811932 0 0.1229476596857173 0.85174853583809695 0 0.83199780613337848 0.1690131600686714 0 0.8517485358380722 0.12294765968568611 0 0.88777909259956078 0.1484760565886154 0 0.16901316006868169 0.16800219386663079 0 0.12294765968567151 0.14825146416195439 0 0.1484760565886207 0.1122209074004519 0 0.15899695163321451 0.22783674912227669 0 0.099694771212264055 0.22074048840547039 0 0.12587517708284679 0.1889683322666954 0 0.77216325087772952 0.15899695163319821 0 0.77925951159456153 0.09969477121230251 0 0.8110316677333288 0.125875177082863 0 0.83199780613337848 0.1690131600686714 0 0.88777909259956078 0.1484760565886154 0 0.87355793346388477 0.18922011052113649 0 0.16901316006868169 0.16800219386663079 0 0.1484760565886207 0.1122209074004519 0 0.18922011052115781 0.12644206653611201 0 0.32191828326940508 0.76395804595204586 0 0.34270280102445921 0.71672416762035873 0 0.35837423432538362 0.77730446904312345 0 0.76395804595204597 0.67808171673060369 0 0.71518943060973483 0.65679402931717101 0 0.77730446904309636 0.64162576567462737 0 0.2360419540479583 0.32191828326940741 0 0.28473805236128291 0.34355768118673757 0 0.22269553095687891 0.35837423432538801 0 0.67808171673060202 0.23604195404795861 0 0.65679402931716913 0.28481056939027388 0 0.64162576567462404 0.22269553095690481 0 0.26305414557470391 0.88949062093136155 0 0.28790752038294382 0.94635952848702642 0 0.23222643817617661 0.94420751116970569 0 0.1104775404132264 0.2631175359816938 0 0.053730171687646627 0.28825077189828552 0 0.056452228708379938 0.23456580837661581 0 0.88949062093135778 0.73694585442531257 0 0.94635952848698612 0.71209247961721311 0 0.9442075111696665 0.76777356182390766 0 0.73688246401832591 0.11047754041323141 0 0.71174922810186925 0.053730171687687178 0 0.76543419162344684 0.056452228708420968 0 0.22893929024737289 0.83990878992727813 0 0.22131139331094829 0.9041449437198319 0 0.18958721034944021 0.87660297360394568 0 0.839908789927305 0.77106070975262608 0 0.9041449437197947 0.7786886066890556 0 0.87660297360393757 0.8104127896505644 0 0.35837423432538362 0.77730446904312345 0 0.34270280102445921 0.71672416762035873 0 0.39507969989512881 0.74417394063201048 0 0.77730446904309636 0.64162576567462737 0 0.71518943060973483 0.65679402931717101 0 0.74417394063200648 0.6049203001048884 0 0.22269553095687891 0.35837423432538801 0 0.28473805236128291 0.34355768118673757 0 0.25582605936799319 0.39507969989513358 0 0.64162576567462404 0.22269553095690481 0 0.65679402931716913 0.28481056939027388 0 0.60492030010488373 0.25582605936799729 0 0.57484409313590223 0.58437321637184114 0 0.53542397956703913 0.60119875982347493 0 0.53087311892591971 0.55299263141448529 0 1 0.59999999999894682 0 0.93946948561981514 0.60485373571037115 0 0.95638719633882641 0.5599388881718611 0 0.59999999999894682 0 0 0.6048537357103756 0.060530514380187868 0 0.55993888817186677 0.043612803661174412 0 0.40000000000166441 1 0 0.39514626428973221 0.93946948561985189 0 0.44006111182840962 0.9563871963389079 0 0 0.40000000000166441 0 0.06053051438015096 0.39514626428972788 0 0.043612803661092707 0.44006111182840391 0 0.43590673999053309 0.90289902042279657 0 0.48669777060454272 0.93510666819646593 0 0.44006111182840962 0.9563871963389079 0 0.097100979577207341 0.43590673999053198 0 0.064893331803534807 0.48669777060454478 0 0.043612803661092707 0.44006111182840391 0 0.90289902042272274 0.56409326000946114 0 0.93510666819640953 0.51330222939551939 0 0.95638719633882641 0.5599388881718611 0 0.56409326000946236 0.097100979577281268 0 0.5133022293955174 0.064893331803591428 0 0.55993888817186677 0.043612803661174412 0 0.57387636360620708 0.54318431390135336 0 0.57484409313590223 0.58437321637184114 0 0.53087311892591971 0.55299263141448529 0 1 0.69999999999921003 0 1 0.74999999999934175 0 0.94635952848698612 0.71209247961721311 0 0.69999999999921003 0 0 0.74999999999934175 0 0 0.71174922810186925 0.053730171687687178 0 0.30000000000124832 1 0 0.25000000000104028 1 0 0.28790752038294382 0.94635952848702642 0 0 0.30000000000124832 0 0 0.25000000000104028 0 0.053730171687646627 0.28825077189828552 0 0.90289902042272274 0.56409326000946114 0 0.85130417396420255 0.59518556406638579 0 0.85551478316835361 0.54646211938695222 0 0.43590673999053309 0.90289902042279657 0 0.40481452396081791 0.85130421228141606 0 0.45353891581270822 0.85551523377818905 0 0.56409326000946236 0.097100979577281268 0 0.59518547603920147 0.14869578771864489 0 0.54646108418729233 0.1444847662218687 0 0.097100979577207341 0.43590673999053198 0 0.14869578771858949 0.40481452396082068 0 0.1444847662218138 0.45353891581271188 0 0.90289902042272274 0.56409326000946114 0 0.89064679688610338 0.6216080907827598 0 0.85130417396420255 0.59518556406638579 0 0.56409326000946236 0.097100979577281268 0 0.62160809078275991 0.1093532031139005 0 0.59518547603920147 0.14869578771864489 0 0.43590673999053309 0.90289902042279657 0 0.37839190921727062 0.89064679688614412 0 0.40481452396081791 0.85130421228141606 0 0.097100979577207341 0.43590673999053198 0 0.10935320311385981 0.37839190921727089 0 0.14869578771858949 0.40481452396082068 0 0.74417394063200648 0.6049203001048884 0 0.69288637798153729 0.61204665218001397 0 0.70087539567735502 0.57165914616526226 0 0.39507969989512881 0.74417394063201048 0 0.38642358467307758 0.69286258923597266 0 0.42715538333808079 0.70077759375307946 0 0.60492030010488373 0.25582605936799729 0 0.61204665218000809 0.30711362201846659 0 0.57188338999077359 0.29874123486230147 0 0.25582605936799319 0.39507969989513358 0 0.30597655500381687 0.3934681685211931 0 0.2963043386970643 0.4298320229681446 0 0.51484304721220842 0.69707233951836334 0 0.57051182622447827 0.69668652018496713 0 0.54465502325161819 0.74717983044080061 0 0.30292766048163949 0.51484304721221474 0 0.30429740679959738 0.56913905146460098 0 0.25287139441262568 0.54458355434492378 0 0.70015119067225129 0.48481914991727459 0 0.69595787604187809 0.43071000156707989 0 0.74730218607442667 0.45539100053644521 0 0.48378871228000903 0.29745177826977359 0 0.43059486795334201 0.30395973419063538 0 0.45533136021725079 0.2525687312087147 0 0.91838802593870927 0.18172590289757809 0 0.96080966346491015 0.18035159017841959 0 0.94465622530468663 0.23167460333446291 0 0.18172590289758209 0.08161197406129285 0 0.18035159017842109 0.039190336535090492 0 0.23167460333446299 0.05534377469531044 0 0.81709574086843206 0.91318696080656769 0 0.82675923981951416 0.95611053755456221 0 0.77688977118331393 0.94706199857866258 0 0.086813039193431391 0.81709574086842884 0 0.043889462445437968 0.82675923981951283 0 0.052938001421335763 0.77688977118331159 0 0.91838802593884228 0.81827409710237209 0 0.9442075111696665 0.76777356182390766 0 0.96071093996985157 0.81954008780615684 0 0.82118136511706341 0.082875076569723011 0 0.76543419162344684 0.056452228708420968 0 0.82050174006822896 0.038839999600956771 0 0.1817259028976386 0.91838802593888857 0 0.23222643817617661 0.94420751116970569 0 0.18045991219397989 0.960710939969875 0 0.08287507656968085 0.1788186348829835 0 0.056452228708379938 0.23456580837661581 0 0.038839999600931263 0.17949825993190149 0 0.59819537371016407 0.74380966024143391 0 0.54465502325161819 0.74717983044080061 0 0.57051182622447827 0.69668652018496713 0 0.25619033975856881 0.59819537371016862 0 0.25287139441262568 0.54458355434492378 0 0.30429740679959738 0.56913905146460098 0 0.74380966024142703 0.40180462628984132 0 0.74730218607442667 0.45539100053644521 0 0.69595787604187809 0.43071000156707989 0 0.40180462628983732 0.2561903397585753 0 0.45533136021725079 0.2525687312087147 0 0.43059486795334201 0.30395973419063538 0 0.8312019486901514 0.72745002167959472 0 0.77998481823117694 0.71397317153691997 0 0.80847852346122429 0.67208120229789559 0 0.27254997832041528 0.8312019486901443 0 0.28602682846308641 0.77998481823117594 0 0.32791879770213411 0.80847852346120164 0 0.72767516840721058 0.16853767177393791 0 0.71397317153692708 0.22001518176882201 0 0.67208120229787616 0.1915214765387884 0 0.1685376717739448 0.27232483159280108 0 0.22001518176882229 0.28602682846307981 0 0.19152147653881049 0.32791879770215432 0 0.85607519768343354 0.69380468830529196 0 0.8312019486901514 0.72745002167959472 0 0.80847852346122429 0.67208120229789559 0 0.69379929796456197 0.14392209494791061 0 0.72767516840721058 0.16853767177393791 0 0.67208120229787616 0.1915214765387884 0 0.30619531169472608 0.85607519768342955 0 0.27254997832041528 0.8312019486901443 0 0.32791879770213411 0.80847852346120164 0 0.14392209494791439 0.30620070203545702 0 0.1685376717739448 0.27232483159280108 0 0.19152147653881049 0.32791879770215432 0 0.6519524273377173 0.64249931920594539 0 0.69288637798153729 0.61204665218001397 0 0.71518943060973483 0.65679402931717101 0 0.35944937237716967 0.65164789808436319 0 0.38642358467307758 0.69286258923597266 0 0.34270280102445921 0.71672416762035873 0 0.6424993192059415 0.3480475726622802 0 0.61204665218000809 0.30711362201846659 0 0.65679402931716913 0.28481056939027388 0 0.34804757266227387 0.35750068079406011 0 0.30597655500381687 0.3934681685211931 0 0.28473805236128291 0.34355768118673757 0 0.66919832404887702 0.81820888699730587 0 0.66923299355723143 0.8804077449518628 0 0.63969251517836323 0.84598529912890386 0 0.70085728320704077 0.84350379029875056 0 0.66923299355723143 0.8804077449518628 0 0.66919832404887702 0.81820888699730587 0 0.1817911130026923 0.66919832404888702 0 0.1195922550481313 0.66923299355722787 0 0.1540147008710982 0.63969251517836956 0 0.1564962097012354 0.70085728320703999 0 0.1195922550481313 0.66923299355722787 0 0.1817911130026923 0.66919832404888702 0 0.8182088869973061 0.33080167595111531 0 0.88040774495187946 0.33076700644278889 0 0.84598529912889664 0.36030748482164038 0 0.84350379029877964 0.29914271679296989 0 0.88040774495187946 0.33076700644278889 0 0.8182088869973061 0.33080167595111531 0 0.33080167595110582 0.18179111300269291 0 0.33076700644279272 0.1195922550481146 0 0.3603074848216346 0.15401470087110539 0 0.29914271679297122 0.15649620970120659 0 0.33076700644279272 0.1195922550481146 0 0.33080167595110582 0.18179111300269291 0 0.49189101320880302 0.59024331187324797 0 0.51172471858873747 0.64015771271794875 0 0.45517457031814612 0.62743100079604397 0 0.54901591374940373 0.42306523525165751 0 0.5047849391802508 0.40719950955717021 0 0.54715635490880632 0.37829016026862072 0 0.43590673999053309 0.90289902042279657 0 0.48758069708049379 0.89080072540186539 0 0.48669777060454272 0.93510666819646593 0 0.097100979577207341 0.43590673999053198 0 0.1091992745981364 0.48758069708049778 0 0.064893331803534807 0.48669777060454478 0 0.90289902042272274 0.56409326000946114 0 0.89079805168298443 0.51242544533572376 0 0.93510666819640953 0.51330222939551939 0 0.56409326000946236 0.097100979577281268 0 0.51241930291950477 0.1091992745981813 0 0.5133022293955174 0.064893331803591428 0 0.49189101320880302 0.59024331187324797 0 0.53542397956703913 0.60119875982347493 0 0.51172471858873747 0.64015771271794875 0 0.56566515596461675 0.63670464971409091 0 0.51172471858873747 0.64015771271794875 0 0.53542397956703913 0.60119875982347493 0 0.65773042910151891 0.073296788161472337 0 0.66251865414987876 0.1160340021949529 0 0.62160809078275991 0.1093532031139005 0 0.92670321183853355 0.65773042910151081 0 0.88396545633132484 0.6625197322180193 0 0.89064679688610338 0.6216080907827598 0 0.3422695708985129 0.92670321183858773 0 0.33748026778199908 0.88396545633134682 0 0.37839190921727062 0.89064679688614412 0 0.073296788161418117 0.34226957089850552 0 0.11603400219493119 0.33748134585014028 0 0.10935320311385981 0.37839190921727089 0 0.8289812646369813 0.82898126463698818 0 0.79422489417873421 0.79640925234634441 0 0.839908789927305 0.77106070975262608 0 0.17101873536300011 0.82898126463696109 0 0.20359074765364421 0.79422489417871855 0 0.22893929024737289 0.83990878992727813 0 0.83199780613337848 0.1690131600686714 0 0.80027482104603809 0.20596721135052129 0 0.77216325087772952 0.15899695163319821 0 0.16901316006868169 0.16800219386663079 0 0.20596721135052939 0.19972517895396219 0 0.15899695163321451 0.22783674912227669 0 0.84598529912884157 0.63969251517827153 0 0.80847852346122429 0.67208120229789559 0 0.8028306815476034 0.61296984760642026 0 0.36030748482174152 0.84598529912882459 0 0.32791879770213411 0.80847852346120164 0 0.38703015239361932 0.80283068154761972 0 0.63969251517826664 0.15401470087115929 0 0.67208120229787616 0.1915214765387884 0 0.61296984760641449 0.19716931845240021 0 0.15401470087117619 0.36030748482174652 0 0.19152147653881049 0.32791879770215432 0 0.197169318452384 0.38703015239362498 0 0.61233489393901674 0.60846740003560018 0 0.61866949026800744 0.55492322767366287 0 0.65501639383771026 0.594528181397324 0 0.74198804864688339 0.90892718720327403 0 0.78020430794084783 0.88768307197553598 0 0.77688977118331393 0.94706199857866258 0 0.091072812796719582 0.74198804864687795 0 0.11231692802445629 0.78020430794084028 0 0.052938001421335763 0.77688977118331159 0 0.81709574086843206 0.91318696080656769 0 0.77688977118331393 0.94706199857866258 0 0.78020430794084783 0.88768307197553598 0 0.086813039193431391 0.81709574086842884 0 0.052938001421335763 0.77688977118331159 0 0.11231692802445629 0.78020430794084028 0 0.73982803480991577 0.79629608696991705 0 0.79422489417873421 0.79640925234634441 0 0.78284912262770068 0.83746308049763585 0 0.8289812646369813 0.82898126463698818 0 0.78284912262770068 0.83746308049763585 0 0.79422489417873421 0.79640925234634441 0 0.20370391303007401 0.73982803480989479 0 0.20359074765364421 0.79422489417871855 0 0.16253691950235041 0.78284912262768558 0 0.17101873536300011 0.82898126463696109 0 0.16253691950235041 0.78284912262768558 0 0.20359074765364421 0.79422489417871855 0 0.79629608696994103 0.26017196519011448 0 0.80027482104603809 0.20596721135052129 0 0.84534053180161173 0.2262639405833009 0 0.83199780613337848 0.1690131600686714 0 0.84534053180161173 0.2262639405833009 0 0.80027482104603809 0.20596721135052129 0 0.26017196519013502 0.20370391303005 0 0.20596721135052939 0.19972517895396219 0 0.22626394058331961 0.15465946819838111 0 0.16901316006868169 0.16800219386663079 0 0.22626394058331961 0.15465946819838111 0 0.20596721135052939 0.19972517895396219 0 0.90045039720880915 0.9020090423547924 0 0.94156647488775558 0.94156647488774259 0 0.90554214442080472 0.95994154153067524 0 0.90082758526900886 0.098076845682916511 0 0.94156647488778256 0.058433525112256718 0 0.95994154153057998 0.094457855579277675 0 0.90082758526900886 0.098076845682916511 0 0.90554214442081604 0.040058458469347469 0 0.94156647488778256 0.058433525112256718 0 0.097990957645208238 0.90045039720880915 0 0.058433525112254137 0.94156647488774581 0 0.040058458469322648 0.90554214442079806 0 0.90045039720880915 0.9020090423547924 0 0.95994154153065969 0.90554214442078618 0 0.94156647488775558 0.94156647488774259 0 0.098076845682915317 0.099172414730993488 0 0.058433525112266523 0.058433525112214509 0 0.094457855579284614 0.040058458469418363 0 0.098076845682915317 0.099172414730993488 0 0.040058458469319477 0.094457855579157729 0 0.058433525112266523 0.058433525112214509 0 0.097990957645208238 0.90045039720880915 0 0.094457855579188163 0.95994154153068711 0 0.058433525112254137 0.94156647488774581 0 0.90289902042272274 0.56409326000946114 0 0.93946948561981514 0.60485373571037115 0 0.89064679688610338 0.6216080907827598 0 0.43590673999053309 0.90289902042279657 0 0.39514626428973221 0.93946948561985189 0 0.37839190921727062 0.89064679688614412 0 0.56409326000946236 0.097100979577281268 0 0.6048537357103756 0.060530514380187868 0 0.62160809078275991 0.1093532031139005 0 0.097100979577207341 0.43590673999053198 0 0.06053051438015096 0.39514626428972788 0 0.10935320311385981 0.37839190921727089 0 0.6519524273377173 0.64249931920594539 0 0.64518564541690571 0.69601563325001548 0 0.60879112811253555 0.66592422311595834 0 0.35944937237716967 0.65164789808436319 0 0.30421635384321521 0.64514939193436716 0 0.33231497408081678 0.60779218732873663 0 0.6424993192059415 0.3480475726622802 0 0.69601563325001248 0.35481435458309712 0 0.66346942254826746 0.391530810754116 0 0.34804757266227387 0.35750068079406011 0 0.35481435458309307 0.30398436674998969 0 0.39120887188745579 0.33407577688404289 0 1 0.5499999999988151 0 1 0.59999999999894682 0 0.95638719633882641 0.5599388881718611 0 0.5499999999988151 0 0 0.59999999999894682 0 0 0.55993888817186677 0.043612803661174412 0 0.45000000000187229 1 0 0.40000000000166441 1 0 0.44006111182840962 0.9563871963389079 0 0 0.45000000000187229 0 0 0.40000000000166441 0 0.043612803661092707 0.44006111182840391 0 1 0.049999999999899652 0 0.95994154153057998 0.094457855579277675 0 0.94156647488778256 0.058433525112256718 0 0.049999999999899652 0 0 0.094457855579284614 0.040058458469418363 0 0.058433525112266523 0.058433525112214509 0 0.94999999999986839 0 0 0.94156647488778256 0.058433525112256718 0 0.90554214442081604 0.040058458469347469 0 1 0.94999999999986839 0 0.94156647488775558 0.94156647488774259 0 0.95994154153065969 0.90554214442078618 0 0.94999999999979179 1 0 0.90554214442080472 0.95994154153067524 0 0.94156647488775558 0.94156647488774259 0 0 0.94999999999979179 0 0.040058458469322648 0.90554214442079806 0 0.058433525112254137 0.94156647488774581 0 0 0.050000000000207989 0 0.058433525112266523 0.058433525112214509 0 0.040058458469319477 0.094457855579157729 0 0.050000000000207989 1 0 0.058433525112254137 0.94156647488774581 0 0.094457855579188163 0.95994154153068711 0 0.55000000000173355 1 0 0.55307204985744796 0.94819812235491685 0 0.5931441817276254 0.95886012268751675 0 0 0.55000000000173355 0 0.051801877645083663 0.55307204985745195 0 0.041139877312483641 0.59314418172763017 0 1 0.44999999999882923 0 0.94812782820415209 0.44708943904932719 0 0.95886012268748921 0.4068558182724159 0 0.44999999999882923 0 0 0.44692795014265252 0.051801877645060238 0 0.40685581827241191 0.041139877312511682 0 0.83199780613337848 0.1690131600686714 0 0.77216325087772952 0.15899695163319821 0 0.8110316677333288 0.125875177082863 0 0.16901316006868169 0.16800219386663079 0 0.15899695163321451 0.22783674912227669 0 0.12587517708284679 0.1889683322666954 0 0.73982803480991577 0.79629608696991705 0 0.74154628962857594 0.86274820500026039 0 0.70085728320704077 0.84350379029875056 0 0.20370391303007401 0.73982803480989479 0 0.13725179499972981 0.74154628962856628 0 0.1564962097012354 0.70085728320703999 0 0.79629608696994103 0.26017196519011448 0 0.85389826602741015 0.26318949769600392 0 0.84350379029877964 0.29914271679296989 0 0.26017196519013502 0.20370391303005 0 0.26318949769601319 0.14610173397257309 0 0.29914271679297122 0.15649620970120659 0 0.53432142347292233 0.88563193847251998 0 0.48758069708049379 0.89080072540186539 0 0.49771727055908782 0.83998685797641781 0 0.1143680615274819 0.53432142347292733 0 0.1091992745981364 0.48758069708049778 0 0.16001314202358469 0.49771727055909287 0 0.88561059063756964 0.46572761956237563 0 0.89079805168298443 0.51242544533572376 0 0.83998574657308889 0.50228528270184081 0 0.46567857652706018 0.1143680615275231 0 0.51241930291950477 0.1091992745981813 0 0.50228272944093777 0.16001314202359701 0 0.1104775404132264 0.2631175359816938 0 0.099492119481027347 0.30746398533281638 0 0.053730171687646627 0.28825077189828552 0 0.26305414557470391 0.88949062093136155 0 0.30738136326657722 0.90051880305435028 0 0.28790752038294382 0.94635952848702642 0 0.73688246401832591 0.11047754041323141 0 0.69253601466723103 0.09949211948105087 0 0.71174922810186925 0.053730171687687178 0 0.88949062093135778 0.73694585442531257 0 0.90051880305432697 0.69261863673346957 0 0.94635952848698612 0.71209247961721311 0 0.77998481823117694 0.71397317153691997 0 0.76395804595204597 0.67808171673060369 0 0.80847852346122429 0.67208120229789559 0 0.28602682846308641 0.77998481823117594 0 0.32191828326940508 0.76395804595204586 0 0.32791879770213411 0.80847852346120164 0 0.71397317153692708 0.22001518176882201 0 0.67808171673060202 0.23604195404795861 0 0.67208120229787616 0.1915214765387884 0 0.22001518176882229 0.28602682846307981 0 0.2360419540479583 0.32191828326940741 0 0.19152147653881049 0.32791879770215432 0 0.8289812646369813 0.82898126463698818 0 0.839908789927305 0.77106070975262608 0 0.87660297360393757 0.8104127896505644 0 0.17101873536300011 0.82898126463696109 0 0.22893929024737289 0.83990878992727813 0 0.18958721034944021 0.87660297360394568 0 0.66548584431530877 0.55616712808283064 0 0.64455163611866495 0.50369301794551069 0 0.69798396601998558 0.5289734597937793 0 0.70015119067225129 0.48481914991727459 0 0.69798396601998558 0.5289734597937793 0 0.64455163611866495 0.50369301794551069 0 0.77998481823117694 0.71397317153691997 0 0.73984939806388494 0.70740600291923139 0 0.76395804595204597 0.67808171673060369 0 0.28602682846308641 0.77998481823117594 0 0.2925512105451914 0.73997990291173188 0 0.32191828326940508 0.76395804595204586 0 0.71397317153692708 0.22001518176882201 0 0.70740600291923772 0.26015060193611528 0 0.67808171673060202 0.23604195404795861 0 0.22001518176882229 0.28602682846307981 0 0.26014443552207939 0.29262390443653519 0 0.2360419540479583 0.32191828326940741 0 0.90045039720880915 0.9020090423547924 0 0.90554214442080472 0.95994154153067524 0 0.86696410734367158 0.94753096683315619 0 0.097990957645208238 0.90045039720880915 0 0.040058458469322648 0.90554214442079806 0 0.052469033166843738 0.86696410734366991 0 0.90082758526900886 0.098076845682916511 0 0.95994154153057998 0.094457855579277675 0 0.94100406608115506 0.1383574446607955 0 0.90045039720880915 0.9020090423547924 0 0.94095916274074942 0.86165278010542579 0 0.95994154153065969 0.90554214442078618 0 0.90082758526900886 0.098076845682916511 0 0.86589314360155567 0.054872692726639853 0 0.90554214442081604 0.040058458469347469 0 0.098076845682915317 0.099172414730993488 0 0.094457855579284614 0.040058458469418363 0 0.1383574446607988 0.058995933918849157 0 0.097990957645208238 0.90045039720880915 0 0.13834721989462789 0.94095916274077984 0 0.094457855579188163 0.95994154153068711 0 0.098076845682915317 0.099172414730993488 0 0.054872692726595548 0.13410685639845171 0 0.040058458469319477 0.094457855579157729 0 0.54901591374940373 0.42306523525165751 0 0.54715635490880632 0.37829016026862072 0 0.60122390529523662 0.39097801071820221 0 0.49854341599767982 0.37075914768127122 0 0.54715635490880632 0.37829016026862072 0 0.5047849391802508 0.40719950955717021 0 0.66548584431530877 0.55616712808283064 0 0.65501639383771026 0.594528181397324 0 0.61866949026800744 0.55492322767366287 0 0.50000000000002642 0.7803135888501761 0 0.49771727055908782 0.83998685797641781 0 0.46593838964869061 0.80781872835503554 0 0.2196864111498267 0.50000000000003153 0 0.16001314202358469 0.49771727055909287 0 0.19218127164496679 0.46593838964869538 0 0.78031358885017377 0.49999999999997569 0 0.83998574657308889 0.50228528270184081 0 0.80781854240107975 0.53406203754901738 0 0.49999999999997108 0.21968641114982909 0 0.50228272944093777 0.16001314202359701 0 0.53404982287327418 0.19215288291432539 0 0.70085728320704077 0.84350379029875056 0 0.74154628962857594 0.86274820500026039 0 0.70475631558365914 0.90098127745102974 0 0.1564962097012354 0.70085728320703999 0 0.13725179499972981 0.74154628962856628 0 0.099018722548963364 0.70475631558365193 0 0.84350379029877964 0.29914271679296989 0 0.85389826602741015 0.26318949769600392 0 0.89886191075654698 0.29506339503703172 0 0.29914271679297122 0.15649620970120659 0 0.26318949769601319 0.14610173397257309 0 0.29506339503703888 0.1011380892434444 0 0.74417394063200648 0.6049203001048884 0 0.71518943060973483 0.65679402931717101 0 0.69288637798153729 0.61204665218001397 0 0.39507969989512881 0.74417394063201048 0 0.34270280102445921 0.71672416762035873 0 0.38642358467307758 0.69286258923597266 0 0.60492030010488373 0.25582605936799729 0 0.65679402931716913 0.28481056939027388 0 0.61204665218000809 0.30711362201846659 0 0.25582605936799319 0.39507969989513358 0 0.28473805236128291 0.34355768118673757 0 0.30597655500381687 0.3934681685211931 0 0.88949062093135778 0.73694585442531257 0 0.839908789927305 0.77106070975262608 0 0.8312019486901514 0.72745002167959472 0 0.73688246401832591 0.11047754041323141 0 0.77216325087772952 0.15899695163319821 0 0.72767516840721058 0.16853767177393791 0 0.26305414557470391 0.88949062093136155 0 0.22893929024737289 0.83990878992727813 0 0.27254997832041528 0.8312019486901443 0 0.1104775404132264 0.2631175359816938 0 0.15899695163321451 0.22783674912227669 0 0.1685376717739448 0.27232483159280108 0 0.61233489393901674 0.60846740003560018 0 0.57484409313590223 0.58437321637184114 0 0.61866949026800744 0.55492322767366287 0 0.43565339604028508 0.55159384357101338 0 0.39982789553993509 0.53462762214740622 0 0.45293656999117771 0.51494832297079129 0 0.41009598069569558 0.49083935749285379 0 0.45293656999117771 0.51494832297079129 0 0.39982789553993509 0.53462762214740622 0 0.4434591735942961 0.66641640622551224 0 0.40564717507982689 0.65626423320524974 0 0.45517457031814612 0.62743100079604397 0 0.40653508887824003 0.61580573377480397 0 0.45517457031814612 0.62743100079604397 0 0.40564717507982689 0.65626423320524974 0 0.89586000931544074 0.25714619498770419 0 0.84534053180161173 0.2262639405833009 0 0.89556054516486661 0.21720615046483649 0 0.25714619498771307 0.1041399906845497 0 0.22626394058331961 0.15465946819838111 0 0.21720615046484709 0.1044394548351292 0 0.41009598069569558 0.49083935749285379 0 0.35815651743779398 0.51113440447909086 0 0.37702386074717259 0.45819417564476811 0 0.75000000000034661 1 0 0.71789175274016548 0.95136708251202151 0 0.77688977118331393 0.94706199857866258 0 0 0.75000000000034661 0 0.04863291748797445 0.71789175274016204 0 0.052938001421335763 0.77688977118331159 0 1 0.24999999999941211 0 0.94915666091748963 0.28320804985299752 0 0.94465622530468663 0.23167460333446291 0 0.24999999999941211 0 0 0.28320804985300141 0.050843339082505573 0 0.23167460333446299 0.05534377469531044 0 0.90289902042272274 0.56409326000946114 0 0.95638719633882641 0.5599388881718611 0 0.93946948561981514 0.60485373571037115 0 0.56409326000946236 0.097100979577281268 0 0.55993888817186677 0.043612803661174412 0 0.6048537357103756 0.060530514380187868 0 0.43590673999053309 0.90289902042279657 0 0.44006111182840962 0.9563871963389079 0 0.39514626428973221 0.93946948561985189 0 0.097100979577207341 0.43590673999053198 0 0.043612803661092707 0.44006111182840391 0 0.06053051438015096 0.39514626428972788 0 0.40653508887824003 0.61580573377480397 0 0.40468198875170619 0.57637931869191572 0 0.45030222762303879 0.58443295115431027 0 0.43301393728221038 0.35984320557492139 0 0.43059486795334201 0.30395973419063538 0 0.47253211736503098 0.34081710830804929 0 0.48378871228000903 0.29745177826977359 0 0.47253211736503098 0.34081710830804929 0 0.43059486795334201 0.30395973419063538 0 0.65000000000104008 1 0 0.60000000000138687 1 0 0.63753756910470316 0.95578163339252209 0 0 0.65000000000104008 0 0 0.60000000000138687 0 0.04421836660747535 0.63753756910470205 0 1 0.34999999999912063 0 1 0.3999999999989749 0 0.95581270756939096 0.36248656652865863 0 0.34999999999912063 0 0 0.3999999999989749 0 0 0.36246243089534252 0.044218366607477223 0 0.73982803480991577 0.79629608696991705 0 0.74917861927654894 0.74229989257760443 0 0.78651189793386345 0.75664155808652755 0 0.20370391303007401 0.73982803480989479 0 0.25770010742238642 0.74917861927655205 0 0.24335844191347281 0.78651189793387466 0 0.79629608696994103 0.26017196519011448 0 0.74229989257762263 0.250821380723454 0 0.7582555232258138 0.2115548431873896 0 0.26017196519013502 0.20370391303005 0 0.25082138072344978 0.25770010742236849 0 0.2115548431873881 0.2417444767741872 0 1 0.049999999999899652 0 0.94156647488778256 0.058433525112256718 0 0.96763014295114425 0.032369857048773903 0 0.049999999999899652 0 0 0.058433525112266523 0.058433525112214509 0 0.032369857048753323 0.032369857048862027 0 0.94999999999986839 0 0 0.96763014295114425 0.032369857048773903 0 0.94156647488778256 0.058433525112256718 0 0 0.050000000000207989 0 0.032369857048753323 0.032369857048862027 0 0.058433525112266523 0.058433525112214509 0 1 0.94999999999986839 0 0.96763014295120153 0.96763014295122851 0 0.94156647488775558 0.94156647488774259 0 0.94999999999979179 1 0 0.94156647488775558 0.94156647488774259 0 0.96763014295120153 0.96763014295122851 0 0.050000000000207989 1 0 0.030452409610489669 0.96954759038951022 0 0.058433525112254137 0.94156647488774581 0 0 0.94999999999979179 0 0.058433525112254137 0.94156647488774581 0 0.030452409610489669 0.96954759038951022 0 0.90045039720880915 0.9020090423547924 0 0.88962265630811221 0.85311725681459705 0 0.94095916274074942 0.86165278010542579 0 0.097990957645208238 0.90045039720880915 0 0.14688274318541941 0.88962265630811932 0 0.13834721989462789 0.94095916274077984 0 0.91838802593884228 0.81827409710237209 0 0.94095916274074942 0.86165278010542579 0 0.88962265630811221 0.85311725681459705 0 0.91838802593870927 0.18172590289757809 0 0.88777909259956078 0.1484760565886154 0 0.94100406608115506 0.1383574446607955 0 0.1817259028976386 0.91838802593888857 0 0.13834721989462789 0.94095916274077984 0 0.14688274318541941 0.88962265630811932 0 0.18172590289758209 0.08161197406129285 0 0.1484760565886207 0.1122209074004519 0 0.1383574446607988 0.058995933918849157 0 0.90082758526900886 0.098076845682916511 0 0.94100406608115506 0.1383574446607955 0 0.88777909259956078 0.1484760565886154 0 0.098076845682915317 0.099172414730993488 0 0.1383574446607988 0.058995933918849157 0 0.1484760565886207 0.1122209074004519 0 0.57387636360620708 0.54318431390135336 0 0.61866949026800744 0.55492322767366287 0 0.57484409313590223 0.58437321637184114 0 0.60122390529523662 0.39097801071820221 0 0.54715635490880632 0.37829016026862072 0 0.59596170682035776 0.34609402305862419 0 0.38703015239361932 0.80283068154761972 0 0.32791879770213411 0.80847852346120164 0 0.35837423432538362 0.77730446904312345 0 0.8028306815476034 0.61296984760642026 0 0.80847852346122429 0.67208120229789559 0 0.77730446904309636 0.64162576567462737 0 0.197169318452384 0.38703015239362498 0 0.19152147653881049 0.32791879770215432 0 0.22269553095687891 0.35837423432538801 0 0.61296984760641449 0.19716931845240021 0 0.67208120229787616 0.1915214765387884 0 0.64162576567462404 0.22269553095690481 0 0.39419886675318527 0.41912225240070788 0 0.37702386074717259 0.45819417564476811 0 0.35481422397128459 0.40312981465069342 0 0.33382663527330159 0.44130125047503482 0 0.35481422397128459 0.40312981465069342 0 0.37702386074717259 0.45819417564476811 0 0.40653508887824003 0.61580573377480397 0 0.40564717507982689 0.65626423320524974 0 0.35944937237716967 0.65164789808436319 0 0.53432142347292233 0.88563193847251998 0 0.49771727055908782 0.83998685797641781 0 0.54047998161173716 0.84333512669480526 0 0.1143680615274819 0.53432142347292733 0 0.16001314202358469 0.49771727055909287 0 0.1566648733051971 0.54047998161174216 0 0.88561059063756964 0.46572761956237563 0 0.83998574657308889 0.50228528270184081 0 0.84333218736938698 0.4595365182652234 0 0.46567857652706018 0.1143680615275231 0 0.50228272944093777 0.16001314202359701 0 0.45952001838826873 0.15666487330524251 0 0.37104651296145419 0.60545170748311072 0 0.40653508887824003 0.61580573377480397 0 0.35944937237716967 0.65164789808436319 0 0.6519524273377173 0.64249931920594539 0 0.71518943060973483 0.65679402931717101 0 0.6768914574865772 0.67861120078714243 0 0.35944937237716967 0.65164789808436319 0 0.34270280102445921 0.71672416762035873 0 0.32259853082073792 0.67670072609835186 0 0.6424993192059415 0.3480475726622802 0 0.65679402931716913 0.28481056939027388 0 0.6786112007871401 0.32310854251343019 0 0.34804757266227387 0.35750068079406011 0 0.28473805236128291 0.34355768118673757 0 0.3231032570156932 0.32141443408924047 0 0.73982803480991577 0.79629608696991705 0 0.70085728320704077 0.84350379029875056 0 0.69892030930712212 0.7971997999085858 0 0.20370391303007401 0.73982803480989479 0 0.1564962097012354 0.70085728320703999 0 0.2028002000914135 0.69892030930711557 0 0.79629608696994103 0.26017196519011448 0 0.84350379029877964 0.29914271679296989 0 0.7971997999085878 0.3010796906928917 0 0.26017196519013502 0.20370391303005 0 0.29914271679297122 0.15649620970120659 0 0.30107969069289831 0.20280020009141189 0 0.43301393728221038 0.35984320557492139 0 0.42930823106401639 0.40626685012722968 0 0.39222057657781068 0.38067796690227418 0 0.73982803480991577 0.79629608696991705 0 0.78284912262770068 0.83746308049763585 0 0.74154628962857594 0.86274820500026039 0 0.20370391303007401 0.73982803480989479 0 0.16253691950235041 0.78284912262768558 0 0.13725179499972981 0.74154628962856628 0 0.79629608696994103 0.26017196519011448 0 0.84534053180161173 0.2262639405833009 0 0.85389826602741015 0.26318949769600392 0 0.26017196519013502 0.20370391303005 0 0.22626394058331961 0.15465946819838111 0 0.26318949769601319 0.14610173397257309 0 0.56566515596461675 0.63670464971409091 0 0.57484409313590223 0.58437321637184114 0 0.61233489393901674 0.60846740003560018 0 0.84598529912884157 0.63969251517827153 0 0.85607519768343354 0.69380468830529196 0 0.80847852346122429 0.67208120229789559 0 0.63969251517826664 0.15401470087115929 0 0.69379929796456197 0.14392209494791061 0 0.67208120229787616 0.1915214765387884 0 0.36030748482174152 0.84598529912882459 0 0.30619531169472608 0.85607519768342955 0 0.32791879770213411 0.80847852346120164 0 0.15401470087117619 0.36030748482174652 0 0.14392209494791439 0.30620070203545702 0 0.19152147653881049 0.32791879770215432 0 0.20370391303007401 0.73982803480989479 0 0.24335844191347281 0.78651189793387466 0 0.20359074765364421 0.79422489417871855 0 0.73982803480991577 0.79629608696991705 0 0.78651189793386345 0.75664155808652755 0 0.79422489417873421 0.79640925234634441 0 0.26017196519013502 0.20370391303005 0 0.2115548431873881 0.2417444767741872 0 0.20596721135052939 0.19972517895396219 0 0.79629608696994103 0.26017196519011448 0 0.7582555232258138 0.2115548431873896 0 0.80027482104603809 0.20596721135052129 0 0.51172471858873747 0.64015771271794875 0 0.47818752133962877 0.66454462905280853 0 0.45517457031814612 0.62743100079604397 0 0.54901591374940373 0.42306523525165751 0 0.60122390529523662 0.39097801071820221 0 0.59313386551587477 0.43977047843653239 0 0.640156794425081 0.43301393728221721 0 0.59313386551587477 0.43977047843653239 0 0.60122390529523662 0.39097801071820221 0 0.70252050881959183 0.70358884261915833 0 0.71518943060973483 0.65679402931717101 0 0.73984939806388494 0.70740600291923139 0 0.29641115738084339 0.70252050881958938 0 0.34270280102445921 0.71672416762035873 0 0.2925512105451914 0.73997990291173188 0 0.76395804595204597 0.67808171673060369 0 0.73984939806388494 0.70740600291923139 0 0.71518943060973483 0.65679402931717101 0 0.32191828326940508 0.76395804595204586 0 0.2925512105451914 0.73997990291173188 0 0.34270280102445921 0.71672416762035873 0 0.70358884261915744 0.29747949118041561 0 0.65679402931716913 0.28481056939027388 0 0.70740600291923772 0.26015060193611528 0 0.29747949118041711 0.2964111573808435 0 0.28473805236128291 0.34355768118673757 0 0.26014443552207939 0.29262390443653519 0 0.67808171673060202 0.23604195404795861 0 0.70740600291923772 0.26015060193611528 0 0.65679402931716913 0.28481056939027388 0 0.2360419540479583 0.32191828326940741 0 0.26014443552207939 0.29262390443653519 0 0.28473805236128291 0.34355768118673757 0 0.74198804864688339 0.90892718720327403 0 0.70475631558365914 0.90098127745102974 0 0.74154628962857594 0.86274820500026039 0 0.091072812796719582 0.74198804864687795 0 0.099018722548963364 0.70475631558365193 0 0.13725179499972981 0.74154628962856628 0 0.89586000931544074 0.25714619498770419 0 0.89886191075654698 0.29506339503703172 0 0.85389826602741015 0.26318949769600392 0 0.25714619498771307 0.1041399906845497 0 0.29506339503703888 0.1011380892434444 0 0.26318949769601319 0.14610173397257309 0 0.59819537371016407 0.74380966024143391 0 0.64203711532612107 0.74316477213290444 0 0.61896574319320252 0.795216048370321 0 0.66820316019503978 0.77769800602796979 0 0.61896574319320252 0.795216048370321 0 0.64203711532612107 0.74316477213290444 0 0.25619033975856881 0.59819537371016862 0 0.25684529255773247 0.64203554247963057 0 0.2047839516296828 0.61896574319320252 0 0.22230199397202771 0.66820316019503168 0 0.2047839516296828 0.61896574319320252 0 0.25684529255773247 0.64203554247963057 0 0.74380966024142703 0.40180462628984132 0 0.74316477213289889 0.35796288467388632 0 0.79521604837030013 0.38103425680679831 0 0.77769800602796679 0.33179683980497482 0 0.79521604837030013 0.38103425680679831 0 0.74316477213289889 0.35796288467388632 0 0.40180462628983732 0.2561903397585753 0 0.3579628846738841 0.25683522786710378 0 0.38103425680679859 0.2047839516297037 0 0.33179683980498331 0.2223019939720311 0 0.38103425680679859 0.2047839516297037 0 0.3579628846738841 0.25683522786710378 0 0.92670321183853355 0.65773042910151081 0 0.93946948561981514 0.60485373571037115 0 0.96654491682122368 0.6363613838740827 0 0.65773042910151891 0.073296788161472337 0 0.6048537357103756 0.060530514380187868 0 0.63635157668793507 0.033457646040912177 0 0.3422695708985129 0.92670321183858773 0 0.39514626428973221 0.93946948561985189 0 0.36363861612613613 0.96654491682121313 0 0.073296788161418117 0.34226957089850552 0 0.06053051438015096 0.39514626428972788 0 0.033457646040922301 0.36364842331228431 0 0.6519524273377173 0.64249931920594539 0 0.6768914574865772 0.67861120078714243 0 0.64518564541690571 0.69601563325001548 0 0.35944937237716967 0.65164789808436319 0 0.32259853082073792 0.67670072609835186 0 0.30421635384321521 0.64514939193436716 0 0.6424993192059415 0.3480475726622802 0 0.6786112007871401 0.32310854251343019 0 0.69601563325001248 0.35481435458309712 0 0.34804757266227387 0.35750068079406011 0 0.3231032570156932 0.32141443408924047 0 0.35481435458309307 0.30398436674998969 0 0.73982803480991577 0.79629608696991705 0 0.71159714897733284 0.75039044679290845 0 0.74917861927654894 0.74229989257760443 0 0.20370391303007401 0.73982803480989479 0 0.249609553207091 0.71159714897732929 0 0.25770010742238642 0.74917861927655205 0 0.79629608696994103 0.26017196519011448 0 0.75039044679291111 0.28840285102267788 0 0.74229989257762263 0.250821380723454 0 0.26017196519013502 0.20370391303005 0 0.28840285102268098 0.24960955320708811 0 0.25082138072344978 0.25770010742236849 0 0.43565339604028508 0.55159384357101338 0 0.45030222762303879 0.58443295115431027 0 0.40468198875170619 0.57637931869191572 0 0.3999999999989749 0 0 0.44999999999882923 0 0 0.40685581827241191 0.041139877312511682 0 1 0.3999999999989749 0 1 0.44999999999882923 0 0.95886012268748921 0.4068558182724159 0 0 0.60000000000138687 0 0 0.55000000000173355 0 0.041139877312483641 0.59314418172763017 0 0.60000000000138687 1 0 0.55000000000173355 1 0 0.5931441817276254 0.95886012268751675 0 1 0.049999999999899652 0 1 0.099999999999814668 0 0.95994154153057998 0.094457855579277675 0 0.049999999999899652 0 0 0.099999999999814668 0 0 0.094457855579284614 0.040058458469418363 0 0.94999999999979179 1 0 0.89999999999958358 1 0 0.90554214442080472 0.95994154153067524 0 0 0.94999999999979179 0 0 0.89999999999958358 0 0.040058458469322648 0.90554214442079806 0 1 0.89999999999973679 0 1 0.94999999999986839 0 0.95994154153065969 0.90554214442078618 0 0.89999999999973679 0 0 0.94999999999986839 0 0 0.90554214442081604 0.040058458469347469 0 0.10000000000041601 1 0 0.050000000000207989 1 0 0.094457855579188163 0.95994154153068711 0 0 0.10000000000041601 0 0 0.050000000000207989 0 0.040058458469319477 0.094457855579157729 0 0.88949062093135778 0.73694585442531257 0 0.8312019486901514 0.72745002167959472 0 0.85607519768343354 0.69380468830529196 0 0.73688246401832591 0.11047754041323141 0 0.72767516840721058 0.16853767177393791 0 0.69379929796456197 0.14392209494791061 0 0.26305414557470391 0.88949062093136155 0 0.27254997832041528 0.8312019486901443 0 0.30619531169472608 0.85607519768342955 0 0.1104775404132264 0.2631175359816938 0 0.1685376717739448 0.27232483159280108 0 0.14392209494791439 0.30620070203545702 0 0.51484304721220842 0.69707233951836334 0 0.54465502325161819 0.74717983044080061 0 0.49073113440598592 0.73759004618730417 0 0.30292766048163949 0.51484304721221474 0 0.25287139441262568 0.54458355434492378 0 0.262418491288269 0.49071922292154141 0 0.70015119067225129 0.48481914991727459 0 0.74730218607442667 0.45539100053644521 0 0.73815142352639962 0.50697050072007344 0 0.48378871228000903 0.29745177826977359 0 0.45533136021725079 0.2525687312087147 0 0.50732841191799194 0.2613117081243182 0 0.66548584431530877 0.55616712808283064 0 0.61866949026800744 0.55492322767366287 0 0.64455163611866495 0.50369301794551069 0 0.5586987495249669 0.33382663527330653 0 0.59596170682035776 0.34609402305862419 0 0.54715635490880632 0.37829016026862072 0 0.41009598069569558 0.49083935749285379 0 0.42340342337193693 0.44762131874855388 0 0.46152714345798918 0.47344359412352599 0 0.63969251517836323 0.84598529912890386 0 0.61896574319320252 0.795216048370321 0 0.66919832404887702 0.81820888699730587 0 0.1540147008710982 0.63969251517836956 0 0.2047839516296828 0.61896574319320252 0 0.1817911130026923 0.66919832404888702 0 0.84598529912889664 0.36030748482164038 0 0.79521604837030013 0.38103425680679831 0 0.8182088869973061 0.33080167595111531 0 0.3603074848216346 0.15401470087110539 0 0.38103425680679859 0.2047839516297037 0 0.33080167595110582 0.18179111300269291 0 0.60000000000138687 1 0 0.5931441817276254 0.95886012268751675 0 0.63753756910470316 0.95578163339252209 0 0 0.60000000000138687 0 0.041139877312483641 0.59314418172763017 0 0.04421836660747535 0.63753756910470205 0 1 0.3999999999989749 0 0.95886012268748921 0.4068558182724159 0 0.95581270756939096 0.36248656652865863 0 0.3999999999989749 0 0 0.40685581827241191 0.041139877312511682 0 0.36246243089534252 0.044218366607477223 0 0.6519524273377173 0.64249931920594539 0 0.61233489393901674 0.60846740003560018 0 0.65501639383771026 0.594528181397324 0 0.6424993192059415 0.3480475726622802 0 0.60122390529523662 0.39097801071820221 0 0.59596170682035776 0.34609402305862419 0 0.56566515596461675 0.63670464971409091 0 0.60879112811253555 0.66592422311595834 0 0.57051182622447827 0.69668652018496713 0 0.35984320557492089 0.56698606271778873 0 0.33231497408081678 0.60779218732873663 0 0.30429740679959738 0.56913905146460098 0 0.640156794425081 0.43301393728221721 0 0.66346942254826746 0.391530810754116 0 0.69595787604187809 0.43071000156707989 0 0.43301393728221038 0.35984320557492139 0 0.39120887188745579 0.33407577688404289 0 0.43059486795334201 0.30395973419063538 0 0.59999999999894682 0 0 0.63635157668793507 0.033457646040912177 0 0.6048537357103756 0.060530514380187868 0 1 0.59999999999894682 0 0.96654491682122368 0.6363613838740827 0 0.93946948561981514 0.60485373571037115 0 0 0.40000000000166441 0 0.033457646040922301 0.36364842331228431 0 0.06053051438015096 0.39514626428972788 0 0.40000000000166441 1 0 0.36363861612613613 0.96654491682121313 0 0.39514626428973221 0.93946948561985189 0 0.50000000000002642 0.7803135888501761 0 0.49073113440598592 0.73759004618730417 0 0.54465502325161819 0.74717983044080061 0 0.2196864111498267 0.50000000000003153 0 0.262418491288269 0.49071922292154141 0 0.25287139441262568 0.54458355434492378 0 0.78031358885017377 0.49999999999997569 0 0.73815142352639962 0.50697050072007344 0 0.74730218607442667 0.45539100053644521 0 0.49999999999997108 0.21968641114982909 0 0.50732841191799194 0.2613117081243182 0 0.45533136021725079 0.2525687312087147 0 0.39507969989512881 0.74417394063201048 0 0.43306783640023289 0.78031198216144404 0 0.38703015239361932 0.80283068154761972 0 0.25582605936799319 0.39507969989513358 0 0.21968801783855879 0.43306783640023788 0 0.197169318452384 0.38703015239362498 0 0.74417394063200648 0.6049203001048884 0 0.78031198216143516 0.56693216359979737 0 0.8028306815476034 0.61296984760642026 0 0.60492030010488373 0.25582605936799729 0 0.56683314878414581 0.21944955250104689 0 0.61296984760641449 0.19716931845240021 0 0.77998481823117694 0.71397317153691997 0 0.74917861927654894 0.74229989257760443 0 0.73984939806388494 0.70740600291923139 0 0.28602682846308641 0.77998481823117594 0 0.25770010742238642 0.74917861927655205 0 0.2925512105451914 0.73997990291173188 0 0.71397317153692708 0.22001518176882201 0 0.74229989257762263 0.250821380723454 0 0.70740600291923772 0.26015060193611528 0 0.22001518176882229 0.28602682846307981 0 0.25082138072344978 0.25770010742236849 0 0.26014443552207939 0.29262390443653519 0 0.49189101320880302 0.59024331187324797 0 0.53087311892591971 0.55299263141448529 0 0.53542397956703913 0.60119875982347493 0 0.41009598069569558 0.49083935749285379 0 0.46152714345798918 0.47344359412352599 0 0.45293656999117771 0.51494832297079129 0 0.66820316019503978 0.77769800602796979 0 0.66919832404887702 0.81820888699730587 0 0.61896574319320252 0.795216048370321 0 0.22230199397202771 0.66820316019503168 0 0.1817911130026923 0.66919832404888702 0 0.2047839516296828 0.61896574319320252 0 0.77769800602796679 0.33179683980497482 0 0.8182088869973061 0.33080167595111531 0 0.79521604837030013 0.38103425680679831 0 0.33179683980498331 0.2223019939720311 0 0.33080167595110582 0.18179111300269291 0 0.38103425680679859 0.2047839516297037 0 0.83199780613337848 0.1690131600686714 0 0.87355793346388477 0.18922011052113649 0 0.84534053180161173 0.2262639405833009 0 0.16901316006868169 0.16800219386663079 0 0.18922011052115781 0.12644206653611201 0 0.22626394058331961 0.15465946819838111 0 0.58981073711177334 0.48140931020849848 0 0.62619054498681193 0.46482944251856079 0 0.64455163611866495 0.50369301794551069 0 0.59621567360238914 0.5184866806641607 0 0.58981073711177334 0.48140931020849848 0 0.64455163611866495 0.50369301794551069 0 0.53432142347292233 0.88563193847251998 0 0.54047998161173716 0.84333512669480526 0 0.58267137064684116 0.87013301365640838 0 0.56759263990989184 0.81794319034601648 0 0.58267137064684116 0.87013301365640838 0 0.54047998161173716 0.84333512669480526 0 0.1143680615274819 0.53432142347292733 0 0.1566648733051971 0.54047998161174216 0 0.12986698634359389 0.58267137064684615 0 0.18205680965398621 0.56759263990989739 0 0.12986698634359389 0.58267137064684615 0 0.1566648733051971 0.54047998161174216 0 0.88561059063756964 0.46572761956237563 0 0.84333218736938698 0.4595365182652234 0 0.87012666750595846 0.41743873185103042 0 0.81794319034597418 0.43240736009009317 0 0.87012666750595846 0.41743873185103042 0 0.84333218736938698 0.4595365182652234 0 0.46567857652706018 0.1143680615275231 0 0.45952001838826873 0.15666487330524251 0 0.41732862935313042 0.12986698634362279 0 0.43240736009008851 0.18205680965402779 0 0.41732862935313042 0.12986698634362279 0 0.45952001838826873 0.15666487330524251 0 0.70085728320704077 0.84350379029875056 0 0.70475631558365914 0.90098127745102974 0 0.66923299355723143 0.8804077449518628 0 0.1564962097012354 0.70085728320703999 0 0.099018722548963364 0.70475631558365193 0 0.1195922550481313 0.66923299355722787 0 0.84350379029877964 0.29914271679296989 0 0.89886191075654698 0.29506339503703172 0 0.88040774495187946 0.33076700644278889 0 0.29914271679297122 0.15649620970120659 0 0.29506339503703888 0.1011380892434444 0 0.33076700644279272 0.1195922550481146 0 0.839908789927305 0.77106070975262608 0 0.78651189793386345 0.75664155808652755 0 0.8312019486901514 0.72745002167959472 0 0.22893929024737289 0.83990878992727813 0 0.24335844191347281 0.78651189793387466 0 0.27254997832041528 0.8312019486901443 0 0.77216325087772952 0.15899695163319821 0 0.7582555232258138 0.2115548431873896 0 0.72767516840721058 0.16853767177393791 0 0.15899695163321451 0.22783674912227669 0 0.2115548431873881 0.2417444767741872 0 0.1685376717739448 0.27232483159280108 0 0.89586000931544074 0.25714619498770419 0 0.85389826602741015 0.26318949769600392 0 0.84534053180161173 0.2262639405833009 0 0.25714619498771307 0.1041399906845497 0 0.26318949769601319 0.14610173397257309 0 0.22626394058331961 0.15465946819838111 0 0.49771727055908782 0.83998685797641781 0 0.45353891581270822 0.85551523377818905 0 0.46593838964869061 0.80781872835503554 0 0.16001314202358469 0.49771727055909287 0 0.1444847662218138 0.45353891581271188 0 0.19218127164496679 0.46593838964869538 0 0.83998574657308889 0.50228528270184081 0 0.85551478316835361 0.54646211938695222 0 0.80781854240107975 0.53406203754901738 0 0.50228272944093777 0.16001314202359701 0 0.54646108418729233 0.1444847662218687 0 0.53404982287327418 0.19215288291432539 0 0.51484304721220842 0.69707233951836334 0 0.47818752133962877 0.66454462905280853 0 0.51172471858873747 0.64015771271794875 0 0.30292766048163949 0.51484304721221474 0 0.33436424489304489 0.47849603121740791 0 0.35815651743779398 0.51113440447909086 0 0.6027107599280892 0.83436006790502326 0 0.63969251517836323 0.84598529912890386 0 0.62483828039315681 0.8780818733396436 0 0.1656399320949789 0.60271075992809464 0 0.1540147008710982 0.63969251517836956 0 0.1219181266603569 0.62483828039315903 0 0.83436006790498052 0.39728924007189959 0 0.84598529912889664 0.36030748482164038 0 0.87815187193233801 0.37523526017134418 0 0.3972892400718947 0.16563993209502181 0 0.3603074848216346 0.15401470087110539 0 0.37516171960683908 0.121918126660369 0 0.70015119067225129 0.48481914991727459 0 0.64455163611866495 0.50369301794551069 0 0.66329969176266512 0.46626046872004567 0 0.57387636360620708 0.54318431390135336 0 0.53087311892591971 0.55299263141448529 0 0.554170140907293 0.50922353359177785 0 0.50333998054938722 0.50119715791968966 0 0.50753758205811061 0.4506562873613274 0 0.54783891860069212 0.46640164214823893 0 0.58267137064684116 0.87013301365640838 0 0.6027107599280892 0.83436006790502326 0 0.62483828039315681 0.8780818733396436 0 0.12986698634359389 0.58267137064684615 0 0.1656399320949789 0.60271075992809464 0 0.1219181266603569 0.62483828039315903 0 0.87012666750595846 0.41743873185103042 0 0.83436006790498052 0.39728924007189959 0 0.87815187193233801 0.37523526017134418 0 0.41732862935313042 0.12986698634362279 0 0.3972892400718947 0.16563993209502181 0 0.37516171960683908 0.121918126660369 0 0.35984320557492089 0.56698606271778873 0 0.35815651743779398 0.51113440447909086 0 0.39982789553993509 0.53462762214740622 0 0.43087117257049001 0.8215422551712771 0 0.46593838964869061 0.80781872835503554 0 0.45353891581270822 0.85551523377818905 0 0.17845774482872559 0.43087117257049429 0 0.19218127164496679 0.46593838964869538 0 0.1444847662218138 0.45353891581271188 0 0.8215422551712277 0.56912882742954496 0 0.80781854240107975 0.53406203754901738 0 0.85551478316835361 0.54646211938695222 0 0.56912882742954041 0.17845774482877461 0 0.53404982287327418 0.19215288291432539 0 0.54646108418729233 0.1444847662218687 0 0.89586000931544074 0.25714619498770419 0 0.89556054516486661 0.21720615046483649 0 0.94465622530468663 0.23167460333446291 0 0.91838802593870927 0.18172590289757809 0 0.94465622530468663 0.23167460333446291 0 0.89556054516486661 0.21720615046483649 0 0.25714619498771307 0.1041399906845497 0 0.21720615046484709 0.1044394548351292 0 0.23167460333446299 0.05534377469531044 0 0.18172590289758209 0.08161197406129285 0 0.23167460333446299 0.05534377469531044 0 0.21720615046484709 0.1044394548351292 0 0.50333998054938722 0.50119715791968966 0 0.54783891860069212 0.46640164214823893 0 0.554170140907293 0.50922353359177785 0 0.16901316006868169 0.16800219386663079 0 0.12587517708284679 0.1889683322666954 0 0.12294765968567151 0.14825146416195439 0 0.83199780613337848 0.1690131600686714 0 0.8110316677333288 0.125875177082863 0 0.8517485358380722 0.12294765968568611 0 0.74198804864688339 0.90892718720327403 0 0.74154628962857594 0.86274820500026039 0 0.78020430794084783 0.88768307197553598 0 0.78284912262770068 0.83746308049763585 0 0.78020430794084783 0.88768307197553598 0 0.74154628962857594 0.86274820500026039 0 0.091072812796719582 0.74198804864687795 0 0.13725179499972981 0.74154628962856628 0 0.11231692802445629 0.78020430794084028 0 0.16253691950235041 0.78284912262768558 0 0.11231692802445629 0.78020430794084028 0 0.13725179499972981 0.74154628962856628 0 0.82118136511706341 0.082875076569723011 0 0.77925951159456153 0.09969477121230251 0 0.76543419162344684 0.056452228708420968 0 0.08287507656968085 0.1788186348829835 0 0.099694771212264055 0.22074048840547039 0 0.056452228708379938 0.23456580837661581 0 0.91838802593884228 0.81827409710237209 0 0.9041449437197947 0.7786886066890556 0 0.9442075111696665 0.76777356182390766 0 0.1817259028976386 0.91838802593888857 0 0.22131139331094829 0.9041449437198319 0 0.23222643817617661 0.94420751116970569 0 0.73688246401832591 0.11047754041323141 0 0.76543419162344684 0.056452228708420968 0 0.77925951159456153 0.09969477121230251 0 0.1104775404132264 0.2631175359816938 0 0.056452228708379938 0.23456580837661581 0 0.099694771212264055 0.22074048840547039 0 0.88949062093135778 0.73694585442531257 0 0.9442075111696665 0.76777356182390766 0 0.9041449437197947 0.7786886066890556 0 0.26305414557470391 0.88949062093136155 0 0.23222643817617661 0.94420751116970569 0 0.22131139331094829 0.9041449437198319 0 0.73984939806388494 0.70740600291923139 0 0.71159714897733284 0.75039044679290845 0 0.70252050881959183 0.70358884261915833 0 0.74917861927654894 0.74229989257760443 0 0.71159714897733284 0.75039044679290845 0 0.73984939806388494 0.70740600291923139 0 0.2925512105451914 0.73997990291173188 0 0.249609553207091 0.71159714897732929 0 0.29641115738084339 0.70252050881958938 0 0.25770010742238642 0.74917861927655205 0 0.249609553207091 0.71159714897732929 0 0.2925512105451914 0.73997990291173188 0 0.70740600291923772 0.26015060193611528 0 0.75039044679291111 0.28840285102267788 0 0.70358884261915744 0.29747949118041561 0 0.74229989257762263 0.250821380723454 0 0.75039044679291111 0.28840285102267788 0 0.70740600291923772 0.26015060193611528 0 0.26014443552207939 0.29262390443653519 0 0.28840285102268098 0.24960955320708811 0 0.29747949118041711 0.2964111573808435 0 0.25082138072344978 0.25770010742236849 0 0.28840285102268098 0.24960955320708811 0 0.26014443552207939 0.29262390443653519 0 0.88949062093135778 0.73694585442531257 0 0.85607519768343354 0.69380468830529196 0 0.90051880305432697 0.69261863673346957 0 0.26305414557470391 0.88949062093136155 0 0.30619531169472608 0.85607519768342955 0 0.30738136326657722 0.90051880305435028 0 0.73688246401832591 0.11047754041323141 0 0.69379929796456197 0.14392209494791061 0 0.69253601466723103 0.09949211948105087 0 0.1104775404132264 0.2631175359816938 0 0.14392209494791439 0.30620070203545702 0 0.099492119481027347 0.30746398533281638 0 0.58981073711177334 0.48140931020849848 0 0.54783891860069212 0.46640164214823893 0 0.59313386551587477 0.43977047843653239 0 0.640156794425081 0.43301393728221721 0 0.69595787604187809 0.43071000156707989 0 0.66329969176266512 0.46626046872004567 0 0.70015119067225129 0.48481914991727459 0 0.66329969176266512 0.46626046872004567 0 0.69595787604187809 0.43071000156707989 0 0.8289812646369813 0.82898126463698818 0 0.81306033001437827 0.8677384967307622 0 0.78284912262770068 0.83746308049763585 0 0.17101873536300011 0.82898126463696109 0 0.1322615032692282 0.8130603300143705 0 0.16253691950235041 0.78284912262768558 0 0.84534053180161173 0.2262639405833009 0 0.87355793346388477 0.18922011052113649 0 0.89556054516486661 0.21720615046483649 0 0.22626394058331961 0.15465946819838111 0 0.18922011052115781 0.12644206653611201 0 0.21720615046484709 0.1044394548351292 0 0.90082758526900886 0.098076845682916511 0 0.86148619541339633 0.089689702191568438 0 0.86589314360155567 0.054872692726639853 0 0.098076845682915317 0.099172414730993488 0 0.089689702191541126 0.13851380458662241 0 0.054872692726595548 0.13410685639845171 0 0.84598529912884157 0.63969251517827153 0 0.89064679688610338 0.6216080907827598 0 0.88396545633132484 0.6625197322180193 0 0.63969251517826664 0.15401470087115929 0 0.62160809078275991 0.1093532031139005 0 0.66251865414987876 0.1160340021949529 0 0.36030748482174152 0.84598529912882459 0 0.37839190921727062 0.89064679688614412 0 0.33748026778199908 0.88396545633134682 0 0.15401470087117619 0.36030748482174652 0 0.10935320311385981 0.37839190921727089 0 0.11603400219493119 0.33748134585014028 0 0.82118136511706341 0.082875076569723011 0 0.8517485358380722 0.12294765968568611 0 0.8110316677333288 0.125875177082863 0 0.08287507656968085 0.1788186348829835 0 0.12294765968567151 0.14825146416195439 0 0.12587517708284679 0.1889683322666954 0 0.75000000000034661 1 0 0.7000000000006934 1 0 0.71789175274016548 0.95136708251202151 0 0 0.75000000000034661 0 0 0.7000000000006934 0 0.04863291748797445 0.71789175274016204 0 1 0.24999999999941211 0 1 0.29999999999926641 0 0.94915666091748963 0.28320804985299752 0 0.24999999999941211 0 0 0.29999999999926641 0 0 0.28320804985300141 0.050843339082505573 0 0.55000000000173355 1 0 0.51507566941747085 0.9626786017237855 0 0.55307204985744796 0.94819812235491685 0 0 0.55000000000173355 0 0.037321398276215258 0.51507566941747263 0 0.051801877645083663 0.55307204985745195 0 1 0.44999999999882923 0 0.96266688603193029 0.48495124540067203 0 0.94812782820415209 0.44708943904932719 0 0.44999999999882923 0 0 0.48492433058289169 0.037321398276272413 0 0.44692795014265252 0.051801877645060238 0 0.49854341599767982 0.37075914768127122 0 0.51491507395299929 0.3326740076510219 0 0.54715635490880632 0.37829016026862072 0 0.91838802593884228 0.81827409710237209 0 0.88962265630811221 0.85311725681459705 0 0.87660297360393757 0.8104127896505644 0 0.1817259028976386 0.91838802593888857 0 0.14688274318541941 0.88962265630811932 0 0.18958721034944021 0.87660297360394568 0 0.50333998054938722 0.50119715791968966 0 0.554170140907293 0.50922353359177785 0 0.53087311892591971 0.55299263141448529 0 0.91890123454466932 0.39094742729597309 0 0.95886012268748921 0.4068558182724159 0 0.90991454156957952 0.4312731559748802 0 0.94812782820415209 0.44708943904932719 0 0.90991454156957952 0.4312731559748802 0 0.95886012268748921 0.4068558182724159 0 0.84999999999965292 1 0 0.82675923981951416 0.95611053755456221 0 0.86696410734367158 0.94753096683315619 0 0 0.84999999999965292 0 0.043889462445437968 0.82675923981951283 0 0.052469033166843738 0.86696410734366991 0 0.1817259028976386 0.91838802593888857 0 0.18045991219397989 0.960710939969875 0 0.13834721989462789 0.94095916274077984 0 0.91838802593884228 0.81827409710237209 0 0.96071093996985157 0.81954008780615684 0 0.94095916274074942 0.86165278010542579 0 0.08287507656968085 0.1788186348829835 0 0.038839999600931263 0.17949825993190149 0 0.054872692726595548 0.13410685639845171 0 0.82118136511706341 0.082875076569723011 0 0.82050174006822896 0.038839999600956771 0 0.86589314360155567 0.054872692726639853 0 0.15000000000062411 1 0 0.13834721989462789 0.94095916274077984 0 0.18045991219397989 0.960710939969875 0 1 0.84999999999960507 0 0.94095916274074942 0.86165278010542579 0 0.96071093996985157 0.81954008780615684 0 0 0.15000000000062411 0 0.054872692726595548 0.13410685639845171 0 0.038839999600931263 0.17949825993190149 0 0.84999999999960507 0 0 0.86589314360155567 0.054872692726639853 0 0.82050174006822896 0.038839999600956771 0 1 0.14999999999970359 0 0.96080966346491015 0.18035159017841959 0 0.94100406608115506 0.1383574446607955 0 0.14999999999970359 0 0 0.18035159017842109 0.039190336535090492 0 0.1383574446607988 0.058995933918849157 0 0.91838802593870927 0.18172590289757809 0 0.94100406608115506 0.1383574446607955 0 0.96080966346491015 0.18035159017841959 0 0.18172590289758209 0.08161197406129285 0 0.1383574446607988 0.058995933918849157 0 0.18035159017842109 0.039190336535090492 0 0.40653508887824003 0.61580573377480397 0 0.45030222762303879 0.58443295115431027 0 0.45517457031814612 0.62743100079604397 0 0.50333998054938722 0.50119715791968966 0 0.53087311892591971 0.55299263141448529 0 0.47974773860103892 0.54872726831320284 0 0.33382663527330159 0.44130125047503482 0 0.30597655500381687 0.3934681685211931 0 0.35481422397128459 0.40312981465069342 0 0.34804757266227387 0.35750068079406011 0 0.35481422397128459 0.40312981465069342 0 0.30597655500381687 0.3934681685211931 0 0.39419886675318527 0.41912225240070788 0 0.39222057657781068 0.38067796690227418 0 0.42930823106401639 0.40626685012722968 0 0.5586987495249669 0.33382663527330653 0 0.54715635490880632 0.37829016026862072 0 0.51491507395299929 0.3326740076510219 0 0.84598529912884157 0.63969251517827153 0 0.88396545633132484 0.6625197322180193 0 0.85607519768343354 0.69380468830529196 0 0.63969251517826664 0.15401470087115929 0 0.66251865414987876 0.1160340021949529 0 0.69379929796456197 0.14392209494791061 0 0.36030748482174152 0.84598529912882459 0 0.33748026778199908 0.88396545633134682 0 0.30619531169472608 0.85607519768342955 0 0.15401470087117619 0.36030748482174652 0 0.11603400219493119 0.33748134585014028 0 0.14392209494791439 0.30620070203545702 0 0.41009598069569558 0.49083935749285379 0 0.39982789553993509 0.53462762214740622 0 0.35815651743779398 0.51113440447909086 0 0.43087117257049001 0.8215422551712771 0 0.38703015239361932 0.80283068154761972 0 0.43306783640023289 0.78031198216144404 0 0.8215422551712277 0.56912882742954496 0 0.8028306815476034 0.61296984760642026 0 0.78031198216143516 0.56693216359979737 0 0.17845774482872559 0.43087117257049429 0 0.197169318452384 0.38703015239362498 0 0.21968801783855879 0.43306783640023788 0 0.56912882742954041 0.17845774482877461 0 0.61296984760641449 0.19716931845240021 0 0.56683314878414581 0.21944955250104689 0 0.86696410734367158 0.94753096683315619 0 0.82675923981951416 0.95611053755456221 0 0.85382799508926477 0.91295829388058414 0 0.052469033166843738 0.86696410734366991 0 0.043889462445437968 0.82675923981951283 0 0.087041706119416085 0.85382799508926188 0 0.81709574086843206 0.91318696080656769 0 0.85382799508926477 0.91295829388058414 0 0.82675923981951416 0.95611053755456221 0 0.086813039193431391 0.81709574086842884 0 0.087041706119416085 0.85382799508926188 0 0.043889462445437968 0.82675923981951283 0 0.77998481823117694 0.71397317153691997 0 0.8312019486901514 0.72745002167959472 0 0.78651189793386345 0.75664155808652755 0 0.28602682846308641 0.77998481823117594 0 0.27254997832041528 0.8312019486901443 0 0.24335844191347281 0.78651189793387466 0 0.71397317153692708 0.22001518176882201 0 0.72767516840721058 0.16853767177393791 0 0.7582555232258138 0.2115548431873896 0 0.22001518176882229 0.28602682846307981 0 0.1685376717739448 0.27232483159280108 0 0.2115548431873881 0.2417444767741872 0 0.54901591374940373 0.42306523525165751 0 0.50753758205811061 0.4506562873613274 0 0.5047849391802508 0.40719950955717021 0 0.54901591374940373 0.42306523525165751 0 0.59313386551587477 0.43977047843653239 0 0.54783891860069212 0.46640164214823893 0 0.81709574086843206 0.91318696080656769 0 0.81306033001437827 0.8677384967307622 0 0.85174853583809862 0.87705234031428159 0 0.086813039193431391 0.81709574086842884 0 0.1322615032692282 0.8130603300143705 0 0.1229476596857173 0.85174853583809695 0 0.839908789927305 0.77106070975262608 0 0.79422489417873421 0.79640925234634441 0 0.78651189793386345 0.75664155808652755 0 0.22893929024737289 0.83990878992727813 0 0.20359074765364421 0.79422489417871855 0 0.24335844191347281 0.78651189793387466 0 0.77216325087772952 0.15899695163319821 0 0.80027482104603809 0.20596721135052129 0 0.7582555232258138 0.2115548431873896 0 0.15899695163321451 0.22783674912227669 0 0.20596721135052939 0.19972517895396219 0 0.2115548431873881 0.2417444767741872 0 0.70087539567735502 0.57165914616526226 0 0.65501639383771026 0.594528181397324 0 0.66548584431530877 0.55616712808283064 0 0.69288637798153729 0.61204665218001397 0 0.65501639383771026 0.594528181397324 0 0.70087539567735502 0.57165914616526226 0 0.57188338999077359 0.29874123486230147 0 0.59596170682035776 0.34609402305862419 0 0.5586987495249669 0.33382663527330653 0 0.61204665218000809 0.30711362201846659 0 0.59596170682035776 0.34609402305862419 0 0.57188338999077359 0.29874123486230147 0 0.55307204985744796 0.94819812235491685 0 0.56877264426066887 0.91182300080710277 0 0.5931441817276254 0.95886012268751675 0 0.60938371359314658 0.91847489683800321 0 0.5931441817276254 0.95886012268751675 0 0.56877264426066887 0.91182300080710277 0 0.051801877645083663 0.55307204985745195 0 0.088176999192898689 0.56877264426067353 0 0.041139877312483641 0.59314418172763017 0 0.081525103161997597 0.6093837135931508 0 0.041139877312483641 0.59314418172763017 0 0.088176999192898689 0.56877264426067353 0 0.44692795014265252 0.051801877645060238 0 0.43122735573933979 0.088176999192917438 0 0.40685581827241191 0.041139877312511682 0 0.39061628640684498 0.081525103161991672 0 0.40685581827241191 0.041139877312511682 0 0.43122735573933979 0.088176999192917438 0 0.56566515596461675 0.63670464971409091 0 0.54058719659441246 0.66889411379075558 0 0.51172471858873747 0.64015771271794875 0 0.35984320557492089 0.56698606271778873 0 0.331306197573488 0.54052564146842386 0 0.35815651743779398 0.51113440447909086 0 0.51484304721220842 0.69707233951836334 0 0.51172471858873747 0.64015771271794875 0 0.54058719659441246 0.66889411379075558 0 0.30292766048163949 0.51484304721221474 0 0.35815651743779398 0.51113440447909086 0 0.331306197573488 0.54052564146842386 0 0.90045039720880915 0.9020090423547924 0 0.86696410734367158 0.94753096683315619 0 0.85382799508926477 0.91295829388058414 0 0.097990957645208238 0.90045039720880915 0 0.052469033166843738 0.86696410734366991 0 0.087041706119416085 0.85382799508926188 0 0.82118136511706341 0.082875076569723011 0 0.86589314360155567 0.054872692726639853 0 0.86148619541339633 0.089689702191568438 0 0.08287507656968085 0.1788186348829835 0 0.054872692726595548 0.13410685639845171 0 0.089689702191541126 0.13851380458662241 0 0.67757268808231397 0.93106206656183088 0 0.70475631558365914 0.90098127745102974 0 0.71789175274016548 0.95136708251202151 0 0.068937933438162791 0.67757268808231053 0 0.099018722548963364 0.70475631558365193 0 0.04863291748797445 0.71789175274016204 0 0.93106206656185309 0.32242731191769503 0 0.89886191075654698 0.29506339503703172 0 0.94915666091748963 0.28320804985299752 0 0.32242731191769902 0.068937933438140794 0 0.29506339503703888 0.1011380892434444 0 0.28320804985300141 0.050843339082505573 0 0.59819537371016407 0.74380966024143391 0 0.57578062281532438 0.77751665353176347 0 0.54465502325161819 0.74717983044080061 0 0.25619033975856881 0.59819537371016862 0 0.2224870800581388 0.57577541371134155 0 0.25287139441262568 0.54458355434492378 0 0.74380966024142703 0.40180462628984132 0 0.77752557158083724 0.42422273168818408 0 0.74730218607442667 0.45539100053644521 0 0.40180462628983732 0.2561903397585753 0 0.42421838472613971 0.22246502005787769 0 0.45533136021725079 0.2525687312087147 0 0.56566515596461675 0.63670464971409091 0 0.53542397956703913 0.60119875982347493 0 0.57484409313590223 0.58437321637184114 0 0.59819537371016407 0.74380966024143391 0 0.57051182622447827 0.69668652018496713 0 0.6083790122881827 0.70496300707145865 0 0.25619033975856881 0.59819537371016862 0 0.30429740679959738 0.56913905146460098 0 0.29503699292854352 0.60837901228818936 0 0.74380966024142703 0.40180462628984132 0 0.69595787604187809 0.43071000156707989 0 0.70496300707145554 0.39162098771181952 0 0.40180462628983732 0.2561903397585753 0 0.43059486795334201 0.30395973419063538 0 0.39162098771181342 0.29503699292854563 0 0.50000000000002642 0.7803135888501761 0 0.54465502325161819 0.74717983044080061 0 0.53770425635794761 0.80104587463999666 0 0.2196864111498267 0.50000000000003153 0 0.25287139441262568 0.54458355434492378 0 0.1989632851005598 0.53769147668950479 0 0.78031358885017377 0.49999999999997569 0 0.74730218607442667 0.45539100053644521 0 0.80106707846564795 0.46230714888029367 0 0.49999999999997108 0.21968641114982909 0 0.45533136021725079 0.2525687312087147 0 0.46229330881044273 0.19890916456654811 0 0.51484304721220842 0.69707233951836334 0 0.54058719659441246 0.66889411379075558 0 0.57051182622447827 0.69668652018496713 0 0.30292766048163949 0.51484304721221474 0 0.331306197573488 0.54052564146842386 0 0.30429740679959738 0.56913905146460098 0 0.56566515596461675 0.63670464971409091 0 0.57051182622447827 0.69668652018496713 0 0.54058719659441246 0.66889411379075558 0 0.35984320557492089 0.56698606271778873 0 0.30429740679959738 0.56913905146460098 0 0.331306197573488 0.54052564146842386 0 0.60938371359314658 0.91847489683800321 0 0.58267137064684116 0.87013301365640838 0 0.62483828039315681 0.8780818733396436 0 0.081525103161997597 0.6093837135931508 0 0.12986698634359389 0.58267137064684615 0 0.1219181266603569 0.62483828039315903 0 0.91890123454466932 0.39094742729597309 0 0.87012666750595846 0.41743873185103042 0 0.87815187193233801 0.37523526017134418 0 0.39061628640684498 0.081525103161991672 0 0.41732862935313042 0.12986698634362279 0 0.37516171960683908 0.121918126660369 0 0.5133022293955174 0.064893331803591428 0 0.52499999999875446 0.029444907164469181 0 0.55993888817186677 0.043612803661174412 0 0.064893331803534807 0.48669777060454478 0 0.029444907164209121 0.47500000000196552 0 0.043612803661092707 0.44006111182840391 0 0.93510666819640953 0.51330222939551939 0 0.97055509283553232 0.52499999999875435 0 0.95638719633882641 0.5599388881718611 0 0.48669777060454272 0.93510666819646593 0 0.47500000000196563 0.970555092835793 0 0.44006111182840962 0.9563871963389079 0 0.56759263990989184 0.81794319034601648 0 0.54047998161173716 0.84333512669480526 0 0.53770425635794761 0.80104587463999666 0 0.18205680965398621 0.56759263990989739 0 0.1566648733051971 0.54047998161174216 0 0.1989632851005598 0.53769147668950479 0 0.81794319034597418 0.43240736009009317 0 0.84333218736938698 0.4595365182652234 0 0.80106707846564795 0.46230714888029367 0 0.43240736009008851 0.18205680965402779 0 0.45952001838826873 0.15666487330524251 0 0.46229330881044273 0.19890916456654811 0 0.50333998054938722 0.50119715791968966 0 0.47974773860103892 0.54872726831320284 0 0.45293656999117771 0.51494832297079129 0 0.73982803480991577 0.79629608696991705 0 0.69892030930712212 0.7971997999085858 0 0.71159714897733284 0.75039044679290845 0 0.20370391303007401 0.73982803480989479 0 0.2028002000914135 0.69892030930711557 0 0.249609553207091 0.71159714897732929 0 0.79629608696994103 0.26017196519011448 0 0.7971997999085878 0.3010796906928917 0 0.75039044679291111 0.28840285102267788 0 0.26017196519013502 0.20370391303005 0 0.30107969069289831 0.20280020009141189 0 0.28840285102268098 0.24960955320708811 0 0.43087117257049001 0.8215422551712771 0 0.40481452396081791 0.85130421228141606 0 0.38703015239361932 0.80283068154761972 0 0.36030748482174152 0.84598529912882459 0 0.38703015239361932 0.80283068154761972 0 0.40481452396081791 0.85130421228141606 0 0.17845774482872559 0.43087117257049429 0 0.14869578771858949 0.40481452396082068 0 0.197169318452384 0.38703015239362498 0 0.8215422551712277 0.56912882742954496 0 0.85130417396420255 0.59518556406638579 0 0.8028306815476034 0.61296984760642026 0 0.84598529912884157 0.63969251517827153 0 0.8028306815476034 0.61296984760642026 0 0.85130417396420255 0.59518556406638579 0 0.15401470087117619 0.36030748482174652 0 0.197169318452384 0.38703015239362498 0 0.14869578771858949 0.40481452396082068 0 0.56912882742954041 0.17845774482877461 0 0.59518547603920147 0.14869578771864489 0 0.61296984760641449 0.19716931845240021 0 0.63969251517826664 0.15401470087115929 0 0.61296984760641449 0.19716931845240021 0 0.59518547603920147 0.14869578771864489 0 0.6519524273377173 0.64249931920594539 0 0.65501639383771026 0.594528181397324 0 0.69288637798153729 0.61204665218001397 0 0.6424993192059415 0.3480475726622802 0 0.59596170682035776 0.34609402305862419 0 0.61204665218000809 0.30711362201846659 0 0.35944937237716967 0.65164789808436319 0 0.40564717507982689 0.65626423320524974 0 0.38642358467307758 0.69286258923597266 0 0.90045039720880915 0.9020090423547924 0 0.85174853583809862 0.87705234031428159 0 0.88962265630811221 0.85311725681459705 0 0.097990957645208238 0.90045039720880915 0 0.1229476596857173 0.85174853583809695 0 0.14688274318541941 0.88962265630811932 0 0.90082758526900886 0.098076845682916511 0 0.88777909259956078 0.1484760565886154 0 0.8517485358380722 0.12294765968568611 0 0.098076845682915317 0.099172414730993488 0 0.1484760565886207 0.1122209074004519 0 0.12294765968567151 0.14825146416195439 0 0.35815651743779398 0.51113440447909086 0 0.33436424489304489 0.47849603121740791 0 0.37702386074717259 0.45819417564476811 0 0.92670321183853355 0.65773042910151081 0 0.94635952848698612 0.71209247961721311 0 0.90051880305432697 0.69261863673346957 0 0.65773042910151891 0.073296788161472337 0 0.71174922810186925 0.053730171687687178 0 0.69253601466723103 0.09949211948105087 0 0.3422695708985129 0.92670321183858773 0 0.28790752038294382 0.94635952848702642 0 0.30738136326657722 0.90051880305435028 0 0.073296788161418117 0.34226957089850552 0 0.053730171687646627 0.28825077189828552 0 0.099492119481027347 0.30746398533281638 0 0.43565339604028508 0.55159384357101338 0 0.45293656999117771 0.51494832297079129 0 0.47974773860103892 0.54872726831320284 0 0.33382663527330159 0.44130125047503482 0 0.2963043386970643 0.4298320229681446 0 0.30597655500381687 0.3934681685211931 0 1 0.69999999999921003 0 0.94635952848698612 0.71209247961721311 0 0.96779701826738695 0.67105375815842694 0 0.69999999999921003 0 0 0.71174922810186925 0.053730171687687178 0 0.67098510785536181 0.032220921767549461 0 0.30000000000124832 1 0 0.28790752038294382 0.94635952848702642 0 0.32894624184180998 0.96779701826738929 0 0 0.30000000000124832 0 0.053730171687646627 0.28825077189828552 0 0.032220921767546963 0.32901489214487523 0 0.56759263990989184 0.81794319034601648 0 0.57578062281532438 0.77751665353176347 0 0.61896574319320252 0.795216048370321 0 0.59819537371016407 0.74380966024143391 0 0.61896574319320252 0.795216048370321 0 0.57578062281532438 0.77751665353176347 0 0.25619033975856881 0.59819537371016862 0 0.2047839516296828 0.61896574319320252 0 0.2224870800581388 0.57577541371134155 0 0.18205680965398621 0.56759263990989739 0 0.2224870800581388 0.57577541371134155 0 0.2047839516296828 0.61896574319320252 0 0.74380966024142703 0.40180462628984132 0 0.79521604837030013 0.38103425680679831 0 0.77752557158083724 0.42422273168818408 0 0.81794319034597418 0.43240736009009317 0 0.77752557158083724 0.42422273168818408 0 0.79521604837030013 0.38103425680679831 0 0.40180462628983732 0.2561903397585753 0 0.38103425680679859 0.2047839516297037 0 0.42421838472613971 0.22246502005787769 0 0.43240736009008851 0.18205680965402779 0 0.42421838472613971 0.22246502005787769 0 0.38103425680679859 0.2047839516297037 0 0.63969251517836323 0.84598529912890386 0 0.6027107599280892 0.83436006790502326 0 0.61896574319320252 0.795216048370321 0 0.1540147008710982 0.63969251517836956 0 0.1656399320949789 0.60271075992809464 0 0.2047839516296828 0.61896574319320252 0 0.84598529912889664 0.36030748482164038 0 0.83436006790498052 0.39728924007189959 0 0.79521604837030013 0.38103425680679831 0 0.3603074848216346 0.15401470087110539 0 0.3972892400718947 0.16563993209502181 0 0.38103425680679859 0.2047839516297037 0 0.53432142347292233 0.88563193847251998 0 0.58267137064684116 0.87013301365640838 0 0.56877264426066887 0.91182300080710277 0 0.1143680615274819 0.53432142347292733 0 0.12986698634359389 0.58267137064684615 0 0.088176999192898689 0.56877264426067353 0 0.91890123454466932 0.39094742729597309 0 0.90991454156957952 0.4312731559748802 0 0.87012666750595846 0.41743873185103042 0 0.46567857652706018 0.1143680615275231 0 0.41732862935313042 0.12986698634362279 0 0.43122735573933979 0.088176999192917438 0 0.60938371359314658 0.91847489683800321 0 0.56877264426066887 0.91182300080710277 0 0.58267137064684116 0.87013301365640838 0 0.081525103161997597 0.6093837135931508 0 0.088176999192898689 0.56877264426067353 0 0.12986698634359389 0.58267137064684615 0 0.88561059063756964 0.46572761956237563 0 0.87012666750595846 0.41743873185103042 0 0.90991454156957952 0.4312731559748802 0 0.39061628640684498 0.081525103161991672 0 0.43122735573933979 0.088176999192917438 0 0.41732862935313042 0.12986698634362279 0 0.56759263990989184 0.81794319034601648 0 0.6027107599280892 0.83436006790502326 0 0.58267137064684116 0.87013301365640838 0 0.18205680965398621 0.56759263990989739 0 0.1656399320949789 0.60271075992809464 0 0.12986698634359389 0.58267137064684615 0 0.81794319034597418 0.43240736009009317 0 0.83436006790498052 0.39728924007189959 0 0.87012666750595846 0.41743873185103042 0 0.43240736009008851 0.18205680965402779 0 0.3972892400718947 0.16563993209502181 0 0.41732862935313042 0.12986698634362279 0 0.77998481823117694 0.71397317153691997 0 0.78651189793386345 0.75664155808652755 0 0.74917861927654894 0.74229989257760443 0 0.28602682846308641 0.77998481823117594 0 0.24335844191347281 0.78651189793387466 0 0.25770010742238642 0.74917861927655205 0 0.71397317153692708 0.22001518176882201 0 0.7582555232258138 0.2115548431873896 0 0.74229989257762263 0.250821380723454 0 0.22001518176882229 0.28602682846307981 0 0.2115548431873881 0.2417444767741872 0 0.25082138072344978 0.25770010742236849 0 0.8215422551712277 0.56912882742954496 0 0.78031198216143516 0.56693216359979737 0 0.80781854240107975 0.53406203754901738 0 0.43087117257049001 0.8215422551712771 0 0.43306783640023289 0.78031198216144404 0 0.46593838964869061 0.80781872835503554 0 0.56912882742954041 0.17845774482877461 0 0.56683314878414581 0.21944955250104689 0 0.53404982287327418 0.19215288291432539 0 0.17845774482872559 0.43087117257049429 0 0.21968801783855879 0.43306783640023788 0 0.19218127164496679 0.46593838964869538 0 0.92670321183853355 0.65773042910151081 0 0.96779701826738695 0.67105375815842694 0 0.94635952848698612 0.71209247961721311 0 0.65773042910151891 0.073296788161472337 0 0.67098510785536181 0.032220921767549461 0 0.71174922810186925 0.053730171687687178 0 0.3422695708985129 0.92670321183858773 0 0.32894624184180998 0.96779701826738929 0 0.28790752038294382 0.94635952848702642 0 0.073296788161418117 0.34226957089850552 0 0.032220921767546963 0.32901489214487523 0 0.053730171687646627 0.28825077189828552 0 0.51484304721220842 0.69707233951836334 0 0.46736891737654429 0.70015537930374983 0 0.47818752133962877 0.66454462905280853 0 0.30292766048163949 0.51484304721221474 0 0.29988655052531688 0.46700727827593119 0 0.33436424489304489 0.47849603121740791 0 0.53432142347292233 0.88563193847251998 0 0.52425337578225772 0.9223731761594427 0 0.48758069708049379 0.89080072540186539 0 0.1143680615274819 0.53432142347292733 0 0.07762682384055844 0.52425337578226128 0 0.1091992745981364 0.48758069708049778 0 0.88561059063756964 0.46572761956237563 0 0.92203742772043751 0.47579485578641628 0 0.89079805168298443 0.51242544533572376 0 0.46567857652706018 0.1143680615275231 0 0.47574662421782782 0.077626823840590969 0 0.51241930291950477 0.1091992745981813 0 0.49189101320880302 0.59024331187324797 0 0.47974773860103892 0.54872726831320284 0 0.53087311892591971 0.55299263141448529 0 0.81709574086843206 0.91318696080656769 0 0.78020430794084783 0.88768307197553598 0 0.81306033001437827 0.8677384967307622 0 0.086813039193431391 0.81709574086842884 0 0.11231692802445629 0.78020430794084028 0 0.1322615032692282 0.8130603300143705 0 0.90045039720880915 0.9020090423547924 0 0.85382799508926477 0.91295829388058414 0 0.85174853583809862 0.87705234031428159 0 0.097990957645208238 0.90045039720880915 0 0.087041706119416085 0.85382799508926188 0 0.1229476596857173 0.85174853583809695 0 0.82118136511706341 0.082875076569723011 0 0.86148619541339633 0.089689702191568438 0 0.8517485358380722 0.12294765968568611 0 0.08287507656968085 0.1788186348829835 0 0.089689702191541126 0.13851380458662241 0 0.12294765968567151 0.14825146416195439 0 0.56759263990989184 0.81794319034601648 0 0.61896574319320252 0.795216048370321 0 0.6027107599280892 0.83436006790502326 0 0.18205680965398621 0.56759263990989739 0 0.2047839516296828 0.61896574319320252 0 0.1656399320949789 0.60271075992809464 0 0.81794319034597418 0.43240736009009317 0 0.79521604837030013 0.38103425680679831 0 0.83436006790498052 0.39728924007189959 0 0.43240736009008851 0.18205680965402779 0 0.38103425680679859 0.2047839516297037 0 0.3972892400718947 0.16563993209502181 0 0.91838802593870927 0.18172590289757809 0 0.87355793346388477 0.18922011052113649 0 0.88777909259956078 0.1484760565886154 0 0.18172590289758209 0.08161197406129285 0 0.18922011052115781 0.12644206653611201 0 0.1484760565886207 0.1122209074004519 0 0.50333998054938722 0.50119715791968966 0 0.46152714345798918 0.47344359412352599 0 0.50753758205811061 0.4506562873613274 0 0.46102425708533701 0.43254199134332588 0 0.50753758205811061 0.4506562873613274 0 0.46152714345798918 0.47344359412352599 0 0.70252050881959183 0.70358884261915833 0 0.67626275269587088 0.72713741921009012 0 0.6768914574865772 0.67861120078714243 0 0.29641115738084339 0.70252050881958938 0 0.27349656744860212 0.67581741996408695 0 0.32259853082073792 0.67670072609835186 0 0.70358884261915744 0.29747949118041561 0 0.72713741921008324 0.32373724730413678 0 0.6786112007871401 0.32310854251343019 0 0.29747949118041711 0.2964111573808435 0 0.32373692627050221 0.27286413781593999 0 0.3231032570156932 0.32141443408924047 0 0.43301393728221038 0.35984320557492139 0 0.39222057657781068 0.38067796690227418 0 0.39120887188745579 0.33407577688404289 0 0.48669777060454272 0.93510666819646593 0 0.48758069708049379 0.89080072540186539 0 0.52425337578225772 0.9223731761594427 0 0.064893331803534807 0.48669777060454478 0 0.1091992745981364 0.48758069708049778 0 0.07762682384055844 0.52425337578226128 0 0.93510666819640953 0.51330222939551939 0 0.89079805168298443 0.51242544533572376 0 0.92203742772043751 0.47579485578641628 0 0.5133022293955174 0.064893331803591428 0 0.51241930291950477 0.1091992745981813 0 0.47574662421782782 0.077626823840590969 0 0.4434591735942961 0.66641640622551224 0 0.42715538333808079 0.70077759375307946 0 0.40564717507982689 0.65626423320524974 0 0.38642358467307758 0.69286258923597266 0 0.40564717507982689 0.65626423320524974 0 0.42715538333808079 0.70077759375307946 0 0.57387636360620708 0.54318431390135336 0 0.554170140907293 0.50922353359177785 0 0.59621567360238914 0.5184866806641607 0 0.84999999999965292 1 0 0.79999999999999982 1 0 0.82675923981951416 0.95611053755456221 0 0 0.84999999999965292 0 0 0.79999999999999982 0 0.043889462445437968 0.82675923981951283 0 1 0.14999999999970359 0 1 0.19999999999955789 0 0.96080966346491015 0.18035159017841959 0 0.14999999999970359 0 0 0.19999999999955789 0 0 0.18035159017842109 0.039190336535090492 0 1 0.79999999999947335 0 1 0.84999999999960507 0 0.96071093996985157 0.81954008780615684 0 0.79999999999947335 0 0 0.84999999999960507 0 0 0.82050174006822896 0.038839999600956771 0 0.20000000000083221 1 0 0.15000000000062411 1 0 0.18045991219397989 0.960710939969875 0 0 0.20000000000083221 0 0 0.15000000000062411 0 0.038839999600931263 0.17949825993190149 0 0.64518564541690571 0.69601563325001548 0 0.6768914574865772 0.67861120078714243 0 0.67626275269587088 0.72713741921009012 0 0.30421635384321521 0.64514939193436716 0 0.32259853082073792 0.67670072609835186 0 0.27349656744860212 0.67581741996408695 0 0.69601563325001248 0.35481435458309712 0 0.6786112007871401 0.32310854251343019 0 0.72713741921008324 0.32373724730413678 0 0.35481435458309307 0.30398436674998969 0 0.3231032570156932 0.32141443408924047 0 0.32373692627050221 0.27286413781593999 0 0.49771727055908782 0.83998685797641781 0 0.48758069708049379 0.89080072540186539 0 0.45353891581270822 0.85551523377818905 0 0.16001314202358469 0.49771727055909287 0 0.1091992745981364 0.48758069708049778 0 0.1444847662218138 0.45353891581271188 0 0.83998574657308889 0.50228528270184081 0 0.89079805168298443 0.51242544533572376 0 0.85551478316835361 0.54646211938695222 0 0.50228272944093777 0.16001314202359701 0 0.51241930291950477 0.1091992745981813 0 0.54646108418729233 0.1444847662218687 0 0.70252050881959183 0.70358884261915833 0 0.6768914574865772 0.67861120078714243 0 0.71518943060973483 0.65679402931717101 0 0.29641115738084339 0.70252050881958938 0 0.32259853082073792 0.67670072609835186 0 0.34270280102445921 0.71672416762035873 0 0.70358884261915744 0.29747949118041561 0 0.6786112007871401 0.32310854251343019 0 0.65679402931716913 0.28481056939027388 0 0.29747949118041711 0.2964111573808435 0 0.3231032570156932 0.32141443408924047 0 0.28473805236128291 0.34355768118673757 0 0.92670321183853355 0.65773042910151081 0 0.96654491682122368 0.6363613838740827 0 0.96779701826738695 0.67105375815842694 0 0.65773042910151891 0.073296788161472337 0 0.63635157668793507 0.033457646040912177 0 0.67098510785536181 0.032220921767549461 0 0.073296788161418117 0.34226957089850552 0 0.033457646040922301 0.36364842331228431 0 0.032220921767546963 0.32901489214487523 0 0.3422695708985129 0.92670321183858773 0 0.36363861612613613 0.96654491682121313 0 0.32894624184180998 0.96779701826738929 0 1 0.64999999999907843 0 1 0.69999999999921003 0 0.96779701826738695 0.67105375815842694 0 0.64999999999907843 0 0 0.69999999999921003 0 0 0.67098510785536181 0.032220921767549461 0 0.35000000000145642 1 0 0.30000000000124832 1 0 0.32894624184180998 0.96779701826738929 0 0 0.35000000000145642 0 0 0.30000000000124832 0 0.032220921767546963 0.32901489214487523 0 0 0.40000000000166441 0 0 0.35000000000145642 0 0.033457646040922301 0.36364842331228431 0 0.40000000000166441 1 0 0.35000000000145642 1 0 0.36363861612613613 0.96654491682121313 0 0.59999999999894682 0 0 0.64999999999907843 0 0 0.63635157668793507 0.033457646040912177 0 1 0.59999999999894682 0 1 0.64999999999907843 0 0.96654491682122368 0.6363613838740827 0 0.81709574086843206 0.91318696080656769 0 0.85174853583809862 0.87705234031428159 0 0.85382799508926477 0.91295829388058414 0 0.086813039193431391 0.81709574086842884 0 0.1229476596857173 0.85174853583809695 0 0.087041706119416085 0.85382799508926188 0 0.90082758526900886 0.098076845682916511 0 0.8517485358380722 0.12294765968568611 0 0.86148619541339633 0.089689702191568438 0 0.098076845682915317 0.099172414730993488 0 0.12294765968567151 0.14825146416195439 0 0.089689702191541126 0.13851380458662241 0 0.59819537371016407 0.74380966024143391 0 0.6083790122881827 0.70496300707145865 0 0.64203711532612107 0.74316477213290444 0 0.64518564541690571 0.69601563325001548 0 0.64203711532612107 0.74316477213290444 0 0.6083790122881827 0.70496300707145865 0 0.25619033975856881 0.59819537371016862 0 0.29503699292854352 0.60837901228818936 0 0.25684529255773247 0.64203554247963057 0 0.30421635384321521 0.64514939193436716 0 0.25684529255773247 0.64203554247963057 0 0.29503699292854352 0.60837901228818936 0 0.74380966024142703 0.40180462628984132 0 0.70496300707145554 0.39162098771181952 0 0.74316477213289889 0.35796288467388632 0 0.69601563325001248 0.35481435458309712 0 0.74316477213289889 0.35796288467388632 0 0.70496300707145554 0.39162098771181952 0 0.40180462628983732 0.2561903397585753 0 0.39162098771181342 0.29503699292854563 0 0.3579628846738841 0.25683522786710378 0 0.35481435458309307 0.30398436674998969 0 0.3579628846738841 0.25683522786710378 0 0.39162098771181342 0.29503699292854563 0 0.8289812646369813 0.82898126463698818 0 0.85174853583809862 0.87705234031428159 0 0.81306033001437827 0.8677384967307622 0 0.17101873536300011 0.82898126463696109 0 0.1229476596857173 0.85174853583809695 0 0.1322615032692282 0.8130603300143705 0 0.8215422551712277 0.56912882742954496 0 0.85551478316835361 0.54646211938695222 0 0.85130417396420255 0.59518556406638579 0 0.43087117257049001 0.8215422551712771 0 0.45353891581270822 0.85551523377818905 0 0.40481452396081791 0.85130421228141606 0 0.56912882742954041 0.17845774482877461 0 0.54646108418729233 0.1444847662218687 0 0.59518547603920147 0.14869578771864489 0 0.17845774482872559 0.43087117257049429 0 0.1444847662218138 0.45353891581271188 0 0.14869578771858949 0.40481452396082068 0 0.49854341599767982 0.37075914768127122 0 0.46543211128216788 0.38788423543681888 0 0.47253211736503098 0.34081710830804929 0 0.43301393728221038 0.35984320557492139 0 0.47253211736503098 0.34081710830804929 0 0.46543211128216788 0.38788423543681888 0 0.36030748482174152 0.84598529912882459 0 0.40481452396081791 0.85130421228141606 0 0.37839190921727062 0.89064679688614412 0 0.84598529912884157 0.63969251517827153 0 0.85130417396420255 0.59518556406638579 0 0.89064679688610338 0.6216080907827598 0 0.15401470087117619 0.36030748482174652 0 0.14869578771858949 0.40481452396082068 0 0.10935320311385981 0.37839190921727089 0 0.63969251517826664 0.15401470087115929 0 0.59518547603920147 0.14869578771864489 0 0.62160809078275991 0.1093532031139005 0 0.64455163611866495 0.50369301794551069 0 0.61866949026800744 0.55492322767366287 0 0.59621567360238914 0.5184866806641607 0 0.64518564541690571 0.69601563325001548 0 0.6083790122881827 0.70496300707145865 0 0.60879112811253555 0.66592422311595834 0 0.30421635384321521 0.64514939193436716 0 0.29503699292854352 0.60837901228818936 0 0.33231497408081678 0.60779218732873663 0 0.69601563325001248 0.35481435458309712 0 0.70496300707145554 0.39162098771181952 0 0.66346942254826746 0.391530810754116 0 0.35481435458309307 0.30398436674998969 0 0.39162098771181342 0.29503699292854563 0 0.39120887188745579 0.33407577688404289 0 0.39507969989512881 0.74417394063201048 0 0.38703015239361932 0.80283068154761972 0 0.35837423432538362 0.77730446904312345 0 0.74417394063200648 0.6049203001048884 0 0.8028306815476034 0.61296984760642026 0 0.77730446904309636 0.64162576567462737 0 0.25582605936799319 0.39507969989513358 0 0.197169318452384 0.38703015239362498 0 0.22269553095687891 0.35837423432538801 0 0.60492030010488373 0.25582605936799729 0 0.61296984760641449 0.19716931845240021 0 0.64162576567462404 0.22269553095690481 0 0.46102425708533701 0.43254199134332588 0 0.46152714345798918 0.47344359412352599 0 0.42340342337193693 0.44762131874855388 0 0.5586987495249669 0.33382663527330653 0 0.52929435216580312 0.29671213472503383 0 0.57188338999077359 0.29874123486230147 0 0.58981073711177334 0.48140931020849848 0 0.554170140907293 0.50922353359177785 0 0.54783891860069212 0.46640164214823893 0 0.35944937237716967 0.65164789808436319 0 0.33231497408081678 0.60779218732873663 0 0.37104651296145419 0.60545170748311072 0 0.58981073711177334 0.48140931020849848 0 0.59621567360238914 0.5184866806641607 0 0.554170140907293 0.50922353359177785 0 0.55000000000173355 1 0 0.50000000000205869 1 0 0.51507566941747085 0.9626786017237855 0 0 0.55000000000173355 0 0 0.50000000000205869 0 0.037321398276215258 0.51507566941747263 0 1 0.44999999999882923 0 1 0.49999999999869432 0 0.96266688603193029 0.48495124540067203 0 0.44999999999882923 0 0 0.49999999999869432 0 0 0.48492433058289169 0.037321398276272413 0 0.78031198216143516 0.56693216359979737 0 0.76797069865873757 0.53315993670164308 0 0.80781854240107975 0.53406203754901738 0 0.43306783640023289 0.78031198216144404 0 0.46634612187967051 0.76767585524061377 0 0.46593838964869061 0.80781872835503554 0 0.56683314878414581 0.21944955250104689 0 0.53265327255359129 0.23135454206919101 0 0.53404982287327418 0.19215288291432539 0 0.21968801783855879 0.43306783640023788 0 0.23232476702437141 0.46634525369567709 0 0.19218127164496679 0.46593838964869538 0 0.5586987495249669 0.33382663527330653 0 0.51491507395299929 0.3326740076510219 0 0.52929435216580312 0.29671213472503383 0 0.43565339604028508 0.55159384357101338 0 0.47974773860103892 0.54872726831320284 0 0.45030222762303879 0.58443295115431027 0 0.50333998054938722 0.50119715791968966 0 0.45293656999117771 0.51494832297079129 0 0.46152714345798918 0.47344359412352599 0 0 0 0 0.032369857048753323 0.032369857048862027 0 0 0.050000000000207989 0 1 0 0 0.96763014295114425 0.032369857048773903 0 0.94999999999986839 0 0 1 0 0 1 0.049999999999899652 0 0.96763014295114425 0.032369857048773903 0 0 0 0 0.049999999999899652 0 0 0.032369857048753323 0.032369857048862027 0 1 1 0 0.94999999999979179 1 0 0.96763014295120153 0.96763014295122851 0 1 1 0 0.96763014295120153 0.96763014295122851 0 1 0.94999999999986839 0 0 1 0 0.030452409610489669 0.96954759038951022 0 0.050000000000207989 1 0 0 1 0 0 0.94999999999979179 0 0.030452409610489669 0.96954759038951022 0 0.35984320557492089 0.56698606271778873 0 0.39982789553993509 0.53462762214740622 0 0.40468198875170619 0.57637931869191572 0 0.41009598069569558 0.49083935749285379 0 0.37702386074717259 0.45819417564476811 0 0.42340342337193693 0.44762131874855388 0 0.39419886675318527 0.41912225240070788 0 0.42340342337193693 0.44762131874855388 0 0.37702386074717259 0.45819417564476811 0 0.60938371359314658 0.91847489683800321 0 0.63753756910470316 0.95578163339252209 0 0.5931441817276254 0.95886012268751675 0 0.081525103161997597 0.6093837135931508 0 0.04421836660747535 0.63753756910470205 0 0.041139877312483641 0.59314418172763017 0 0.91890123454466932 0.39094742729597309 0 0.95581270756939096 0.36248656652865863 0 0.95886012268748921 0.4068558182724159 0 0.39061628640684498 0.081525103161991672 0 0.36246243089534252 0.044218366607477223 0 0.40685581827241191 0.041139877312511682 0 0.66820316019503978 0.77769800602796979 0 0.67626275269587088 0.72713741921009012 0 0.71159714897733284 0.75039044679290845 0 0.22230199397202771 0.66820316019503168 0 0.27349656744860212 0.67581741996408695 0 0.249609553207091 0.71159714897732929 0 0.77769800602796679 0.33179683980497482 0 0.72713741921008324 0.32373724730413678 0 0.75039044679291111 0.28840285102267788 0 0.33179683980498331 0.2223019939720311 0 0.32373692627050221 0.27286413781593999 0 0.28840285102268098 0.24960955320708811 0 0.54901591374940373 0.42306523525165751 0 0.54783891860069212 0.46640164214823893 0 0.50753758205811061 0.4506562873613274 0 0.34804757266227387 0.35750068079406011 0 0.39120887188745579 0.33407577688404289 0 0.39222057657781068 0.38067796690227418 0 0.7000000000006934 1 0 0.6766004019857832 0.9676421564932749 0 0.71789175274016548 0.95136708251202151 0 0 0.7000000000006934 0 0.032357843506722522 0.67660040198578164 0 0.04863291748797445 0.71789175274016204 0 0.67757268808231397 0.93106206656183088 0 0.71789175274016548 0.95136708251202151 0 0.6766004019857832 0.9676421564932749 0 0.068937933438162791 0.67757268808231053 0 0.04863291748797445 0.71789175274016204 0 0.032357843506722522 0.67660040198578164 0 1 0.29999999999926641 0 0.96720628700974665 0.32362438565954771 0 0.94915666091748963 0.28320804985299752 0 0.29999999999926641 0 0 0.32361955853288599 0.032799927825624707 0 0.28320804985300141 0.050843339082505573 0 0.93106206656185309 0.32242731191769503 0 0.94915666091748963 0.28320804985299752 0 0.96720628700974665 0.32362438565954771 0 0.32242731191769902 0.068937933438140794 0 0.28320804985300141 0.050843339082505573 0 0.32361955853288599 0.032799927825624707 0 0.91838802593884228 0.81827409710237209 0 0.87660297360393757 0.8104127896505644 0 0.9041449437197947 0.7786886066890556 0 0.1817259028976386 0.91838802593888857 0 0.18958721034944021 0.87660297360394568 0 0.22131139331094829 0.9041449437198319 0 0.76395804595204597 0.67808171673060369 0 0.77730446904309636 0.64162576567462737 0 0.80847852346122429 0.67208120229789559 0 0.32191828326940508 0.76395804595204586 0 0.35837423432538362 0.77730446904312345 0 0.32791879770213411 0.80847852346120164 0 0.67808171673060202 0.23604195404795861 0 0.64162576567462404 0.22269553095690481 0 0.67208120229787616 0.1915214765387884 0 0.2360419540479583 0.32191828326940741 0 0.22269553095687891 0.35837423432538801 0 0.19152147653881049 0.32791879770215432 0 0.82118136511706341 0.082875076569723011 0 0.8110316677333288 0.125875177082863 0 0.77925951159456153 0.09969477121230251 0 0.08287507656968085 0.1788186348829835 0 0.12587517708284679 0.1889683322666954 0 0.099694771212264055 0.22074048840547039 0 0.43301393728221038 0.35984320557492139 0 0.46543211128216788 0.38788423543681888 0 0.42930823106401639 0.40626685012722968 0 0.43590673999053309 0.90289902042279657 0 0.45353891581270822 0.85551523377818905 0 0.48758069708049379 0.89080072540186539 0 0.097100979577207341 0.43590673999053198 0 0.1444847662218138 0.45353891581271188 0 0.1091992745981364 0.48758069708049778 0 0.90289902042272274 0.56409326000946114 0 0.85551478316835361 0.54646211938695222 0 0.89079805168298443 0.51242544533572376 0 0.56409326000946236 0.097100979577281268 0 0.54646108418729233 0.1444847662218687 0 0.51241930291950477 0.1091992745981813 0 0.51484304721220842 0.69707233951836334 0 0.49073113440598592 0.73759004618730417 0 0.46736891737654429 0.70015537930374983 0 0.44764943295894188 0.73752415265401661 0 0.46736891737654429 0.70015537930374983 0 0.49073113440598592 0.73759004618730417 0 0.30292766048163949 0.51484304721221474 0 0.262418491288269 0.49071922292154141 0 0.29988655052531688 0.46700727827593119 0 0.26247584734598628 0.44764943295894732 0 0.29988655052531688 0.46700727827593119 0 0.262418491288269 0.49071922292154141 0 0.70015119067225129 0.48481914991727459 0 0.73815142352639962 0.50697050072007344 0 0.69798396601998558 0.5289734597937793 0 0.73752415265401194 0.55235056704108476 0 0.69798396601998558 0.5289734597937793 0 0.73815142352639962 0.50697050072007344 0 0.67757268808231397 0.93106206656183088 0 0.6441774148058701 0.91458123574274031 0 0.66923299355723143 0.8804077449518628 0 0.068937933438162791 0.67757268808231053 0 0.085418764257258195 0.64417741480586865 0 0.1195922550481313 0.66923299355722787 0 0.93106206656185309 0.32242731191769503 0 0.91286712511202617 0.35637271447129198 0 0.88040774495187946 0.33076700644278889 0 0.32242731191769902 0.068937933438140794 0 0.35582258519414178 0.085418764257258431 0 0.33076700644279272 0.1195922550481146 0 0.63969251517836323 0.84598529912890386 0 0.66923299355723143 0.8804077449518628 0 0.62483828039315681 0.8780818733396436 0 0.1540147008710982 0.63969251517836956 0 0.1195922550481313 0.66923299355722787 0 0.1219181266603569 0.62483828039315903 0 0.84598529912889664 0.36030748482164038 0 0.88040774495187946 0.33076700644278889 0 0.87815187193233801 0.37523526017134418 0 0.3603074848216346 0.15401470087110539 0 0.33076700644279272 0.1195922550481146 0 0.37516171960683908 0.121918126660369 0 0.46102425708533701 0.43254199134332588 0 0.5047849391802508 0.40719950955717021 0 0.50753758205811061 0.4506562873613274 0 0.85607519768343354 0.69380468830529196 0 0.88396545633132484 0.6625197322180193 0 0.90051880305432697 0.69261863673346957 0 0.30619531169472608 0.85607519768342955 0 0.33748026778199908 0.88396545633134682 0 0.30738136326657722 0.90051880305435028 0 0.69379929796456197 0.14392209494791061 0 0.66251865414987876 0.1160340021949529 0 0.69253601466723103 0.09949211948105087 0 0.14392209494791439 0.30620070203545702 0 0.11603400219493119 0.33748134585014028 0 0.099492119481027347 0.30746398533281638 0 0.78284912262770068 0.83746308049763585 0 0.81306033001437827 0.8677384967307622 0 0.78020430794084783 0.88768307197553598 0 0.16253691950235041 0.78284912262768558 0 0.1322615032692282 0.8130603300143705 0 0.11231692802445629 0.78020430794084028 0 0.66820316019503978 0.77769800602796979 0 0.64203711532612107 0.74316477213290444 0 0.67626275269587088 0.72713741921009012 0 0.22230199397202771 0.66820316019503168 0 0.25684529255773247 0.64203554247963057 0 0.27349656744860212 0.67581741996408695 0 0.77769800602796679 0.33179683980497482 0 0.74316477213289889 0.35796288467388632 0 0.72713741921008324 0.32373724730413678 0 0.33179683980498331 0.2223019939720311 0 0.3579628846738841 0.25683522786710378 0 0.32373692627050221 0.27286413781593999 0 0.4434591735942961 0.66641640622551224 0 0.45517457031814612 0.62743100079604397 0 0.47818752133962877 0.66454462905280853 0 0.7000000000006934 1 0 0.65000000000104008 1 0 0.6766004019857832 0.9676421564932749 0 0 0.7000000000006934 0 0 0.65000000000104008 0 0.032357843506722522 0.67660040198578164 0 1 0.29999999999926641 0 1 0.34999999999912063 0 0.96720628700974665 0.32362438565954771 0 0.29999999999926641 0 0 0.34999999999912063 0 0 0.32361955853288599 0.032799927825624707 0 0.49854341599767982 0.37075914768127122 0 0.47253211736503098 0.34081710830804929 0 0.51491507395299929 0.3326740076510219 0 0.50000000000205869 1 0 0.45000000000187229 1 0 0.47500000000196563 0.970555092835793 0 0 0.50000000000205869 0 0 0.45000000000187229 0 0.029444907164209121 0.47500000000196552 0 1 0.49999999999869432 0 1 0.5499999999988151 0 0.97055509283553232 0.52499999999875435 0 0.49999999999869432 0 0 0.5499999999988151 0 0 0.52499999999875446 0.029444907164469181 0 0.91838802593870927 0.18172590289757809 0 0.89556054516486661 0.21720615046483649 0 0.87355793346388477 0.18922011052113649 0 0.18172590289758209 0.08161197406129285 0 0.21720615046484709 0.1044394548351292 0 0.18922011052115781 0.12644206653611201 0 0.48378871228000903 0.29745177826977359 0 0.51491507395299929 0.3326740076510219 0 0.47253211736503098 0.34081710830804929 0 0.58981073711177334 0.48140931020849848 0 0.59313386551587477 0.43977047843653239 0 0.62619054498681193 0.46482944251856079 0 0.640156794425081 0.43301393728221721 0 0.62619054498681193 0.46482944251856079 0 0.59313386551587477 0.43977047843653239 0 0 0.45000000000187229 0 0.043612803661092707 0.44006111182840391 0 0.029444907164209121 0.47500000000196552 0 0.45000000000187229 1 0 0.44006111182840962 0.9563871963389079 0 0.47500000000196563 0.970555092835793 0 0.5499999999988151 0 0 0.55993888817186677 0.043612803661174412 0 0.52499999999875446 0.029444907164469181 0 1 0.5499999999988151 0 0.95638719633882641 0.5599388881718611 0 0.97055509283553232 0.52499999999875435 0 0.57051182622447827 0.69668652018496713 0 0.60879112811253555 0.66592422311595834 0 0.6083790122881827 0.70496300707145865 0 0.30429740679959738 0.56913905146460098 0 0.33231497408081678 0.60779218732873663 0 0.29503699292854352 0.60837901228818936 0 0.69595787604187809 0.43071000156707989 0 0.66346942254826746 0.391530810754116 0 0.70496300707145554 0.39162098771181952 0 0.43059486795334201 0.30395973419063538 0 0.39120887188745579 0.33407577688404289 0 0.39162098771181342 0.29503699292854563 0 0.35984320557492089 0.56698606271778873 0 0.37104651296145419 0.60545170748311072 0 0.33231497408081678 0.60779218732873663 0 0.43565339604028508 0.55159384357101338 0 0.40468198875170619 0.57637931869191572 0 0.39982789553993509 0.53462762214740622 0 0.66820316019503978 0.77769800602796979 0 0.71159714897733284 0.75039044679290845 0 0.69892030930712212 0.7971997999085858 0 0.22230199397202771 0.66820316019503168 0 0.249609553207091 0.71159714897732929 0 0.2028002000914135 0.69892030930711557 0 0.77769800602796679 0.33179683980497482 0 0.75039044679291111 0.28840285102267788 0 0.7971997999085878 0.3010796906928917 0 0.33179683980498331 0.2223019939720311 0 0.28840285102268098 0.24960955320708811 0 0.30107969069289831 0.20280020009141189 0 0.34804757266227387 0.35750068079406011 0 0.39222057657781068 0.38067796690227418 0 0.35481422397128459 0.40312981465069342 0 0.67757268808231397 0.93106206656183088 0 0.66923299355723143 0.8804077449518628 0 0.70475631558365914 0.90098127745102974 0 0.068937933438162791 0.67757268808231053 0 0.1195922550481313 0.66923299355722787 0 0.099018722548963364 0.70475631558365193 0 0.93106206656185309 0.32242731191769503 0 0.88040774495187946 0.33076700644278889 0 0.89886191075654698 0.29506339503703172 0 0.32242731191769902 0.068937933438140794 0 0.33076700644279272 0.1195922550481146 0 0.29506339503703888 0.1011380892434444 0 0.53432142347292233 0.88563193847251998 0 0.56877264426066887 0.91182300080710277 0 0.52425337578225772 0.9223731761594427 0 0.1143680615274819 0.53432142347292733 0 0.088176999192898689 0.56877264426067353 0 0.07762682384055844 0.52425337578226128 0 0.46567857652706018 0.1143680615275231 0 0.43122735573933979 0.088176999192917438 0 0.47574662421782782 0.077626823840590969 0 0.39419886675318527 0.41912225240070788 0 0.35481422397128459 0.40312981465069342 0 0.39222057657781068 0.38067796690227418 0 1 0.49999999999869432 0 0.97055509283553232 0.52499999999875435 0 0.96266688603193029 0.48495124540067203 0 0.49999999999869432 0 0 0.52499999999875446 0.029444907164469181 0 0.48492433058289169 0.037321398276272413 0 0.93510666819640953 0.51330222939551939 0 0.96266688603193029 0.48495124540067203 0 0.97055509283553232 0.52499999999875435 0 0.5133022293955174 0.064893331803591428 0 0.48492433058289169 0.037321398276272413 0 0.52499999999875446 0.029444907164469181 0 0 0.50000000000205869 0 0.029444907164209121 0.47500000000196552 0 0.037321398276215258 0.51507566941747263 0 0.50000000000205869 1 0 0.47500000000196563 0.970555092835793 0 0.51507566941747085 0.9626786017237855 0 0.48669777060454272 0.93510666819646593 0 0.51507566941747085 0.9626786017237855 0 0.47500000000196563 0.970555092835793 0 0.064893331803534807 0.48669777060454478 0 0.037321398276215258 0.51507566941747263 0 0.029444907164209121 0.47500000000196552 0 0.55307204985744796 0.94819812235491685 0 0.52425337578225772 0.9223731761594427 0 0.56877264426066887 0.91182300080710277 0 0.051801877645083663 0.55307204985745195 0 0.07762682384055844 0.52425337578226128 0 0.088176999192898689 0.56877264426067353 0 0.44692795014265252 0.051801877645060238 0 0.47574662421782782 0.077626823840590969 0 0.43122735573933979 0.088176999192917438 0 0.70085728320704077 0.84350379029875056 0 0.66919832404887702 0.81820888699730587 0 0.69892030930712212 0.7971997999085858 0 0.1564962097012354 0.70085728320703999 0 0.1817911130026923 0.66919832404888702 0 0.2028002000914135 0.69892030930711557 0 0.84350379029877964 0.29914271679296989 0 0.8182088869973061 0.33080167595111531 0 0.7971997999085878 0.3010796906928917 0 0.29914271679297122 0.15649620970120659 0 0.33080167595110582 0.18179111300269291 0 0.30107969069289831 0.20280020009141189 0 0.33382663527330159 0.44130125047503482 0 0.37702386074717259 0.45819417564476811 0 0.33436424489304489 0.47849603121740791 0 0.44764943295894188 0.73752415265401661 0 0.46634612187967051 0.76767585524061377 0 0.43306783640023289 0.78031198216144404 0 0.73752415265401194 0.55235056704108476 0 0.76797069865873757 0.53315993670164308 0 0.78031198216143516 0.56693216359979737 0 0.26247584734598628 0.44764943295894732 0 0.23232476702437141 0.46634525369567709 0 0.21968801783855879 0.43306783640023788 0 0.55175647814720108 0.26104505532086641 0 0.53265327255359129 0.23135454206919101 0 0.56683314878414581 0.21944955250104689 0 0.65000000000104008 1 0 0.63753756910470316 0.95578163339252209 0 0.6766004019857832 0.9676421564932749 0 0 0.65000000000104008 0 0.04421836660747535 0.63753756910470205 0 0.032357843506722522 0.67660040198578164 0 1 0.34999999999912063 0 0.95581270756939096 0.36248656652865863 0 0.96720628700974665 0.32362438565954771 0 0.34999999999912063 0 0 0.36246243089534252 0.044218366607477223 0 0.32361955853288599 0.032799927825624707 0 0.67757268808231397 0.93106206656183088 0 0.6766004019857832 0.9676421564932749 0 0.63753756910470316 0.95578163339252209 0 0.068937933438162791 0.67757268808231053 0 0.032357843506722522 0.67660040198578164 0 0.04421836660747535 0.63753756910470205 0 0.93106206656185309 0.32242731191769503 0 0.96720628700974665 0.32362438565954771 0 0.95581270756939096 0.36248656652865863 0 0.32242731191769902 0.068937933438140794 0 0.32361955853288599 0.032799927825624707 0 0.36246243089534252 0.044218366607477223 0 0.94812782820415209 0.44708943904932719 0 0.92203742772043751 0.47579485578641628 0 0.90991454156957952 0.4312731559748802 0 0.88561059063756964 0.46572761956237563 0 0.90991454156957952 0.4312731559748802 0 0.92203742772043751 0.47579485578641628 0 0.49189101320880302 0.59024331187324797 0 0.45517457031814612 0.62743100079604397 0 0.45030222762303879 0.58443295115431027 0 0.54465502325161819 0.74717983044080061 0 0.57578062281532438 0.77751665353176347 0 0.53770425635794761 0.80104587463999666 0 0.25287139441262568 0.54458355434492378 0 0.2224870800581388 0.57577541371134155 0 0.1989632851005598 0.53769147668950479 0 0.74730218607442667 0.45539100053644521 0 0.77752557158083724 0.42422273168818408 0 0.80106707846564795 0.46230714888029367 0 0.45533136021725079 0.2525687312087147 0 0.42421838472613971 0.22246502005787769 0 0.46229330881044273 0.19890916456654811 0 0.57387636360620708 0.54318431390135336 0 0.59621567360238914 0.5184866806641607 0 0.61866949026800744 0.55492322767366287 0 0.66923299355723143 0.8804077449518628 0 0.6441774148058701 0.91458123574274031 0 0.62483828039315681 0.8780818733396436 0 0.1195922550481313 0.66923299355722787 0 0.085418764257258195 0.64417741480586865 0 0.1219181266603569 0.62483828039315903 0 0.88040774495187946 0.33076700644278889 0 0.91286712511202617 0.35637271447129198 0 0.87815187193233801 0.37523526017134418 0 0.33076700644279272 0.1195922550481146 0 0.35582258519414178 0.085418764257258431 0 0.37516171960683908 0.121918126660369 0 0.49189101320880302 0.59024331187324797 0 0.45030222762303879 0.58443295115431027 0 0.47974773860103892 0.54872726831320284 0 0.92670321183853355 0.65773042910151081 0 0.90051880305432697 0.69261863673346957 0 0.88396545633132484 0.6625197322180193 0 0.65773042910151891 0.073296788161472337 0 0.69253601466723103 0.09949211948105087 0 0.66251865414987876 0.1160340021949529 0 0.3422695708985129 0.92670321183858773 0 0.30738136326657722 0.90051880305435028 0 0.33748026778199908 0.88396545633134682 0 0.073296788161418117 0.34226957089850552 0 0.099492119481027347 0.30746398533281638 0 0.11603400219493119 0.33748134585014028 0 0.60938371359314658 0.91847489683800321 0 0.6441774148058701 0.91458123574274031 0 0.63753756910470316 0.95578163339252209 0 0.081525103161997597 0.6093837135931508 0 0.085418764257258195 0.64417741480586865 0 0.04421836660747535 0.63753756910470205 0 0.91890123454466932 0.39094742729597309 0 0.91286712511202617 0.35637271447129198 0 0.95581270756939096 0.36248656652865863 0 0.39061628640684498 0.081525103161991672 0 0.35582258519414178 0.085418764257258431 0 0.36246243089534252 0.044218366607477223 0 0.67757268808231397 0.93106206656183088 0 0.63753756910470316 0.95578163339252209 0 0.6441774148058701 0.91458123574274031 0 0.068937933438162791 0.67757268808231053 0 0.04421836660747535 0.63753756910470205 0 0.085418764257258195 0.64417741480586865 0 0.93106206656185309 0.32242731191769503 0 0.95581270756939096 0.36248656652865863 0 0.91286712511202617 0.35637271447129198 0 0.32242731191769902 0.068937933438140794 0 0.36246243089534252 0.044218366607477223 0 0.35582258519414178 0.085418764257258431 0 0.56759263990989184 0.81794319034601648 0 0.53770425635794761 0.80104587463999666 0 0.57578062281532438 0.77751665353176347 0 0.18205680965398621 0.56759263990989739 0 0.1989632851005598 0.53769147668950479 0 0.2224870800581388 0.57577541371134155 0 0.81794319034597418 0.43240736009009317 0 0.80106707846564795 0.46230714888029367 0 0.77752557158083724 0.42422273168818408 0 0.43240736009008851 0.18205680965402779 0 0.46229330881044273 0.19890916456654811 0 0.42421838472613971 0.22246502005787769 0 0.4434591735942961 0.66641640622551224 0 0.46736891737654429 0.70015537930374983 0 0.42715538333808079 0.70077759375307946 0 0.44764943295894188 0.73752415265401661 0 0.42715538333808079 0.70077759375307946 0 0.46736891737654429 0.70015537930374983 0 0.66548584431530877 0.55616712808283064 0 0.69798396601998558 0.5289734597937793 0 0.70087539567735502 0.57165914616526226 0 0.33382663527330159 0.44130125047503482 0 0.29988655052531688 0.46700727827593119 0 0.2963043386970643 0.4298320229681446 0 0.73752415265401194 0.55235056704108476 0 0.70087539567735502 0.57165914616526226 0 0.69798396601998558 0.5289734597937793 0 0.26247584734598628 0.44764943295894732 0 0.2963043386970643 0.4298320229681446 0 0.29988655052531688 0.46700727827593119 0 0.46102425708533701 0.43254199134332588 0 0.46543211128216788 0.38788423543681888 0 0.5047849391802508 0.40719950955717021 0 0.49854341599767982 0.37075914768127122 0 0.5047849391802508 0.40719950955717021 0 0.46543211128216788 0.38788423543681888 0 0.55175647814720108 0.26104505532086641 0 0.57188338999077359 0.29874123486230147 0 0.52929435216580312 0.29671213472503383 0 0.48378871228000903 0.29745177826977359 0 0.52929435216580312 0.29671213472503383 0 0.51491507395299929 0.3326740076510219 0 0.46102425708533701 0.43254199134332588 0 0.42340342337193693 0.44762131874855388 0 0.42930823106401639 0.40626685012722968 0 0.39419886675318527 0.41912225240070788 0 0.42930823106401639 0.40626685012722968 0 0.42340342337193693 0.44762131874855388 0 0.94812782820415209 0.44708943904932719 0 0.96266688603193029 0.48495124540067203 0 0.92203742772043751 0.47579485578641628 0 0.44692795014265252 0.051801877645060238 0 0.48492433058289169 0.037321398276272413 0 0.47574662421782782 0.077626823840590969 0 0.93510666819640953 0.51330222939551939 0 0.92203742772043751 0.47579485578641628 0 0.96266688603193029 0.48495124540067203 0 0.5133022293955174 0.064893331803591428 0 0.47574662421782782 0.077626823840590969 0 0.48492433058289169 0.037321398276272413 0 0.55307204985744796 0.94819812235491685 0 0.51507566941747085 0.9626786017237855 0 0.52425337578225772 0.9223731761594427 0 0.051801877645083663 0.55307204985745195 0 0.037321398276215258 0.51507566941747263 0 0.07762682384055844 0.52425337578226128 0 0.48669777060454272 0.93510666819646593 0 0.52425337578225772 0.9223731761594427 0 0.51507566941747085 0.9626786017237855 0 0.064893331803534807 0.48669777060454478 0 0.07762682384055844 0.52425337578226128 0 0.037321398276215258 0.51507566941747263 0 0.70252050881959183 0.70358884261915833 0 0.71159714897733284 0.75039044679290845 0 0.67626275269587088 0.72713741921009012 0 0.29641115738084339 0.70252050881958938 0 0.249609553207091 0.71159714897732929 0 0.27349656744860212 0.67581741996408695 0 0.70358884261915744 0.29747949118041561 0 0.75039044679291111 0.28840285102267788 0 0.72713741921008324 0.32373724730413678 0 0.29747949118041711 0.2964111573808435 0 0.28840285102268098 0.24960955320708811 0 0.32373692627050221 0.27286413781593999 0 0.48378871228000903 0.29745177826977359 0 0.50732841191799194 0.2613117081243182 0 0.52929435216580312 0.29671213472503383 0 0.50000000000002642 0.7803135888501761 0 0.46634612187967051 0.76767585524061377 0 0.49073113440598592 0.73759004618730417 0 0.44764943295894188 0.73752415265401661 0 0.49073113440598592 0.73759004618730417 0 0.46634612187967051 0.76767585524061377 0 0.73752415265401194 0.55235056704108476 0 0.73815142352639962 0.50697050072007344 0 0.76797069865873757 0.53315993670164308 0 0.78031358885017377 0.49999999999997569 0 0.76797069865873757 0.53315993670164308 0 0.73815142352639962 0.50697050072007344 0 0.2196864111498267 0.50000000000003153 0 0.23232476702437141 0.46634525369567709 0 0.262418491288269 0.49071922292154141 0 0.26247584734598628 0.44764943295894732 0 0.262418491288269 0.49071922292154141 0 0.23232476702437141 0.46634525369567709 0 0.55175647814720108 0.26104505532086641 0 0.50732841191799194 0.2613117081243182 0 0.53265327255359129 0.23135454206919101 0 0.49999999999997108 0.21968641114982909 0 0.53265327255359129 0.23135454206919101 0 0.50732841191799194 0.2613117081243182 0 0.64455163611866495 0.50369301794551069 0 0.62619054498681193 0.46482944251856079 0 0.66329969176266512 0.46626046872004567 0 0.50000000000002642 0.7803135888501761 0 0.46593838964869061 0.80781872835503554 0 0.46634612187967051 0.76767585524061377 0 0.2196864111498267 0.50000000000003153 0 0.19218127164496679 0.46593838964869538 0 0.23232476702437141 0.46634525369567709 0 0.78031358885017377 0.49999999999997569 0 0.80781854240107975 0.53406203754901738 0 0.76797069865873757 0.53315993670164308 0 0.49999999999997108 0.21968641114982909 0 0.53404982287327418 0.19215288291432539 0 0.53265327255359129 0.23135454206919101 0 0.55175647814720108 0.26104505532086641 0 0.52929435216580312 0.29671213472503383 0 0.50732841191799194 0.2613117081243182 0 0.64518564541690571 0.69601563325001548 0 0.67626275269587088 0.72713741921009012 0 0.64203711532612107 0.74316477213290444 0 0.30421635384321521 0.64514939193436716 0 0.27349656744860212 0.67581741996408695 0 0.25684529255773247 0.64203554247963057 0 0.69601563325001248 0.35481435458309712 0 0.72713741921008324 0.32373724730413678 0 0.74316477213289889 0.35796288467388632 0 0.35481435458309307 0.30398436674998969 0 0.32373692627050221 0.27286413781593999 0 0.3579628846738841 0.25683522786710378 0 0.640156794425081 0.43301393728221721 0 0.66329969176266512 0.46626046872004567 0 0.62619054498681193 0.46482944251856079 0 1 0.64999999999907843 0 0.96779701826738695 0.67105375815842694 0 0.96654491682122368 0.6363613838740827 0 0.64999999999907843 0 0 0.67098510785536181 0.032220921767549461 0 0.63635157668793507 0.033457646040912177 0 0.35000000000145642 1 0 0.32894624184180998 0.96779701826738929 0 0.36363861612613613 0.96654491682121313 0 0 0.35000000000145642 0 0.032220921767546963 0.32901489214487523 0 0.033457646040922301 0.36364842331228431 0 0.66820316019503978 0.77769800602796979 0 0.69892030930712212 0.7971997999085858 0 0.66919832404887702 0.81820888699730587 0 0.22230199397202771 0.66820316019503168 0 0.2028002000914135 0.69892030930711557 0 0.1817911130026923 0.66919832404888702 0 0.77769800602796679 0.33179683980497482 0 0.7971997999085878 0.3010796906928917 0 0.8182088869973061 0.33080167595111531 0 0.33179683980498331 0.2223019939720311 0 0.30107969069289831 0.20280020009141189 0 0.33080167595110582 0.18179111300269291 0 0.4434591735942961 0.66641640622551224 0 0.47818752133962877 0.66454462905280853 0 0.46736891737654429 0.70015537930374983 0 0.33382663527330159 0.44130125047503482 0 0.33436424489304489 0.47849603121740791 0 0.29988655052531688 0.46700727827593119 0 0.46102425708533701 0.43254199134332588 0 0.42930823106401639 0.40626685012722968 0 0.46543211128216788 0.38788423543681888 0 0.35984320557492089 0.56698606271778873 0 0.40468198875170619 0.57637931869191572 0 0.37104651296145419 0.60545170748311072 0 0.60938371359314658 0.91847489683800321 0 0.62483828039315681 0.8780818733396436 0 0.6441774148058701 0.91458123574274031 0 0.081525103161997597 0.6093837135931508 0 0.1219181266603569 0.62483828039315903 0 0.085418764257258195 0.64417741480586865 0 0.91890123454466932 0.39094742729597309 0 0.87815187193233801 0.37523526017134418 0 0.91286712511202617 0.35637271447129198 0 0.39061628640684498 0.081525103161991672 0 0.37516171960683908 0.121918126660369 0 0.35582258519414178 0.085418764257258431 0 0.40653508887824003 0.61580573377480397 0 0.37104651296145419 0.60545170748311072 0 0.40468198875170619 0.57637931869191572 0 
</DataArray>
</Points>
<Cells>
<DataArray type="UInt32" Name="connectivity" format="ascii">
0 1 2 3 4 5 6 7 8 9 10 11 12 13 14 15 16 17 18 19 20 21 22 23 24 25 26 27 28 29 30 31 32 33 34 35 36 37 38 39 40 41 42 43 44 45 46 47 48 49 50 51 52 53 54 55 56 57 58 59 60 61 62 63 64 65 66 67 68 69 70 71 72 73 74 75 76 77 78 79 80 81 82 83 84 85 86 87 88 89 90 91 92 93 94 95 96 97 98 99 100 101 102 103 104 105 106 107 108 109 110 111 112 113 114 115 116 117 118 119 120 121 122 123 124 125 126 127 128 129 130 131 132 133 134 135 136 137 138 139 140 141 142 143 144 145 146 147 148 149 150 151 152 153 154 155 156 157 158 159 160 161 162 163 164 165 166 167 168 169 170 171 172 173 174 175 176 177 178 179 180 181 182 183 184 185 186 187 188 189 190 191 192 193 194 195 196 197 198 199 200 201 202 203 204 205 206 207 208 209 210 211 212 213 214 215 216 217 218 219 220 221 222 223 224 225 226 227 228 229 230 231 232 233 234 235 236 237 238 239 240 241 242 243 244 245 246 247 248 249 250 251 252 253 254 255 256 257 258 259 260 261 262 263 264 265 266 267 268 269 270 271 272 273 274 275 276 277 278 279 280 281 282 283 284 285 286 287 288 289 290 291 292 293 294 295 296 297 298 299 300 301 302 303 304 305 306 307 308 309 310 311 312 313 314 315 316 317 318 319 320 321 322 323 324 325 326 327 328 329 330 331 332 333 334 335 336 337 338 339 340 341 342 343 344 345 346 347 348 349 350 351 352 353 354 355 356 357 358 359 360 361 362 363 364 365 366 367 368 369 370 371 372 373 374 375 376 377 378 379 380 381 382 383 384 385 386 387 388 389 390 391 392 393 394 395 396 397 398 399 400 401 402 403 404 405 406 407 408 409 410 411 412 413 414 415 416 417 418 419 420 421 422 423 424 425 426 427 428 429 430 431 432 433 434 435 436 437 438 439 440 441 442 443 444 445 446 447 448 449 450 451 452 453 454 455 456 457 458 459 460 461 462 463 464 465 466 467 468 469 470 471 472 473 474 475 476 477 478 479 480 481 482 483 484 485 486 487 488 489 490 491 492 493 494 495 496 497 498 499 500 501 502 503 504 505 506 507 508 509 510 511 512 513 514 515 516 517 518 519 520 521 522 523 524 525 526 527 528 529 530 531 532 533 534 535 536 537 538 539 540 541 542 543 544 545 546 547 548 549 550 551 552 553 554 555 556 557 558 559 560 561 562 563 564 565 566 567 568 569 570 571 572 573 574 575 576 577 578 579 580 581 582 583 584 585 586 587 588 589 590 591 592 593 594 595 596 597 598 599 600 601 602 603 604 605 606 607 608 609 610 611 612 613 614 615 616 617 618 619 620 621 622 623 624 625 626 627 628 629 630 631 632 633 634 635 636 637 638 639 640 641 642 643 644 645 646 647 648 649 650 651 652 653 654 655 656 657 658 659 660 661 662 663 664 665 666 667 668 669 670 671 672 673 674 675 676 677 678 679 680 681 682 683 684 685 686 687 688 689 690 691 692 693 694 695 696 697 698 699 700 701 702 703 704 705 706 707 708 709 710 711 712 713 714 715 716 717 718 719 720 721 722 723 724 725 726 727 728 729 730 731 732 733 734 735 736 737 738 739 740 741 742 743 744 745 746 747 748 749 750 751 752 753 754 755 756 757 758 759 760 761 762 763 764 765 766 767 768 769 770 771 772 773 774 775 776 777 778 779 780 781 782 783 784 785 786 787 788 789 790 791 792 793 794 795 796 797 798 799 800 801 802 803 804 805 806 807 808 809 810 811 812 813 814 815 816 817 818 819 820 821 822 823 824 825 826 827 828 829 830 831 832 833 834 835 836 837 838 839 840 841 842 843 844 845 846 847 848 849 850 851 852 853 854 855 856 857 858 859 860 861 862 863 864 865 866 867 868 869 870 871 872 873 874 875 876 877 878 879 880 881 882 883 884 885 886 887 888 889 890 891 892 893 894 895 896 897 898 899 900 901 902 903 904 905 906 907 908 909 910 911 912 913 914 915 916 917 918 919 920 921 922 923 924 925 926 927 928 929 930 931 932 933 934 935 936 937 938 939 940 941 942 943 944 945 946 947 948 949 950 951 952 953 954 955 956 957 958 959 960 961 962 963 964 965 966 967 968 969 970 971 972 973 974 975 976 977 978 979 980 981 982 983 984 985 986 987 988 989 990 991 992 993 994 995 996 997 998 999 1000 1001 1002 1003 1004 1005 1006 1007 1008 1009 1010 1011 1012 1013 1014 1015 1016 1017 1018 1019 1020 1021 1022 1023 1024 1025 1026 1027 1028 1029 1030 1031 1032 1033 1034 1035 1036 1037 1038 1039 1040 1041 1042 1043 1044 1045 1046 1047 1048 1049 1050 1051 1052 1053 1054 1055 1056 1057 1058 1059 1060 1061 1062 1063 1064 1065 1066 1067 1068 1069 1070 1071 1072 1073 1074 1075 1076 1077 1078 1079 1080 1081 1082 1083 1084 1085 1086 1087 1088 1089 1090 1091 1092 1093 1094 1095 1096 1097 1098 1099 1100 1101 1102 1103 1104 1105 1106 1107 1108 1109 1110 1111 1112 1113 1114 1115 1116 1117 1118 1119 1120 1121 1122 1123 1124 1125 1126 1127 1128 1129 1130 1131 1132 1133 1134 1135 1136 1137 1138 1139 1140 1141 1142 1143 1144 1145 1146 1147 1148 1149 1150 1151 1152 1153 1154 1155 1156 1157 1158 1159 1160 1161 1162 1163 1164 1165 1166 1167 1168 1169 1170 1171 1172 1173 1174 1175 1176 1177 1178 1179 1180 1181 1182 1183 1184 1185 1186 1187 1188 1189 1190 1191 1192 1193 1194 1195 1196 1197 1198 1199 1200 1201 1202 1203 1204 1205 1206 1207 1208 1209 1210 1211 1212 1213 1214 1215 1216 1217 1218 1219 1220 1221 1222 1223 1224 1225 1226 1227 1228 1229 1230 1231 1232 1233 1234 1235 1236 1237 1238 1239 1240 1241 1242 1243 1244 1245 1246 1247 1248 1249 1250 1251 1252 1253 1254 1255 1256 1257 1258 1259 1260 1261 1262 1263 1264 1265 1266 1267 1268 1269 1270 1271 1272 1273 1274 1275 1276 1277 1278 1279 1280 1281 1282 1283 1284 1285 1286 1287 1288 1289 1290 1291 1292 1293 1294 1295 1296 1297 1298 1299 1300 1301 1302 1303 1304 1305 1306 1307 1308 1309 1310 1311 1312 1313 1314 1315 1316 1317 1318 1319 1320 1321 1322 1323 1324 1325 1326 1327 1328 1329 1330 1331 1332 1333 1334 1335 1336 1337 1338 1339 1340 1341 1342 1343 1344 1345 1346 1347 1348 1349 1350 1351 1352 1353 1354 1355 1356 1357 1358 1359 1360 1361 1362 1363 1364 1365 1366 1367 1368 1369 1370 1371 1372 1373 1374 1375 1376 1377 1378 1379 1380 1381 1382 1383 1384 1385 1386 1387 1388 1389 1390 1391 1392 1393 1394 1395 1396 1397 1398 1399 1400 1401 1402 1403 1404 1405 1406 1407 1408 1409 1410 1411 1412 1413 1414 1415 1416 1417 1418 1419 1420 1421 1422 1423 1424 1425 1426 1427 1428 1429 1430 1431 1432 1433 1434 1435 1436 1437 1438 1439 1440 1441 1442 1443 1444 1445 1446 1447 1448 1449 1450 1451 1452 1453 1454 1455 1456 1457 1458 1459 1460 1461 1462 1463 1464 1465 1466 1467 1468 1469 1470 1471 1472 1473 1474 1475 1476 1477 1478 1479 1480 1481 1482 1483 1484 1485 1486 1487 1488 1489 1490 1491 1492 1493 1494 1495 1496 1497 1498 1499 1500 1501 1502 1503 1504 1505 1506 1507 1508 1509 1510 1511 1512 1513 1514 1515 1516 1517 1518 1519 1520 1521 1522 1523 1524 1525 1526 1527 1528 1529 1530 1531 1532 1533 1534 1535 1536 1537 1538 1539 1540 1541 1542 1543 1544 1545 1546 1547 1548 1549 1550 1551 1552 1553 1554 1555 1556 1557 1558 1559 1560 1561 1562 1563 1564 1565 1566 1567 1568 1569 1570 1571 1572 1573 1574 1575 1576 1577 1578 1579 1580 1581 1582 1583 1584 1585 1586 1587 1588 1589 1590 1591 1592 1593 1594 1595 1596 1597 1598 1599 1600 1601 1602 1603 1604 1605 1606 1607 1608 1609 1610 1611 1612 1613 1614 1615 1616 1617 1618 1619 1620 1621 1622 1623 1624 1625 1626 1627 1628 1629 1630 1631 1632 1633 1634 1635 1636 1637 1638 1639 1640 1641 1642 1643 1644 1645 1646 1647 1648 1649 1650 1651 1652 1653 1654 1655 1656 1657 1658 1659 1660 1661 1662 1663 1664 1665 1666 1667 1668 1669 1670 1671 1672 1673 1674 1675 1676 1677 1678 1679 1680 1681 1682 1683 1684 1685 1686 1687 1688 1689 1690 1691 1692 1693 1694 1695 1696 1697 1698 1699 1700 1701 1702 1703 1704 1705 1706 1707 1708 1709 1710 1711 1712 1713 1714 1715 1716 1717 1718 1719 1720 1721 1722 1723 1724 1725 1726 1727 1728 1729 1730 1731 1732 1733 1734 1735 1736 1737 1738 1739 1740 1741 1742 1743 1744 1745 1746 1747 1748 1749 1750 1751 1752 1753 1754 1755 1756 1757 1758 1759 1760 1761 1762 1763 1764 1765 1766 1767 1768 1769 1770 1771 1772 1773 1774 1775 1776 1777 1778 1779 1780 1781 1782 1783 1784 1785 1786 1787 1788 1789 1790 1791 1792 1793 1794 1795 1796 1797 1798 1799 1800 1801 1802 1803 1804 1805 1806 1807 1808 1809 1810 1811 1812 1813 1814 1815 1816 1817 1818 1819 1820 1821 1822 1823 1824 1825 1826 1827 1828 1829 1830 1831 1832 1833 1834 1835 1836 1837 1838 1839 1840 1841 1842 1843 1844 1845 1846 1847 1848 1849 1850 1851 1852 1853 1854 1855 1856 1857 1858 1859 1860 1861 1862 1863 1864 1865 1866 1867 1868 1869 1870 1871 1872 1873 1874 1875 1876 1877 1878 1879 1880 1881 1882 1883 1884 1885 1886 1887 1888 1889 1890 1891 1892 1893 1894 1895 1896 1897 1898 1899 1900 1901 1902 1903 1904 1905 1906 1907 1908 1909 1910 1911 1912 1913 1914 1915 1916 1917 1918 1919 1920 1921 1922 1923 1924 1925 1926 1927 1928 1929 1930 1931 1932 1933 1934 1935 1936 1937 1938 1939 1940 1941 1942 1943 1944 1945 1946 1947 1948 1949 1950 1951 1952 1953 1954 1955 1956 1957 1958 1959 1960 1961 1962 1963 1964 1965 1966 1967 1968 1969 1970 1971 1972 1973 1974 1975 1976 1977 1978 1979 1980 1981 1982 1983 1984 1985 1986 1987 1988 1989 1990 1991 1992 1993 1994 1995 1996 1997 1998 1999 2000 2001 2002 2003 2004 2005 2006 2007 2008 2009 2010 2011 2012 2013 2014 2015 2016 2017 2018 2019 2020 2021 2022 2023 2024 2025 2026 2027 2028 2029 2030 2031 2032 2033 2034 2035 2036 2037 2038 2039 2040 2041 2042 2043 2044 2045 2046 2047 2048 2049 2050 2051 2052 2053 2054 2055 2056 2057 2058 2059 2060 2061 2062 2063 2064 2065 2066 2067 2068 2069 2070 2071 2072 2073 2074 2075 2076 2077 2078 2079 2080 2081 2082 2083 2084 2085 2086 2087 2088 2089 2090 2091 2092 2093 2094 2095 2096 2097 2098 2099 2100 2101 2102 2103 2104 2105 2106 2107 2108 2109 2110 2111 2112 2113 2114 2115 2116 2117 2118 2119 2120 2121 2122 2123 2124 2125 2126 2127 2128 2129 2130 2131 2132 2133 2134 2135 2136 2137 2138 2139 2140 2141 2142 2143 2144 2145 2146 2147 2148 2149 2150 2151 2152 2153 2154 2155 2156 2157 2158 2159 2160 2161 2162 2163 2164 2165 2166 2167 2168 2169 2170 2171 2172 2173 2174 2175 2176 2177 2178 2179 2180 2181 2182 2183 2184 2185 2186 2187 2188 2189 2190 2191 2192 2193 2194 2195 2196 2197 2198 2199 2200 2201 2202 2203 2204 2205 2206 2207 2208 2209 2210 2211 2212 2213 2214 2215 2216 2217 2218 2219 2220 2221 2222 2223 2224 2225 2226 2227 2228 2229 2230 2231 2232 2233 2234 2235 2236 2237 2238 2239 2240 2241 2242 2243 2244 2245 2246 2247 2248 2249 2250 2251 2252 2253 2254 2255 2256 2257 2258 2259 2260 2261 2262 2263 2264 2265 2266 2267 2268 2269 2270 2271 2272 2273 2274 2275 2276 2277 2278 2279 2280 2281 2282 2283 2284 2285 2286 2287 2288 2289 2290 2291 2292 2293 2294 2295 2296 2297 2298 2299 2300 2301 2302 2303 2304 2305 2306 2307 2308 2309 2310 2311 2312 2313 2314 2315 2316 2317 2318 2319 2320 2321 2322 2323 2324 2325 2326 2327 2328 2329 2330 2331 2332 2333 2334 2335 2336 2337 2338 2339 2340 2341 2342 2343 2344 2345 2346 2347 2348 2349 2350 2351 2352 2353 2354 2355 2356 2357 2358 2359 2360 2361 2362 2363 2364 2365 2366 2367 2368 2369 2370 2371 2372 2373 2374 2375 2376 2377 2378 2379 2380 2381 2382 2383 2384 2385 2386 2387 2388 2389 2390 2391 2392 2393 2394 2395 2396 2397 2398 2399 2400 2401 2402 2403 2404 2405 2406 2407 2408 2409 2410 2411 2412 2413 2414 2415 2416 2417 2418 2419 2420 2421 2422 2423 2424 2425 2426 2427 2428 2429 2430 2431 2432 2433 2434 2435 2436 2437 2438 2439 2440 2441 2442 2443 2444 2445 2446 2447 2448 2449 2450 2451 2452 2453 2454 2455 2456 2457 2458 2459 2460 2461 2462 2463 2464 2465 2466 2467 2468 2469 2470 2471 2472 2473 2474 2475 2476 2477 2478 2479 2480 2481 2482 2483 2484 2485 2486 2487 2488 2489 2490 2491 2492 2493 2494 2495 2496 2497 2498 2499 2500 2501 2502 2503 2504 2505 2506 2507 2508 2509 2510 2511 2512 2513 2514 2515 2516 2517 2518 2519 2520 2521 2522 2523 2524 2525 2526 2527 2528 2529 2530 2531 2532 2533 2534 2535 2536 2537 2538 2539 2540 2541 2542 2543 2544 2545 2546 2547 2548 2549 2550 2551 2552 2553 2554 2555 2556 2557 2558 2559 2560 2561 2562 2563 2564 2565 2566 2567 2568 2569 2570 2571 2572 2573 2574 2575 2576 2577 2578 2579 2580 2581 2582 2583 2584 2585 2586 2587 2588 2589 2590 2591 2592 2593 2594 2595 2596 2597 2598 2599 2600 2601 2602 2603 2604 2605 2606 2607 2608 2609 2610 2611 2612 2613 2614 2615 2616 2617 2618 2619 2620 2621 2622 2623 2624 2625 2626 2627 2628 2629 2630 2631 2632 2633 2634 2635 2636 2637 2638 2639 2640 2641 2642 2643 2644 2645 2646 2647 2648 2649 2650 2651 2652 2653 2654 2655 2656 2657 2658 2659 2660 2661 2662 2663 2664 2665 2666 2667 2668 2669 2670 2671 2672 2673 2674 2675 2676 2677 2678 2679 2680 2681 2682 2683 2684 2685 2686 2687 2688 2689 2690 2691 2692 2693 2694 2695 2696 2697 2698 2699 2700 2701 2702 2703 2704 2705 2706 2707 2708 2709 2710 2711 2712 2713 2714 2715 2716 2717 2718 2719 2720 2721 2722 2723 2724 2725 2726 2727 2728 2729 2730 2731 2732 2733 2734 2735 2736 2737 2738 2739 2740 2741 2742 2743 2744 2745 2746 2747 2748 2749 2750 2751 2752 2753 2754 2755 2756 2757 2758 2759 2760 2761 2762 2763 2764 2765 2766 2767 2768 2769 2770 2771 2772 2773 2774 2775 2776 2777 2778 2779 2780 2781 2782 2783 2784 2785 2786 2787 2788 2789 2790 2791 2792 2793 2794 2795 2796 2797 2798 2799 2800 2801 2802 2803 2804 2805 2806 2807 2808 2809 2810 2811 2812 2813 2814 2815 2816 2817 2818 2819 2820 2821 2822 2823 2824 2825 2826 2827 2828 2829 2830 2831 2832 2833 2834 2835 2836 2837 2838 2839 2840 2841 2842 2843 2844 2845 2846 2847 2848 2849 2850 2851 2852 2853 2854 2855 2856 2857 2858 2859 2860 2861 2862 2863 2864 2865 2866 2867 2868 2869 2870 2871 2872 2873 2874 2875 2876 2877 2878 2879 2880 2881 2882 2883 2884 2885 2886 2887 2888 2889 2890 2891 2892 2893 2894 2895 2896 2897 2898 2899 2900 2901 2902 2903 2904 2905 2906 2907 2908 2909 2910 2911 2912 2913 2914 2915 2916 2917 2918 2919 2920 2921 2922 2923 2924 2925 2926 2927 2928 2929 2930 2931 2932 2933 2934 2935 2936 2937 2938 2939 2940 2941 2942 2943 2944 2945 2946 2947 2948 2949 2950 2951 2952 2953 2954 2955 2956 2957 2958 2959 2960 2961 2962 2963 2964 2965 2966 2967 2968 2969 2970 2971 2972 2973 2974 2975 2976 2977 2978 2979 2980 2981 2982 2983 2984 2985 2986 2987 2988 2989 2990 2991 2992 2993 2994 2995 2996 2997 2998 2999 3000 3001 3002 3003 3004 3005 3006 3007 3008 3009 3010 3011 3012 3013 3014 3015 3016 3017 3018 3019 3020 3021 3022 3023 3024 3025 3026 3027 3028 3029 3030 3031 3032 3033 3034 3035 3036 3037 3038 3039 3040 3041 3042 3043 3044 3045 3046 3047 3048 3049 3050 3051 3052 3053 3054 3055 3056 3057 3058 3059 3060 3061 3062 3063 3064 3065 3066 3067 3068 3069 3070 3071 3072 3073 3074 3075 3076 3077 3078 3079 3080 3081 3082 3083 3084 3085 3086 3087 3088 3089 3090 3091 3092 3093 3094 3095 3096 3097 3098 3099 3100 3101 3102 3103 3104 3105 3106 3107 3108 3109 3110 3111 3112 3113 3114 3115 3116 3117 3118 3119 3120 3121 3122 3123 3124 3125 3126 3127 3128 3129 3130 3131 3132 3133 3134 3135 3136 3137 3138 3139 3140 3141 3142 3143 3144 3145 3146 3147 3148 3149 3150 3151 3152 3153 3154 3155 3156 3157 3158 3159 3160 3161 
</DataArray>
<DataArray type="UInt32" Name="offsets" format="ascii">
3 6 9 12 15 18 21 24 27 30 33 36 39 42 45 48 51 54 57 60 63 66 69 72 75 78 81 84 87 90 93 96 99 102 105 108 111 114 117 120 123 126 129 132 135 138 141 144 147 150 153 156 159 162 165 168 171 174 177 180 183 186 189 192 195 198 201 204 207 210 213 216 219 222 225 228 231 234 237 240 243 246 249 252 255 258 261 264 267 270 273 276 279 282 285 288 291 294 297 300 303 306 309 312 315 318 321 324 327 330 333 336 339 342 345 348 351 354 357 360 363 366 369 372 375 378 381 384 387 390 393 396 399 402 405 408 411 414 417 420 423 426 429 432 435 438 441 444 447 450 453 456 459 462 465 468 471 474 477 480 483 486 489 492 495 498 501 504 507 510 513 516 519 522 525 528 531 534 537 540 543 546 549 552 555 558 561 564 567 570 573 576 579 582 585 588 591 594 597 600 603 606 609 612 615 618 621 624 627 630 633 636 639 642 645 648 651 654 657 660 663 666 669 672 675 678 681 684 687 690 693 696 699 702 705 708 711 714 717 720 723 726 729 732 735 738 741 744 747 750 753 756 759 762 765 768 771 774 777 780 783 786 789 792 795 798 801 804 807 810 813 816 819 822 825 828 831 834 837 840 843 846 849 852 855 858 861 864 867 870 873 876 879 882 885 888 891 894 897 900 903 906 909 912 915 918 921 924 927 930 933 936 939 942 945 948 951 954 957 960 963 966 969 972 975 978 981 984 987 990 993 996 999 1002 1005 1008 1011 1014 1017 1020 1023 1026 1029 1032 1035 1038 1041 1044 1047 1050 1053 1056 1059 1062 1065 1068 1071 1074 1077 1080 1083 1086 1089 1092 1095 1098 1101 1104 1107 1110 1113 1116 1119 1122 1125 1128 1131 1134 1137 1140 1143 1146 1149 1152 1155 1158 1161 1164 1167 1170 1173 1176 1179 1182 1185 1188 1191 1194 1197 1200 1203 1206 1209 1212 1215 1218 1221 1224 1227 1230 1233 1236 1239 1242 1245 1248 1251 1254 1257 1260 1263 1266 1269 1272 1275 1278 1281 1284 1287 1290 1293 1296 1299 1302 1305 1308 1311 1314 1317 1320 1323 1326 1329 1332 1335 1338 1341 1344 1347 1350 1353 1356 1359 1362 1365 1368 1371 1374 1377 1380 1383 1386 1389 1392 1395 1398 1401 1404 1407 1410 1413 1416 1419 1422 1425 1428 1431 1434 1437 1440 1443 1446 1449 1452 1455 1458 1461 1464 1467 1470 1473 1476 1479 1482 1485 1488 1491 1494 1497 1500 1503 1506 1509 1512 1515 1518 1521 1524 1527 1530 1533 1536 1539 1542 1545 1548 1551 1554 1557 1560 1563 1566 1569 1572 1575 1578 1581 1584 1587 1590 1593 1596 1599 1602 1605 1608 1611 1614 1617 1620 1623 1626 1629 1632 1635 1638 1641 1644 1647 1650 1653 1656 1659 1662 1665 1668 1671 1674 1677 1680 1683 1686 1689 1692 1695 1698 1701 1704 1707 1710 1713 1716 1719 1722 1725 1728 1731 1734 1737 1740 1743 1746 1749 1752 1755 1758 1761 1764 1767 1770 1773 1776 1779 1782 1785 1788 1791 1794 1797 1800 1803 1806 1809 1812 1815 1818 1821 1824 1827 1830 1833 1836 1839 1842 1845 1848 1851 1854 1857 1860 1863 1866 1869 1872 1875 1878 1881 1884 1887 1890 1893 1896 1899 1902 1905 1908 1911 1914 1917 1920 1923 1926 1929 1932 1935 1938 1941 1944 1947 1950 1953 1956 1959 1962 1965 1968 1971 1974 1977 1980 1983 1986 1989 1992 1995 1998 2001 2004 2007 2010 2013 2016 2019 2022 2025 2028 2031 2034 2037 2040 2043 2046 2049 2052 2055 2058 2061 2064 2067 2070 2073 2076 2079 2082 2085 2088 2091 2094 2097 2100 2103 2106 2109 2112 2115 2118 2121 2124 2127 2130 2133 2136 2139 2142 2145 2148 2151 2154 2157 2160 2163 2166 2169 2172 2175 2178 2181 2184 2187 2190 2193 2196 2199 2202 2205 2208 2211 2214 2217 2220 2223 2226 2229 2232 2235 2238 2241 2244 2247 2250 2253 2256 2259 2262 2265 2268 2271 2274 2277 2280 2283 2286 2289 2292 2295 2298 2301 2304 2307 2310 2313 2316 2319 2322 2325 2328 2331 2334 2337 2340 2343 2346 2349 2352 2355 2358 2361 2364 2367 2370 2373 2376 2379 2382 2385 2388 2391 2394 2397 2400 2403 2406 2409 2412 2415 2418 2421 2424 2427 2430 2433 2436 2439 2442 2445 2448 2451 2454 2457 2460 2463 2466 2469 2472 2475 2478 2481 2484 2487 2490 2493 2496 2499 2502 2505 2508 2511 2514 2517 2520 2523 2526 2529 2532 2535 2538 2541 2544 2547 2550 2553 2556 2559 2562 2565 2568 2571 2574 2577 2580 2583 2586 2589 2592 2595 2598 2601 2604 2607 2610 2613 2616 2619 2622 2625 2628 2631 2634 2637 2640 2643 2646 2649 2652 2655 2658 2661 2664 2667 2670 2673 2676 2679 2682 2685 2688 2691 2694 2697 2700 2703 2706 2709 2712 2715 2718 2721 2724 2727 2730 2733 2736 2739 2742 2745 2748 2751 2754 2757 2760 2763 2766 2769 2772 2775 2778 2781 2784 2787 2790 2793 2796 2799 2802 2805 2808 2811 2814 2817 2820 2823 2826 2829 2832 2835 2838 2841 2844 2847 2850 2853 2856 2859 2862 2865 2868 2871 2874 2877 2880 2883 2886 2889 2892 2895 2898 2901 2904 2907 2910 2913 2916 2919 2922 2925 2928 2931 2934 2937 2940 2943 2946 2949 2952 2955 2958 2961 2964 2967 2970 2973 2976 2979 2982 2985 2988 2991 2994 2997 3000 3003 3006 3009 3012 3015 3018 3021 3024 3027 3030 3033 3036 3039 3042 3045 3048 3051 3054 3057 3060 3063 3066 3069 3072 3075 3078 3081 3084 3087 3090 3093 3096 3099 3102 3105 3108 3111 3114 3117 3120 3123 3126 3129 3132 3135 3138 3141 3144 3147 3150 3153 3156 3159 3162 
</DataArray>
<DataArray type="UInt32" Name="types" format="ascii">
5 5 5 5 5 5 5 5 5 5 5 5 5 5 5 5 5 5 5 5 5 5 5 5 5 5 5 5 5 5 5 5 5 5 5 5 5 5 5 5 5 5 5 5 5 5 5 5 5 5 5 5 5 5 5 5 5 5 5 5 5 5 5 5 5 5 5 5 5 5 5 5 5 5 5 5 5 5 5 5 5 5 5 5 5 5 5 5 5 5 5 5 5 5 5 5 5 5 5 5 5 5 5 5 5 5 5 5 5 5 5 5 5 5 5 5 5 5 5 5 5 5 5 5 5 5 5 5 5 5 5 5 5 5 5 5 5 5 5 5 5 5 5 5 5 5 5 5 5 5 5 5 5 5 5 5 5 5 5 5 5 5 5 5 5 5 5 5 5 5 5 5 5 5 5 5 5 5 5 5 5 5 5 5 5 5 5 5 5 5 5 5 5 5 5 5 5 5 5 5 5 5 5 5 5 5 5 5 5 5 5 5 5 5 5 5 5 5 5 5 5 5 5 5 5 5 5 5 5 5 5 5 5 5 5 5 5 5 5 5 5 5 5 5 5 5 5 5 5 5 5 5 5 5 5 5 5 5 5 5 5 5 5 5 5 5 5 5 5 5 5 5 5 5 5 5 5 5 5 5 5 5 5 5 5 5 5 5 5 5 5 5 5 5 5 5 5 5 5 5 5 5 5 5 5 5 5 5 5 5 5 5 5 5 5 5 5 5 5 5 5 5 5 5 5 5 5 5 5 5 5 5 5 5 5 5 5 5 5 5 5 5 5 5 5 5 5 5 5 5 5 5 5 5 5 5 5 5 5 5 5 5 5 5 5 5 5 5 5 5 5 5 5 5 5 5 5 5 5 5 5 5 5 5 5 5 5 5 5 5 5 5 5 5 5 5 5 5 5 5 5 5 5 5 5 5 5 5 5 5 5 5 5 5 5 5 5 5 5 5 5 5 5 5 5 5 5 5 5 5 5 5 5 5 5 5 5 5 5 5 5 5 5 5 5 5 5 5 5 5 5 5 5 5 5 5 5 5 5 5 5 5 5 5 5 5 5 5 5 5 5 5 5 5 5 5 5 5 5 5 5 5 5 5 5 5 5 5 5 5 5 5 5 5 5 5 5 5 5 5 5 5 5 5 5 5 5 5 5 5 5 5 5 5 5 5 5 5 5 5 5 5 5 5 5 5 5 5 5 5 5 5 5 5 5 5 5 5 5 5 5 5 5 5 5 5 5 5 5 5 5 5 5 5 5 5 5 5 5 5 5 5 5 5 5 5 5 5 5 5 5 5 5 5 5 5 5 5 5 5 5 5 5 5 5 5 5 5 5 5 5 5 5 5 5 5 5 5 5 5 5 5 5 5 5 5 5 5 5 5 5 5 5 5 5 5 5 5 5 5 5 5 5 5 5 5 5 5 5 5 5 5 5 5 5 5 5 5 5 5 5 5 5 5 5 5 5 5 5 5 5 5 5 5 5 5 5 5 5 5 5 5 5 5 5 5 5 5 5 5 5 5 5 5 5 5 5 5 5 5 5 5 5 5 5 5 5 5 5 5 5 5 5 5 5 5 5 5 5 5 5 5 5 5 5 5 5 5 5 5 5 5 5 5 5 5 5 5 5 5 5 5 5 5 5 5 5 5 5 5 5 5 5 5 5 5 5 5 5 5 5 5 5 5 5 5 5 5 5 5 5 5 5 5 5 5 5 5 5 5 5 5 5 5 5 5 5 5 5 5 5 5 5 5 5 5 5 5 5 5 5 5 5 5 5 5 5 5 5 5 5 5 5 5 5 5 5 5 5 5 5 5 5 5 5 5 5 5 5 5 5 5 5 5 5 5 5 5 5 5 5 5 5 5 5 5 5 5 5 5 5 5 5 5 5 5 5 5 5 5 5 5 5 5 5 5 5 5 5 5 5 5 5 5 5 5 5 5 5 5 5 5 5 5 5 5 5 5 5 5 5 5 5 5 5 5 5 5 5 5 5 5 5 5 5 5 5 5 5 5 5 5 5 5 5 5 5 5 5 5 5 5 5 5 5 5 5 5 5 5 5 5 5 5 5 5 5 5 5 5 5 5 5 5 5 5 5 5 5 5 5 5 5 5 5 5 5 5 5 5 5 5 5 5 5 5 5 5 5 5 5 5 5 5 5 5 5 5 5 5 5 5 5 5 5 5 5 5 5 5 5 5 5 5 5 5 5 5 5 5 5 5 5 5 5 5 5 5 5 5 5 5 5 5 5 5 5 5 5 5 5 5 5 5 5 5 5 5 5 5 5 5 5 5 5 5 5 5 5 5 5 5 5 5 5 5 5 5 5 5 5 5 5 5 5 5 5 5 5 5 5 5 5 5 5 5 5 5 5 5 5 5 5 5 
</DataArray>
</Cells>
<PointData Scalars="" Vectors="displacement," Tensors="">
<DataArray type="Float64" Name="displacement" NumberOfComponents="3" format="ascii">
-0.00023931193922303989 -0.0023551208043293042 0 -0.00016642160718476559 -0.002199276096997522 0 -0.0001198050640719008 -0.0023288369020758462 0 0.00054226403080782795 -0.0018883603979549003 0 0.00044627237536046672 -0.0017619725097218746 0 0.00052250522460798611 -0.0017047363891243999 0 -0.00049435674108574935 -0.0011655481436569637 0 -0.00042471269077074193 -0.0012701085608094905 0 -0.00050058925361039903 -0.0013434461479878549 0 0.00016704799540472878 -0.00066428331306672553 0 0.00012556835993703536 -0.00079872728013727216 0 8.3027161859495347e-05 -0.00067706091712654804 0 0.00014922203434015676 -0.0019709362791999908 0 0.00025362104281116151 -0.0018752754824897361 0 0.00024721224697111242 -0.0020784424247505397 0 0.00034329878876544279 -0.00200092429693717 0 0.00024721224697111242 -0.0020784424247505397 0 0.00025362104281116151 -0.0018752754824897361 0 0.00029361237152351151 -0.0012634752592995625 0 0.00020415635647156043 -0.0011109629081519133 0 0.00032990392524107699 -0.0011260827925070869 0 0.00027288737735396544 -0.00097295143090402622 0 0.00032990392524107699 -0.0011260827925070869 0 0.00020415635647156043 -0.0011109629081519133 0 0.00053670266410215176 -0.0029379068759794137 0 0.00060813248412656137 -0.0030685947940531739 0 0.00048356850363416814 -0.0030845470200791718 0 -0.00087738224248068506 -0.0023825742155572675 0 -0.00094786778386390068 -0.0025001319319569518 0 -0.00095540331408264093 -0.002308124753102948 0 0.00066728711515979242 -0.00080160170293324068 0 0.00071851373933813211 -0.00077551843114867546 0 0.00079361440498049824 -0.00094106076695387971 0 -0.00018725142117104657 -0.00024269064022724944 0 -0.00011480244129802765 -0.00012245035091872588 0 -8.3936982749002013e-05 -0.0001081743579856913 0 0.00084769231543262212 -0.0032389759443412687 0 0.00075210899191405494 -0.0032439218186202179 0 0.00086262574531016352 -0.0031051057630724997 0 -0.0010384173096674788 -0.0029019265991920757 0 -0.0010412882116868161 -0.0027390573850091236 0 -0.00096722779318283753 -0.0029219679400313897 0 -0.00042493487315561559 -0.00034344121268940395 0 -0.0006555597726245866 -0.00061740488254148878 0 -0.00051463263399478278 -0.00045435244720821115 0 -0.00086301197755058779 -0.0031050954729132658 0 -0.00075239214397282742 -0.0032439654711449734 0 -0.00084802899223328666 -0.003238989429110866 0 0.00014431521191809774 -9.6781032180403545e-05 0 2.420658436598714e-08 -1.056998850345626e-07 0 5.8194314715790419e-08 -1.3908308052990667e-07 0 0.00096700953449570031 -0.0029219503688115525 0 0.0010411402155380469 -0.0027391596865871432 0 0.0010381765823641194 -0.0029019264823607976 0 0.00051519895514928206 -0.00045401945371257327 0 0.00065681908015474894 -0.00061657288240697227 0 0.00042556275601751637 -0.00034321066818373728 0 -5.8186982015529758e-08 -1.404214653888502e-07 0 -2.4049455141111337e-08 -1.0437617809077487e-07 0 -0.0001445043730282159 -9.7262793866171346e-05 0 0.00075700931628932535 -0.00076238302616466543 0 0.00071851373933813211 -0.00077551843114867546 0 0.00065519261615799883 -0.00063806111816950553 0 -3.4753355814110706e-08 -1.1898560731119135e-07 0 -0.00011480244129802765 -0.00012245035091872588 0 -9.9016951757902255e-05 -8.9040885537636195e-05 0 0.00065230786871544547 -0.0032480418231903029 0 0.00060813248412656137 -0.0030685947940531739 0 0.00070929267432635044 -0.0030974510612316402 0 -0.001042049652073889 -0.0025765054535553775 0 -0.00094786778386390068 -0.0025001319319569518 0 -0.00096348204358184255 -0.0026633840963621873 0 0.0010419016947698157 -0.0025767232637774621 0 0.00097169187182581142 -0.0026399367981783822 0 0.00094251035012795595 -0.0024702741527697666 0 3.4150477259319826e-08 -1.1903636674803725e-07 0 9.8275639907208768e-05 -8.8813798836938294e-05 0 0.00011659416027127305 -0.00012447467873084577 0 -0.00065274535276904741 -0.0032479593347978495 0 -0.0006947671566607498 -0.0031134753734127396 0 -0.00058982677691006926 -0.0030589172448336954 0 -0.00075726463324735538 -0.00076249837952372247 0 -0.00065372980666470024 -0.0006353544111146654 0 -0.00072174906997524049 -0.00078310275643789196 0 -1.0431608627481674e-07 -0.0024800518082503543 0 8.5970046208155431e-05 -0.0025539836098974096 0 -5.3413338026903128e-06 -0.0026917741293852435 0 -0.00060285411783708015 -0.0015391787360153222 0 -0.00065261529730046826 -0.0016751324343965916 0 -0.00072254879142488509 -0.001556086942144885 0 0.00060257095605645902 -0.0015392228482763364 0 0.00063462466467682343 -0.001419832259937779 0 0.00072343695061106354 -0.0015715400340005035 0 -1.2974066672630664e-07 -0.0005486215916307444 0 -4.8786274724238459e-05 -0.00048802028608433724 0 3.0940104126750065e-06 -0.00037639976908507685 0 0.00065230786871544547 -0.0032480418231903029 0 0.00054921420990779949 -0.0032512503647747441 0 0.00060813248412656137 -0.0030685947940531739 0 -0.001042049652073889 -0.0025765054535553775 0 -0.0010421075105027384 -0.0024143652720494632 0 -0.00094786778386390068 -0.0025001319319569518 0 0.00075700931628932535 -0.00076238302616466543 0 0.00083451495535931093 -0.00090634180677287069 0 0.00071851373933813211 -0.00077551843114867546 0 -3.4753355814110706e-08 -1.1898560731119135e-07 0 -1.9185212972679489e-08 -1.1232318094804864e-07 0 -0.00011480244129802765 -0.00012245035091872588 0 0.0010419458424359594 -0.0024144373126802894 0 0.0010419016947698157 -0.0025767232637774621 0 0.00094251035012795595 -0.0024702741527697666 0 2.0561232321537901e-08 -1.1101141746999087e-07 0 3.4150477259319826e-08 -1.1903636674803725e-07 0 0.00011659416027127305 -0.00012447467873084577 0 -0.00054942596705027848 -0.0032512519040543086 0 -0.00065274535276904741 -0.0032479593347978495 0 -0.00058982677691006926 -0.0030589172448336954 0 -0.00083521843930021869 -0.00090629536914812179 0 -0.00075726463324735538 -0.00076249837952372247 0 -0.00072174906997524049 -0.00078310275643789196 0 0.0010419458424359594 -0.0024144373126802894 0 0.00094251035012795595 -0.0024702741527697666 0 0.00094590451158477879 -0.0022886982340426295 0 2.0561232321537901e-08 -1.1101141746999087e-07 0 0.00011659416027127305 -0.00012447467873084577 0 8.72590750426947e-05 -0.00011459678099988384 0 -0.00054942596705027848 -0.0032512519040543086 0 -0.00058982677691006926 -0.0030589172448336958 0 -0.00047179168863449561 -0.003067373665525344 0 -0.00083521843930021869 -0.00090629536914812179 0 -0.00072174906997524049 -0.00078310275643789196 0 -0.00079448682067103781 -0.00095344717783392235 0 0.00071990744554612743 -0.0026671755788356451 0 0.00081444294236581881 -0.0026067052705929976 0 0.00083835024659790526 -0.0027501089610913396 0 -0.00072019420742712361 -0.0026670901157550813 0 -0.0006807466170460245 -0.0028280898924208128 0 -0.0007658775832433194 -0.0028721980550130547 0 -0.00023931193922303989 -0.0023551208043293042 0 -0.0001198050640719008 -0.0023288369020758462 0 -0.00015295031319368345 -0.00248131129333563 0 0.00054226403080782795 -0.0018883603979549003 0 0.00052250522460798611 -0.0017047363891243999 0 0.00061435295656118473 -0.0017679200660212645 0 -0.00049435674108574935 -0.0011655481436569637 0 -0.00050058925361039903 -0.0013434461479878549 0 -0.0005828919852298944 -0.0013110218592660107 0 0.00016704799540472878 -0.00066428331306672553 0 8.3027161859495333e-05 -0.00067706091712654794 0 9.467414679924211e-05 -0.00054868063921653177 0 0.00086262574531016352 -0.0031051057630724997 0 0.00075210899191405494 -0.0032439218186202179 0 0.00078934658269842522 -0.0030665032972179707 0 -0.00096722779318283753 -0.0029219679400313897 0 -0.0010412882116868161 -0.0027390573850091236 0 -0.00094627044599419809 -0.0027954614490925569 0 -0.00051366544825714848 -0.00045483093420335533 0 -0.0006555597726245866 -0.00061740488254148878 0 -0.00042493487315561559 -0.00034344121268940395 0 -0.00077979097047826799 -0.0030446968142109733 0 -0.00075239214397282742 -0.0032439654711449734 0 -0.00086301197755058779 -0.0031050954729132658 0 0.00016367806052535505 -0.00013606026352820134 0 2.4206584365986846e-08 -1.0569988503456201e-07 0 0.00014431521191809774 -9.6781032180403545e-05 0 0.00093450028312089045 -0.0027782090386136672 0 0.0010411402155380469 -0.0027391596865871432 0 0.00096700953449570031 -0.0029219503688115525 0 0.00042556275601751637 -0.00034321066818373728 0 0.00065681908015474894 -0.00061657288240697238 0 0.0005187150829489306 -0.0004625285149770595 0 -0.0001445043730282159 -9.7262793866171346e-05 0 -2.404945514110646e-08 -1.0437617809077159e-07 0 -0.00017438977880945323 -0.00014569696206672274 0 -0.00066407821941419799 -0.00081448327075313981 0 -0.00062037456493535417 -0.00068532618793463952 0 -0.00052782080202745717 -0.00065823047184308261 0 0.00019294008048420164 -0.00025686383843589371 0 0.00021078755092814521 -0.00024051211370764998 0 0.00031260176174083119 -0.00040485916549561139 0 0.00084079541628493434 -0.0023637107862778334 0 0.00086746667412670217 -0.0025031676487007907 0 0.00074331752003085948 -0.0024724843670388208 0 -0.00052716952632134845 -0.0028707823742791538 0 -0.00061409032947208782 -0.0029217421741925538 0 -0.00060090658407642873 -0.0027012894261763359 0 0.00053670266410215176 -0.0029379068759794137 0 0.00048356850363416814 -0.0030845470200791718 0 0.00045725511727555862 -0.0029098682594072985 0 -0.00087738224248068506 -0.0023825742155572675 0 -0.00095540331408264093 -0.002308124753102948 0 -0.00086234438881771221 -0.0022591271523035566 0 0.00066728711515979242 -0.00080160170293324068 0 0.00079361440498049824 -0.00094106076695387971 0 0.00071719841918335236 -0.00092772310593578411 0 -0.00018725142117104657 -0.00024269064022724944 0 -8.3936982749002013e-05 -0.0001081743579856913 0 -0.000152731610395421 -0.00023075813102131268 0 8.6294954443402199e-05 -0.0001583791080656904 0 9.5373180155311496e-05 -0.00024653863249657506 0 4.6792126706621156e-05 -0.00012809784309569745 0 0.00090839603956941351 -0.0021094089662048923 0 0.00083874016685414013 -0.0019836807965019966 0 0.00092739050780821057 -0.0019411348700001964 0 -0.00081075069575152069 -0.0011037408183975357 0 -0.00077004590798248642 -0.0011919547990012081 0 -0.00086768779842193243 -0.001279396182045468 0 -0.00035409720840151815 -0.0029991178024060664 0 -0.00027483886960976176 -0.002872361538707474 0 -0.00023633100517310898 -0.0030436861545799954 0 -5.3413338026903128e-06 -0.0026917741293852435 0 8.5970046208155431e-05 -0.0025539836098974096 0 9.2019861365851124e-05 -0.0027038813088569595 0 -0.00072254879142488509 -0.001556086942144885 0 -0.00065261529730046826 -0.0016751324343965916 0 -0.00073733512766063823 -0.0017000935993793402 0 0.00072343695061106354 -0.0015715400340005035 0 0.00063462466467682332 -0.0014198322599377788 0 0.00071718747701618772 -0.0014307842372758995 0 3.0940104126750065e-06 -0.00037639976908507685 0 -4.8786274724238465e-05 -0.0004880202860843373 0 -4.2346368479224805e-05 -0.00036971911658447294 0 0.00071990744554612743 -0.0026671755788356451 0 0.00083835024659790537 -0.0027501089610913396 0 0.00076374072538383823 -0.0028297217935101772 0 -0.00072019420742712361 -0.0026670901157550813 0 -0.0007658775832433194 -0.0028721980550130547 0 -0.00081446727264893959 -0.0027451012827583643 0 0.00041417728649344632 -0.00046227108357607617 0 0.00033912890783613944 -0.00032819208673642722 0 0.00045513882603376348 -0.00043221860982331771 0 -0.00041125160010270696 -0.00045847996919390235 0 -0.00043663177721366397 -0.00042303859032336672 0 -0.00031515332484382012 -0.00029623172093419959 0 -0.00052782080202745717 -0.00065823047184308261 0 -0.00062037456493535417 -0.00068532618793463952 0 -0.00051913301491893042 -0.00055530825442500506 0 0.00031260176174083119 -0.00040485916549561139 0 0.00021078755092814521 -0.00024051211370764998 0 0.00029577079927269148 -0.00032111357480569614 0 0.00041417728649344632 -0.00046227108357607617 0 0.00045513882603376348 -0.00043221860982331771 0 0.00051815421038547006 -0.00055507242071317262 0 -0.00041125160010270696 -0.00045847996919390235 0 -0.00031515332484382012 -0.00029623172093419959 0 -0.00029681470170886306 -0.00032315716678928006 0 -0.00040250967490274378 -0.0024308917252204142 0 -0.00035671299094628897 -0.0022629977857933341 0 -0.00032151170512004852 -0.002474815918900516 0 0.00058710250512929055 -0.0021451620802717961 0 0.0004826112678410179 -0.0020618792403846887 0 0.00061414861929255877 -0.0020225110814965793 0 -0.00048924587706303572 -0.00092702928883021073 0 -0.00041112532270231228 -0.00097901029442354413 0 -0.00053956747856691268 -0.0010559024050971727 0 0.00027066088603543365 -0.00061669126446637365 0 0.00026947389979597514 -0.00076679273947946071 0 0.00020393789121756615 -0.00056719578331910255 0 -0.00052716952632134845 -0.0028707823742791538 0 -0.00047179168863449561 -0.003067373665525344 0 -0.00058982677691006926 -0.0030589172448336954 0 -0.00066407821941419799 -0.00081448327075313981 0 -0.00079448682067103781 -0.00095344717783392224 0 -0.00072174906997524049 -0.00078310275643789196 0 0.00084079541628493434 -0.0023637107862778334 0 0.00094590451158477879 -0.0022886982340426295 0 0.00094251035012795595 -0.0024702741527697666 0 0.00019294008048420164 -0.00025686383843589371 0 8.72590750426947e-05 -0.00011459678099988384 0 0.00011659416027127305 -0.00012447467873084577 0 -0.00060090658407642873 -0.0027012894261763359 0 -0.00061409032947208782 -0.0029217421741925538 0 -0.0006807466170460245 -0.0028280898924208132 0 0.00074331752003085948 -0.0024724843670388208 0 0.00086746667412670217 -0.0025031676487007907 0 0.00081444294236581881 -0.0026067052705929976 0 -0.00032151170512004852 -0.002474815918900516 0 -0.00035671299094628897 -0.0022629977857933341 0 -0.00023931193922303989 -0.0023551208043293042 0 0.00061414861929255877 -0.0020225110814965793 0 0.0004826112678410179 -0.0020618792403846887 0 0.00054226403080782795 -0.0018883603979549003 0 -0.00053956747856691268 -0.0010559024050971727 0 -0.00041112532270231228 -0.00097901029442354413 0 -0.00049435674108574935 -0.0011655481436569637 0 0.00020393789121756615 -0.00056719578331910255 0 0.00026947389979597514 -0.00076679273947946071 0 0.00016704799540472878 -0.00066428331306672553 0 0.00016852787435566287 -0.0017857560871574643 0 8.0067745986854542e-05 -0.0018430235674083144 0 6.8929850002925647e-05 -0.0016712486720731204 0 0.0010322036516907231 -0.0019376080314302379 0 0.00092739050780821057 -0.0019411348700001964 0 0.00095108569159535624 -0.0018025411177898913 0 1.1390405325230944e-08 -1.1288159142722795e-07 0 4.6792126706621156e-05 -0.00012809784309569745 0 2.0090415629054281e-05 -8.9058139751214141e-05 0 -0.00022444179360120277 -0.003256252424247116 0 -0.00023633100517310898 -0.0030436861545799954 0 -0.00013534945337164407 -0.0031030643414114117 0 -0.00097154586568593427 -0.0013328346470627493 0 -0.00086768779842193243 -0.001279396182045468 0 -0.00091858534154892475 -0.0014282452233470451 0 -0.00014539244651900324 -0.0029146462175319988 0 -3.0302231066317321e-05 -0.003028023188843371 0 -0.00013534945337164407 -0.0031030643414114117 0 -0.00082257061916729969 -0.0013852788135271707 0 -0.00089808926101883949 -0.0015633363772851083 0 -0.00091858534154892475 -0.0014282452233470451 0 0.00085558479344070956 -0.0017992975705072769 0 0.00090472234678633473 -0.0016476722216291909 0 0.00095108569159535624 -0.0018025411177898913 0 4.4891167429477381e-05 -0.00021292379847141267 0 6.3653135431846993e-06 -0.00013584352185768794 0 2.0090415629054281e-05 -8.9058139751214141e-05 0 0.00016441106609672553 -0.0016397382487520259 0 0.00016852787435566287 -0.0017857560871574643 0 6.8929850002925647e-05 -0.0016712486720731204 0 0.0010399564616702852 -0.0022533906662217519 0 0.0010419458424359594 -0.0024144373126802894 0 0.00094590451158477879 -0.0022886982340426295 0 1.2646722567508618e-08 -1.1850303870988934e-07 0 2.0561232321537901e-08 -1.1101141746999087e-07 0 8.72590750426947e-05 -0.00011459678099988384 0 -0.00044310051663350668 -0.0032533559801106939 0 -0.00054942596705027848 -0.0032512519040543086 0 -0.00047179168863449561 -0.003067373665525344 0 -0.00089220372423998477 -0.0010487855322158055 0 -0.00083521843930021869 -0.00090629536914812179 0 -0.00079448682067103781 -0.00095344717783392235 0 0.00085558479344070956 -0.0017992975705072769 0 0.00076055353539314949 -0.0018849536069618521 0 0.00076252101840584038 -0.0017248452836664116 0 -0.00014539244651900324 -0.0029146462175319988 0 -0.0002161788111254103 -0.0027332484165627905 0 -0.00010584371702942616 -0.002747035489839515 0 4.4891167429477381e-05 -0.00021292379847141267 0 9.6256477488068041e-05 -0.00034827644515253995 0 4.7143473932751536e-05 -0.00033487104002220055 0 -0.00082257061916729969 -0.0013852788135271707 0 -0.00071073864712233124 -0.0012530743090508965 0 -0.0007396368166882949 -0.0014165892346063456 0 0.00085558479344070956 -0.0017992975705072769 0 0.00083874016685414013 -0.0019836807965019966 0 0.00076055353539314949 -0.0018849536069618521 0 4.4891167429477381e-05 -0.00021292379847141267 0 9.5373180155311496e-05 -0.00024653863249657506 0 9.6256477488068054e-05 -0.00034827644515253995 0 -0.00014539244651900324 -0.0029146462175319988 0 -0.00027483886960976176 -0.002872361538707474 0 -0.0002161788111254103 -0.0027332484165627905 0 -0.00082257061916729969 -0.0013852788135271707 0 -0.00077004590798248642 -0.0011919547990012081 0 -0.00071073864712233124 -0.0012530743090508965 0 0.00054226403080782795 -0.0018883603979549003 0 0.0004319992314980896 -0.0019013045217514519 0 0.00044627237536046672 -0.0017619725097218748 0 -0.00023931193922303989 -0.0023551208043293042 0 -0.00025848590305665623 -0.0021744199913644813 0 -0.00016642160718476559 -0.002199276096997522 0 0.00016704799540472878 -0.00066428331306672553 0 0.00019968941943898367 -0.00083167811626084468 0 0.00012556835993703536 -0.00079872728013727216 0 -0.00049435674108574935 -0.0011655481436569637 0 -0.00039273594411269499 -0.0011417983372738986 0 -0.00042471269077074193 -0.0012701085608094905 0 3.3846394468416354e-05 -0.0021839354538137042 0 0.00016085795393299868 -0.0021845093866974113 0 0.00010194378801002778 -0.002362880316809255 0 -0.00043108193148102978 -0.001562924109993587 0 -0.00043514533086786182 -0.0017519564243266897 0 -0.00054217461216976689 -0.0016806490168883065 0 0.0004318887805151651 -0.0014590808433939473 0 0.00040908319440862383 -0.0012702795161300771 0 0.00052292701852191118 -0.0013733992634274367 0 -2.8992312573612436e-05 -0.00079161720282038656 0 -0.0001232023442121476 -0.00081535370201450946 0 -7.0098039356067537e-05 -0.00064988756907645624 0 0.00058228540892648511 -0.00057804358933572463 0 0.00065519261615799883 -0.00063806111816950553 0 0.00071851373933813211 -0.00077551843114867546 0 -0.00020315840861928231 -0.00019587401124660026 0 -9.9016951757902255e-05 -8.9040885537636195e-05 0 -0.00011480244129802765 -0.00012245035091872588 0 0.00069232334821375449 -0.0029521661973197066 0 0.00070929267432635044 -0.0030974510612316402 0 0.00060813248412656137 -0.0030685947940531739 0 -0.00088464324973914251 -0.0026309256908007817 0 -0.00096348204358184255 -0.0026633840963621873 0 -0.00094786778386390068 -0.0025001319319569518 0 0.00089407482463635043 -0.002635019537462628 0 0.00094251035012795595 -0.0024702741527697666 0 0.00097169187182581142 -0.0026399367981783822 0 0.00021129406960991085 -0.00019942791659451875 0 0.00011659416027127305 -0.00012447467873084577 0 9.8275639907208768e-05 -8.8813798836938294e-05 0 -0.00069471471648318672 -0.0029698990518185961 0 -0.00058982677691006926 -0.0030589172448336954 0 -0.0006947671566607498 -0.0031134753734127396 0 -0.00057371673421611818 -0.00056582058543318855 0 -0.00072174906997524049 -0.00078310275643789196 0 -0.00065372980666470024 -0.0006353544111146654 0 0.00022376734094597896 -0.0023533319619263751 0 0.00010194378801002778 -0.002362880316809255 0 0.00016085795393299868 -0.0021845093866974113 0 -0.0005407994300724475 -0.0018651798183329372 0 -0.00054217461216976689 -0.0016806490168883065 0 -0.00043514533086786182 -0.0017519564243266897 0 0.00049638236907729083 -0.0011884944435799681 0 0.00052292701852191118 -0.0013733992634274367 0 0.00040908319440862383 -0.0012702795161300771 0 -0.00015717456965736243 -0.00066640102089698169 0 -7.0098039356067537e-05 -0.00064988756907645624 0 -0.0001232023442121476 -0.00081535370201450946 0 0.00072615958562025963 -0.0023244259805334142 0 0.0006211948094516776 -0.0022709331603434869 0 0.00067961517721099203 -0.0021329281354974523 0 -0.00050862512073773629 -0.0026688909464973949 0 -0.00048073446560880511 -0.0024900058715121285 0 -0.00038864943781322813 -0.0025861927714043789 0 0.00026929134633559221 -0.00042236185413904595 0 0.00031105487969251291 -0.00057522198133129357 0 0.00022108120329667128 -0.00047853333235214088 0 -0.00056912729112965109 -0.00079870133962866706 0 -0.00048893760390835653 -0.00081480261754295112 0 -0.00057896355961091592 -0.00096991510858831891 0 0.00077542318382708985 -0.0022153359051566017 0 0.00072615958562025963 -0.0023244259805334142 0 0.00067961517721099203 -0.0021329281354974523 0 0.00019670885238372234 -0.00034413683664328545 0 0.00026929134633559221 -0.00042236185413904595 0 0.00022108120329667128 -0.00047853333235214088 0 -0.00043522634583022929 -0.0027534312584285166 0 -0.00050862512073773629 -0.0026688909464973949 0 -0.00038864943781322813 -0.0025861927714043789 0 -0.0006494363715276283 -0.00092943510691220125 0 -0.00056912729112965109 -0.00079870133962866706 0 -0.00057896355961091592 -0.00096991510858831891 0 0.00034329878876544279 -0.00200092429693717 0 0.0004319992314980896 -0.0019013045217514519 0 0.0004826112678410179 -0.0020618792403846887 0 -0.00031843945419734093 -0.0020316593098770354 0 -0.00025848590305665623 -0.0021744199913644813 0 -0.00035671299094628897 -0.0022629977857933341 0 0.00027288737735396544 -0.00097295143090402622 0 0.00019968941943898367 -0.00083167811626084468 0 0.00026947389979597514 -0.00076679273947946071 0 -0.00029468107119600399 -0.0010075511551268486 0 -0.00039273594411269499 -0.0011417983372738986 0 -0.00041112532270231228 -0.00097901029442354413 0 0.0003818366856703936 -0.0026201264503346341 0 0.00038046205235071152 -0.0028375538080425292 0 0.00031586844318502488 -0.0027159683384404601 0 0.00045070199168383219 -0.0027101545758653435 0 0.00038046205235071158 -0.0028375538080425292 0 0.0003818366856703936 -0.0026201264503346341 0 -0.00069926306310064373 -0.0021251885064011364 0 -0.00082206802600482754 -0.0021381725381918915 0 -0.00075363387772362292 -0.0020322132710827389 0 -0.00075093523652999556 -0.0022365993581632783 0 -0.00082206802600482754 -0.0021381725381918915 0 -0.00069926306310064373 -0.0021251885064011364 0 0.0005995746084191695 -0.00098561316100757683 0 0.00071672174913675515 -0.0010289710589525697 0 0.00067387485662559704 -0.0011024552157967407 0 0.00061918034943510931 -0.00089723767149772022 0 0.00071672174913675515 -0.0010289710589525699 0 0.0005995746084191695 -0.00098561316100757683 0 -0.00020872804138695645 -0.00045092833337751327 0 -0.00014484829482884083 -0.0002763758928495561 0 -0.00014782305583517521 -0.00036643392606758448 0 -0.00022021067769047718 -0.00038185126760319698 0 -0.00014484829482884083 -0.0002763758928495561 0 -0.00020872804138695645 -0.00045092833337751327 0 -1.8450923829322335e-05 -0.0018032612767307857 0 2.6571951131123907e-05 -0.0019810458327161216 0 -0.0001020572269512351 -0.0019367248629163229 0 0.00010209360288375761 -0.0012152992785574952 0 9.9429795375323095e-06 -0.0011587468626148034 0 9.353455260729612e-05 -0.0010613748374099731 0 -0.00014539244651900324 -0.0029146462175319988 0 -2.8353907779484356e-05 -0.0028715804604974443 0 -3.0302231066317321e-05 -0.003028023188843371 0 -0.00082257061916729969 -0.0013852788135271707 0 -0.00081729049189296487 -0.0015458305773214977 0 -0.00089808926101883949 -0.0015633363772851083 0 0.00085558479344070956 -0.0017992975705072769 0 0.000823203808905732 -0.0016270234448429362 0 0.00090472234678633473 -0.0016476722216291909 0 4.4891167429477381e-05 -0.00021292379847141267 0 1.0034608344151342e-05 -0.00024325028607647284 0 6.3653135431846993e-06 -0.00013584352185768794 0 -1.8450923829322335e-05 -0.0018032612767307857 0 8.0067745986854542e-05 -0.0018430235674083144 0 2.6571951131123907e-05 -0.0019810458327161216 0 0.00014922203434015676 -0.0019709362791999908 0 2.6571951131123907e-05 -0.0019810458327161216 0 8.0067745986854542e-05 -0.0018430235674083144 0 8.6294954443402199e-05 -0.0001583791080656904 0 0.00013637931840605291 -0.00026669513041469207 0 9.5373180155311496e-05 -0.00024653863249657506 0 0.00090839603956941351 -0.0021094089662048923 0 0.0008282564982835238 -0.0021170332760859375 0 0.00083874016685414013 -0.0019836807965019966 0 -0.00035409720840151815 -0.0029991178024060664 0 -0.00036579409975633808 -0.0028497226063425975 0 -0.00027483886960976176 -0.002872361538707474 0 -0.00081075069575152069 -0.0011037408183975357 0 -0.00072811088153705323 -0.0010539219810020944 0 -0.00077004590798248642 -0.0011919547990012081 0 0.00071990744554612743 -0.0026671755788356451 0 0.00064991890864685229 -0.0025539424538434893 0 0.00074331752003085948 -0.0024724843670388208 0 -0.00072019420742712361 -0.0026670901157550813 0 -0.00065469875877761019 -0.0025468665067780723 0 -0.00060090658407642873 -0.0027012894261763359 0 0.00041417728649344632 -0.00046227108357607617 0 0.00042605804780718138 -0.00056338067711322827 0 0.00031260176174083119 -0.00040485916549561139 0 -0.00041125160010270696 -0.00045847996919390235 0 -0.00040697834125361066 -0.00054057674953413048 0 -0.00052782080202745717 -0.00065823047184308261 0 0.00075338359539072375 -0.00203223271987739 0 0.00067961517721099203 -0.0021329281354974523 0 0.00066501560064560793 -0.0019312507848530773 0 -0.0003161227993587604 -0.0027160163607644109 0 -0.00038864943781322813 -0.0025861927714043789 0 -0.00025692034494519025 -0.0025629076842970475 0 0.00014784547618287882 -0.00036730978161191995 0 0.00022108120329667128 -0.00047853333235214088 0 0.00014817895760712939 -0.00048760729926872832 0 -0.00067417661241629364 -0.001101880100633044 0 -0.00057896355961091592 -0.00096991510858831891 0 -0.00060730982183748402 -0.0011657678016626003 0 0.00025362104281116151 -0.0018752754824897361 0 0.00026468650114043008 -0.001686686751424146 0 0.00034782160733246281 -0.0018325035431359135 0 0.00053670266410215176 -0.0029379068759794137 0 0.00061781039039763533 -0.0028653869784142864 0 0.00060813248412656137 -0.0030685947940531739 0 -0.00087738224248068506 -0.0023825742155572675 0 -0.00083671000350851721 -0.0025070444618682467 0 -0.00094786778386390068 -0.0025001319319569518 0 0.00069232334821375449 -0.0029521661973197066 0 0.00060813248412656137 -0.0030685947940531739 0 0.00061781039039763533 -0.0028653869784142864 0 -0.00088464324973914251 -0.0026309256908007817 0 -0.00094786778386390068 -0.0025001319319569518 0 -0.00083671000350851721 -0.0025070444618682467 0 0.00053608773035737352 -0.0025489585479918806 0 0.00064991890864685229 -0.0025539424538434893 0 0.00062541298593638895 -0.0026934030237760476 0 0.00071990744554612743 -0.0026671755788356451 0 0.00062541298593638895 -0.0026934030237760476 0 0.00064991890864685229 -0.0025539424538434893 0 -0.000655791804174306 -0.0023614584380332775 0 -0.00065469875877761019 -0.0025468665067780723 0 -0.00073848047770921237 -0.0025118337400699886 0 -0.00072019420742712361 -0.0026670901157550813 0 -0.00073848047770921237 -0.0025118337400699886 0 -0.00065469875877761019 -0.0025468665067780723 0 0.0004914165979167189 -0.00073675957208264647 0 0.00042605804780718133 -0.00056338067711322827 0 0.00053194390361337781 -0.00065647061461103333 0 0.00041417728649344632 -0.00046227108357607617 0 0.00053194390361337781 -0.00065647061461103333 0 0.00042605804780718133 -0.00056338067711322827 0 -0.00033055287716450034 -0.00052975652734984927 0 -0.00040697834125361066 -0.00054057674953413048 0 -0.00030640068594078347 -0.00039115233142235866 0 -0.00041125160010270696 -0.00045847996919390235 0 -0.00030640068594078347 -0.00039115233142235866 0 -0.00040697834125361066 -0.00054057674953413048 0 0.00085705655694663641 -0.0029127150807351661 0 0.00093131122569165838 -0.0030414609433758628 0 0.00086262574531016352 -0.0031051057630724997 0 0.00033784747729958501 -0.00027418185125592488 0 0.00025065243201020514 -0.00017415293767738055 0 0.00042556275601751637 -0.00034321066818373728 0 0.00033784747729958501 -0.00027418185125592488 0 0.00014431521191809771 -9.6781032180403518e-05 0 0.00025065243201020514 -0.00017415293767738055 0 -0.00086032265516005843 -0.0029072464120355871 0 -0.00093168669482722802 -0.0030413987277443828 0 -0.00096722779318283753 -0.0029219679400313897 0 0.00085705655694663641 -0.0029127150807351661 0 0.00096700953449570031 -0.0029219503688115525 0 0.00093131122569165838 -0.0030414609433758628 0 -0.00034128959290465516 -0.00027838739703193901 0 -0.00025005679210695015 -0.00017360072625796099 0 -0.0001445043730282159 -9.7262793866171346e-05 0 -0.00034128959290465516 -0.00027838739703193901 0 -0.00042493487315561559 -0.00034344121268940395 0 -0.0002500567921069502 -0.00017360072625796096 0 -0.00086032265516005843 -0.0029072464120355871 0 -0.00086301197755058779 -0.0031050954729132658 0 -0.00093168669482722802 -0.0030413987277443828 0 0.00085558479344070956 -0.0017992975705072769 0 0.00092739050780821057 -0.0019411348700001964 0 0.00083874016685414013 -0.0019836807965019966 0 -0.00014539244651900324 -0.0029146462175319988 0 -0.00023633100517310898 -0.0030436861545799954 0 -0.00027483886960976176 -0.002872361538707474 0 4.4891167429477381e-05 -0.00021292379847141267 0 4.6792126706621156e-05 -0.00012809784309569745 0 9.5373180155311496e-05 -0.00024653863249657506 0 -0.00082257061916729969 -0.0013852788135271707 0 -0.00086768779842193243 -0.001279396182045468 0 -0.00077004590798248642 -0.0011919547990012081 0 0.00034329878876544279 -0.00200092429693717 0 0.00032916582775647369 -0.0021887841830058779 0 0.00024721224697111242 -0.0020784424247505397 0 -0.00031843945419734093 -0.0020316593098770354 0 -0.00044016677758208582 -0.0020175292472254902 0 -0.00037690757955132403 -0.0018816657408585657 0 0.00027288737735396544 -0.00097295143090402622 0 0.00037914713909121558 -0.0010107449852539403 0 0.00032990392524107699 -0.0011260827925070869 0 -0.00029468107119600399 -0.0010075511551268486 0 -0.00025779292401430654 -0.00082759569797220638 0 -0.00020332811907388496 -0.00091956215742254013 0 0.0010233186116363237 -0.0017819969000574874 0 0.0010322036516907231 -0.0019376080314302379 0 0.00095108569159535624 -0.0018025411177898913 0 -2.5594433409089245e-10 -1.1809077790648968e-07 0 1.1390405325230944e-08 -1.1288159142722795e-07 0 2.0090415629054281e-05 -8.9058139751214141e-05 0 -0.00011252348272714093 -0.0032564594694454636 0 -0.00022444179360120277 -0.003256252424247116 0 -0.00013534945337164407 -0.0031030643414114117 0 -0.00099407259142711467 -0.0014805621764920885 0 -0.00097154586568593427 -0.0013328346470627493 0 -0.00091858534154892475 -0.0014282452233470451 0 0.00033536074116824493 -0.0002688598439171203 0 0.00042556275601751637 -0.00034321066818373728 0 0.00025065243201020514 -0.00017415293767738055 0 2.6861640418965791e-09 -9.7549331169192745e-08 0 -0.0001445043730282159 -9.7262793866171346e-05 0 -0.0002500567921069502 -0.00017360072625796096 0 -3.2008353161719079e-09 -9.7977601753113829e-08 0 0.00025065243201020514 -0.00017415293767738055 0 0.00014431521191809774 -9.6781032180403545e-05 0 0.0010357096914822342 -0.0030648929755162043 0 0.00093131122569165838 -0.0030414609433758628 0 0.00096700953449570031 -0.0029219503688115525 0 0.00094139242452435554 -0.0032333205778979318 0 0.00086262574531016352 -0.0031051057630725001 0 0.00093131122569165838 -0.0030414609433758628 0 -0.0010360742687689443 -0.0030649297323910004 0 -0.00096722779318283753 -0.0029219679400313897 0 -0.00093168669482722802 -0.0030413987277443828 0 -0.00033500869535421272 -0.00026905264948196895 0 -0.0002500567921069502 -0.00017360072625796096 0 -0.00042493487315561559 -0.00034344121268940395 0 -0.00094176827055196272 -0.0032333017109710954 0 -0.00093168669482722802 -0.0030413987277443828 0 -0.00086301197755058779 -0.0031050954729132658 0 0.00011243564341537847 -0.0032567049351947095 0 0.00011962519474802375 -0.0030743334207075676 0 0.00020957873419974273 -0.0031118400062711952 0 -0.0010247399187703816 -0.0017818072893697641 0 -0.00093552070089667296 -0.0017782012519476527 0 -0.00096085496872384021 -0.0019082906320619548 0 0.0009953736262011128 -0.0014801754433462098 0 0.00090629201674709552 -0.0014460533434596107 0 0.00090715555953298861 -0.0013275485739508148 0 -4.1723947385698249e-09 -1.1320744328276064e-07 0 -1.9731948151809149e-05 -0.00010974308676077524 0 -2.9371560508943093e-05 -8.4197432751994254e-05 0 0.00041417728649344632 -0.00046227108357607617 0 0.00031260176174083119 -0.00040485916549561139 0 0.00029577079927269148 -0.00032111357480569614 0 -0.00041125160010270696 -0.00045847996919390235 0 -0.00052782080202745717 -0.00065823047184308261 0 -0.00051913301491893042 -0.00055530825442500506 0 0.00053608773035737352 -0.0025489585479918806 0 0.00053749216507194351 -0.0027785493496236195 0 0.00045070199168383219 -0.0027101545758653435 0 -0.000655791804174306 -0.0023614584380332775 0 -0.0007890544797454533 -0.0023757843418725495 0 -0.00075093523652999556 -0.0022365993581632783 0 0.0004914165979167189 -0.00073675957208264647 0 0.00059873391329476225 -0.00078584659180160532 0 0.00061918034943510931 -0.00089723767149772022 0 -0.00033055287716450034 -0.00052975652734984927 0 -0.00024845718314671735 -0.0003587351710455132 0 -0.00022021067769047718 -0.00038185126760319698 0 7.7844604250071618e-05 -0.0028534194275454693 0 -2.8353907779484356e-05 -0.0028715804604974443 0 -5.3413338026903128e-06 -0.0026917741293852435 0 -0.00081823390693933626 -0.001696254169108385 0 -0.00081729049189296487 -0.0015458305773214977 0 -0.00072254879142488509 -0.001556086942144885 0 0.00080065393087319148 -0.0014722388426846198 0 0.000823203808905732 -0.0016270234448429362 0 0.00072343695061106354 -0.0015715400340005035 0 -2.8460074161766258e-05 -0.000256731652395844 0 1.0034608344151342e-05 -0.00024325028607647284 0 3.0940104126750065e-06 -0.00037639976908507685 0 -0.00066407821941419799 -0.00081448327075313981 0 -0.0007324968075437438 -0.00096952536710128139 0 -0.00079448682067103781 -0.00095344717783392235 0 -0.00052716952632134845 -0.0028707823742791538 0 -0.00043118982838015045 -0.0029079310235151372 0 -0.00047179168863449561 -0.003067373665525344 0 0.00019294008048420164 -0.00025686383843589371 0 0.00014261947380535348 -0.00022587738445929074 0 8.72590750426947e-05 -0.00011459678099988384 0 0.00084079541628493434 -0.0023637107862778334 0 0.00086069197783284477 -0.0022193362944291292 0 0.00094590451158477879 -0.0022886982340426295 0 0.0006211948094516776 -0.0022709331603434869 0 0.00058710250512929055 -0.0021451620802717961 0 0.00067961517721099203 -0.0021329281354974523 0 -0.00048073446560880511 -0.0024900058715121285 0 -0.00040250967490274378 -0.0024308917252204142 0 -0.00038864943781322813 -0.0025861927714043789 0 0.00031105487969251291 -0.00057522198133129357 0 0.00027066088603543365 -0.00061669126446637365 0 0.00022108120329667128 -0.00047853333235214088 0 -0.00048893760390835643 -0.00081480261754295112 0 -0.00048924587706303572 -0.00092702928883021073 0 -0.00057896355961091592 -0.00096991510858831891 0 0.00071990744554612743 -0.0026671755788356451 0 0.00074331752003085948 -0.0024724843670388208 0 0.00081444294236581881 -0.0026067052705929976 0 -0.00072019420742712361 -0.0026670901157550813 0 -0.00060090658407642873 -0.0027012894261763359 0 -0.0006807466170460245 -0.0028280898924208132 0 0.00036764213173629668 -0.0016998005071839095 0 0.00031605344099297126 -0.0015108471923066568 0 0.0004348210908565798 -0.0016123026671655014 0 0.0004318887805151651 -0.0014590808433939473 0 0.0004348210908565798 -0.0016123026671655014 0 0.00031605344099297126 -0.0015108471923066568 0 0.0006211948094516776 -0.0022709331603434869 0 0.00053651390158181394 -0.0022419045665610492 0 0.00058710250512929055 -0.0021451620802717961 0 -0.00048073446560880511 -0.0024900058715121285 0 -0.00046704021072383492 -0.0023502709003725615 0 -0.00040250967490274378 -0.0024308917252204142 0 0.00031105487969251291 -0.00057522198133129357 0 0.00033781933984479228 -0.00070056193862065314 0 0.00027066088603543365 -0.00061669126446637365 0 -0.00048893760390835643 -0.00081480261754295112 0 -0.00042179038544933544 -0.00081854908999661586 0 -0.00048924587706303572 -0.00092702928883021073 0 0.00085705655694663641 -0.0029127150807351661 0 0.00086262574531016352 -0.0031051057630724997 0 0.00078934658269842522 -0.0030665032972179707 0 -0.00086032265516005843 -0.0029072464120355871 0 -0.00096722779318283753 -0.0029219679400313897 0 -0.00094627044599419809 -0.0027954614490925569 0 0.00033784747729958501 -0.00027418185125592488 0 0.00042556275601751637 -0.00034321066818373728 0 0.0005187150829489306 -0.0004625285149770595 0 0.00085705655694663641 -0.0029127150807351661 0 0.00093450028312089045 -0.0027782090386136668 0 0.00096700953449570031 -0.0029219503688115525 0 0.00033784747729958501 -0.00027418185125592488 0 0.00016367806052535505 -0.00013606026352820134 0 0.00014431521191809774 -9.6781032180403545e-05 0 -0.00034128959290465516 -0.00027838739703193901 0 -0.0001445043730282159 -9.7262793866171346e-05 0 -0.00017438977880945323 -0.00014569696206672274 0 -0.00086032265516005843 -0.0029072464120355871 0 -0.00077979097047826799 -0.0030446968142109733 0 -0.00086301197755058779 -0.0031050954729132658 0 -0.00034128959290465516 -0.00027838739703193901 0 -0.00051366544825714848 -0.00045483093420335533 0 -0.00042493487315561559 -0.00034344121268940395 0 0.00010209360288375761 -0.0012152992785574952 0 9.353455260729612e-05 -0.0010613748374099731 0 0.00020415635647156043 -0.0011109629081519133 0 -2.5888950661531194e-06 -0.0010345964845290048 0 9.353455260729612e-05 -0.0010613748374099731 0 9.9429795375323112e-06 -0.0011587468626148034 0 0.00036764213173629668 -0.0016998005071839095 0 0.00034782160733246281 -0.0018325035431359135 0 0.00026468650114043008 -0.001686686751424146 0 -1.0431608627481674e-07 -0.0024800518082503543 0 -5.3413338026903128e-06 -0.0026917741293852435 0 -7.7914759810771388e-05 -0.0025779888483127467 0 -0.00060285411783708015 -0.0015391787360153222 0 -0.00072254879142488509 -0.001556086942144885 0 -0.00064973528034444701 -0.001435107464938186 0 0.00060257095605645902 -0.0015392228482763364 0 0.00072343695061106354 -0.0015715400340005035 0 0.00066572889896528598 -0.0016656197565820471 0 -1.2974066672630664e-07 -0.0005486215916307444 0 3.0940104126750065e-06 -0.00037639976908507685 0 4.3604846892664474e-05 -0.00046698665622717597 0 0.00045070199168383219 -0.0027101545758653435 0 0.00053749216507194351 -0.0027785493496236195 0 0.00045725511727555862 -0.0029098682594072985 0 -0.00075093523652999556 -0.0022365993581632783 0 -0.0007890544797454533 -0.0023757843418725495 0 -0.00086234438881771221 -0.0022591271523035566 0 0.00061918034943510931 -0.00089723767149772022 0 0.00059873391329476225 -0.00078584659180160532 0 0.00071719841918335236 -0.00092772310593578411 0 -0.00022021067769047718 -0.00038185126760319698 0 -0.00024845718314671735 -0.00035873517104551326 0 -0.000152731610395421 -0.00023075813102131268 0 0.00054226403080782795 -0.0018883603979549003 0 0.0004826112678410179 -0.0020618792403846887 0 0.0004319992314980896 -0.0019013045217514519 0 -0.00023931193922303989 -0.0023551208043293042 0 -0.00035671299094628897 -0.0022629977857933341 0 -0.00025848590305665623 -0.0021744199913644813 0 0.00016704799540472878 -0.00066428331306672553 0 0.00026947389979597509 -0.00076679273947946071 0 0.00019968941943898367 -0.00083167811626084468 0 -0.00049435674108574935 -0.0011655481436569637 0 -0.00041112532270231228 -0.00097901029442354413 0 -0.00039273594411269499 -0.0011417983372738986 0 0.00084079541628493434 -0.0023637107862778334 0 0.00074331752003085948 -0.0024724843670388208 0 0.00072615958562025963 -0.0023244259805334142 0 0.00019294008048420164 -0.00025686383843589371 0 0.00031260176174083119 -0.00040485916549561139 0 0.00026929134633559221 -0.00042236185413904595 0 -0.00052716952632134845 -0.0028707823742791538 0 -0.00060090658407642873 -0.0027012894261763355 0 -0.00050862512073773629 -0.0026688909464973949 0 -0.00066407821941419799 -0.00081448327075313981 0 -0.00052782080202745717 -0.00065823047184308261 0 -0.00056912729112965109 -0.00079870133962866706 0 0.00025362104281116151 -0.0018752754824897361 0 0.00016852787435566287 -0.0017857560871574643 0 0.00026468650114043008 -0.001686686751424146 0 -0.00014399614048749799 -0.0016687068487579915 0 -0.000222436034086908 -0.0016125037006643739 0 -0.00010409190998440748 -0.001537460702793327 0 -0.00019617220765405554 -0.0014568332566076065 0 -0.00010409190998440748 -0.001537460702793327 0 -0.000222436034086908 -0.0016125037006643739 0 -0.00012906490326022288 -0.0020761920552538993 0 -0.00021463794687148091 -0.0020428821077476821 0 -0.0001020572269512351 -0.0019367248629163229 0 -0.00021173147516277165 -0.0018992220598465595 0 -0.0001020572269512351 -0.0019367248629163229 0 -0.00021463794687148091 -0.0020428821077476821 0 0.00066728711515979242 -0.00080160170293324068 0 0.00053194390361337781 -0.00065647061461103333 0 0.00060620189461949687 -0.00066949787035045817 0 -0.00018725142117104657 -0.00024269064022724944 0 -0.00030640068594078347 -0.00039115233142235866 0 -0.00022250403585302771 -0.00025285873933677806 0 -0.00019617220765405554 -0.0014568332566076065 0 -0.00031135244220781055 -0.0015366946315024149 0 -0.00026308564999929216 -0.0013478153120978734 0 0.00054921420990779949 -0.0032512503647747441 0 0.00048356850363416814 -0.0030845470200791718 0 0.00060813248412656137 -0.0030685947940531739 0 -0.0010421075105027384 -0.0024143652720494632 0 -0.00095540331408264093 -0.002308124753102948 0 -0.00094786778386390068 -0.0025001319319569518 0 0.00083451495535931093 -0.0009063418067728708 0 0.00079361440498049835 -0.00094106076695387982 0 0.00071851373933813211 -0.00077551843114867546 0 -1.9185212972687612e-08 -1.1232318094805729e-07 0 -8.3936982749002013e-05 -0.0001081743579856913 0 -0.00011480244129802765 -0.00012245035091872588 0 0.00085558479344070956 -0.0017992975705072769 0 0.00095108569159535624 -0.0018025411177898913 0 0.00092739050780821057 -0.0019411348700001964 0 4.4891167429477381e-05 -0.00021292379847141267 0 2.0090415629054281e-05 -8.9058139751214128e-05 0 4.6792126706621156e-05 -0.00012809784309569745 0 -0.00014539244651900324 -0.0029146462175319988 0 -0.00013534945337164407 -0.0031030643414114117 0 -0.00023633100517310898 -0.0030436861545799954 0 -0.00082257061916729969 -0.0013852788135271707 0 -0.00091858534154892475 -0.0014282452233470451 0 -0.00086768779842193243 -0.001279396182045468 0 -0.00021173147516277165 -0.0018992220598465595 0 -0.00021436311121302628 -0.0017595882478782729 0 -0.00011223353195407428 -0.0017841319084018184 0 -0.00012991415777004932 -0.0010010348073883439 0 -0.0001232023442121476 -0.00081535370201450946 0 -5.1827498303070963e-05 -0.00093423284351348769 0 -2.8992312573612436e-05 -0.00079161720282038656 0 -5.1827498303070963e-05 -0.00093423284351348769 0 -0.0001232023442121476 -0.00081535370201450946 0 0.00033450191967582639 -0.0032549918464175333 0 0.00022417338620462629 -0.0032561781735123032 0 0.00030847244531455456 -0.00310079121947265 0 -0.0010376064632637281 -0.0020950069551818021 0 -0.001032373558502658 -0.0019373834673073072 0 -0.00095996092806208697 -0.0020492421153061407 0 0.0009378881296511686 -0.0011876763773148581 0 0.00097080973563191139 -0.0013324734963063392 0 0.00087590426183099552 -0.0011903767420721879 0 -1.7636974126354541e-08 -1.1419456720676957e-07 0 -7.9220841397912372e-09 -1.154317633975779e-07 0 -4.5790986572084227e-05 -9.0317731785110477e-05 0 0.00053608773035737352 -0.0025489585479918806 0 0.00055641187324790523 -0.0023637444349569135 0 0.00063491828734680308 -0.0024175006096499576 0 -0.000655791804174306 -0.0023614584380332775 0 -0.00054189058727596316 -0.0023864528293392746 0 -0.00057206568239924016 -0.0025167887818531949 0 0.0004914165979167189 -0.00073675957208264647 0 0.00038815607105950541 -0.00068199122036988462 0 0.00036798122434824373 -0.00056235393886514386 0 -0.00033055287716450034 -0.00052975652734984927 0 -0.00040668097178157885 -0.00070796225526003633 0 -0.00045604900419787608 -0.00067259928418241703 0 0.00033536074116824493 -0.0002688598439171203 0 0.00025065243201020514 -0.00017415293767738055 0 0.00015367582197379573 -0.00011050358968541825 0 2.6861640418965791e-09 -9.7549331169192745e-08 0 -0.0002500567921069502 -0.00017360072625796096 0 -0.00015329137809104974 -0.00011034824275188631 0 -3.2008353161719079e-09 -9.7977601753113829e-08 0 0.00015367582197379573 -0.00011050358968541825 0 0.00025065243201020514 -0.00017415293767738055 0 -0.00033500869535421272 -0.00026905264948196895 0 -0.00015329137809104974 -0.00011034824275188631 0 -0.0002500567921069502 -0.00017360072625796096 0 0.0010357096914822342 -0.0030648929755162043 0 0.00097659019730690871 -0.0031251150983525517 0 0.00093131122569165838 -0.0030414609433758628 0 0.00094139242452435554 -0.0032333205778979318 0 0.00093131122569165838 -0.0030414609433758628 0 0.00097659019730690871 -0.0031251150983525517 0 -0.00094176827055196272 -0.0032333017109710954 0 -0.00098026605105870222 -0.0031312283784005251 0 -0.00093168669482722802 -0.0030413987277443828 0 -0.0010360742687689443 -0.0030649297323910004 0 -0.00093168669482722802 -0.0030413987277443828 0 -0.00098026605105870222 -0.0031312283784005251 0 0.00085705655694663641 -0.0029127150807351661 0 0.00083835024659790526 -0.0027501089610913396 0 0.00093450028312089045 -0.0027782090386136672 0 -0.00086032265516005843 -0.0029072464120355871 0 -0.0007658775832433194 -0.0028721980550130547 0 -0.00077979097047826799 -0.0030446968142109733 0 0.00089407482463635043 -0.002635019537462628 0 0.00093450028312089045 -0.0027782090386136672 0 0.00083835024659790526 -0.0027501089610913396 0 0.00058228540892648511 -0.00057804358933572463 0 0.00045513882603376348 -0.00043221860982331771 0 0.0005187150829489306 -0.0004625285149770595 0 -0.00069471471648318672 -0.0029698990518185961 0 -0.00077979097047826799 -0.0030446968142109733 0 -0.0007658775832433194 -0.0028721980550130547 0 -0.00020315840861928231 -0.00019587401124660026 0 -0.00031515332484382012 -0.00029623172093419959 0 -0.00017438977880945323 -0.00014569696206672274 0 0.00033784747729958501 -0.00027418185125592488 0 0.0005187150829489306 -0.0004625285149770595 0 0.00045513882603376348 -0.00043221860982331771 0 -0.00034128959290465516 -0.00027838739703193901 0 -0.00017438977880945323 -0.00014569696206672274 0 -0.00031515332484382012 -0.00029623172093419959 0 0.00016441106609672553 -0.0016397382487520259 0 0.00026468650114043008 -0.001686686751424146 0 0.00016852787435566287 -0.0017857560871574643 0 0.00020415635647156043 -0.0011109629081519133 0 9.353455260729612e-05 -0.0010613748374099731 0 0.00018266012374531276 -0.00095824629568131174 0 -0.00025692034494519025 -0.0025629076842970475 0 -0.00038864943781322813 -0.0025861927714043789 0 -0.00032151170512004852 -0.002474815918900516 0 0.00066501560064560793 -0.0019312507848530773 0 0.00067961517721099203 -0.0021329281354974519 0 0.00061414861929255877 -0.0020225110814965793 0 -0.00060730982183748402 -0.0011657678016626003 0 -0.00057896355961091592 -0.00096991510858831891 0 -0.00053956747856691268 -0.0010559024050971727 0 0.00014817895760712939 -0.00048760729926872832 0 0.00022108120329667128 -0.00047853333235214088 0 0.00020393789121756615 -0.00056719578331910255 0 -0.00021920739070660188 -0.0012092333230913359 0 -0.00026308564999929216 -0.0013478153120978734 0 -0.00029689423068103603 -0.001161855687914931 0 -0.00035023466030698649 -0.0012987193098500968 0 -0.00029689423068103603 -0.001161855687914931 0 -0.00026308564999929216 -0.0013478153120978734 0 -0.00021173147516277165 -0.0018992220598465595 0 -0.00021463794687148091 -0.0020428821077476816 0 -0.00031843945419734093 -0.0020316593098770354 0 7.7844604250071618e-05 -0.0028534194275454693 0 -5.3413338026903128e-06 -0.0026917741293852435 0 9.2019861365851124e-05 -0.0027038813088569595 0 -0.00081823390693933626 -0.001696254169108385 0 -0.00072254879142488509 -0.001556086942144885 0 -0.00073733512766063823 -0.0017000935993793402 0 0.00080065393087319148 -0.0014722388426846198 0 0.00072343695061106354 -0.0015715400340005038 0 0.00071718747701618772 -0.0014307842372758995 0 -2.8460074161766258e-05 -0.000256731652395844 0 3.0940104126750167e-06 -0.00037639976908507685 0 -4.2346368479224805e-05 -0.00036971911658447294 0 -0.00029080577777993778 -0.0018669660634788971 0 -0.00021173147516277165 -0.0018992220598465595 0 -0.00031843945419734093 -0.0020316593098770354 0 0.00034329878876544279 -0.00200092429693717 0 0.0004826112678410179 -0.0020618792403846887 0 0.00039932935242493794 -0.0021316861180234259 0 -0.00031843945419734093 -0.0020316593098770354 0 -0.00035671299094628897 -0.0022629977857933341 0 -0.0004005678490560568 -0.0021251818873827496 0 0.00027288737735396544 -0.00097295143090402622 0 0.00026947389979597514 -0.00076679273947946071 0 0.00032878031548921324 -0.00089908874301985965 0 -0.00029468107119600399 -0.0010075511551268486 0 -0.00041112532270231228 -0.00097901029442354413 0 -0.00032536140345726801 -0.00089299070872448261 0 0.00053608773035737352 -0.0025489585479918806 0 0.00045070199168383219 -0.0027101545758653435 0 0.00044741430615139973 -0.0025488761411231659 0 -0.000655791804174306 -0.0023614584380332775 0 -0.00075093523652999556 -0.0022365993581632783 0 -0.00065678171256011134 -0.0022222739738970878 0 0.0004914165979167189 -0.00073675957208264647 0 0.00061918034943510931 -0.00089723767149772022 0 0.00053495542158802604 -0.00087367659748608913 0 -0.00033055287716450034 -0.00052975652734984927 0 -0.00022021067769047718 -0.00038185126760319698 0 -0.00027085671015212117 -0.00051999527548876395 0 -0.00012991415777004932 -0.0010010348073883439 0 -0.00014463784417201094 -0.0011599155699812734 0 -0.00021490823268344766 -0.0010770381206913556 0 0.00053608773035737352 -0.0025489585479918806 0 0.00062541298593638895 -0.0026934030237760476 0 0.00053749216507194351 -0.0027785493496236195 0 -0.000655791804174306 -0.0023614584380332775 0 -0.00073848047770921237 -0.0025118337400699886 0 -0.0007890544797454533 -0.0023757843418725495 0 0.0004914165979167189 -0.00073675957208264647 0 0.00053194390361337781 -0.00065647061461103333 0 0.00059873391329476225 -0.00078584659180160532 0 -0.00033055287716450034 -0.00052975652734984927 0 -0.00030640068594078347 -0.00039115233142235866 0 -0.00024845718314671735 -0.00035873517104551326 0 0.00014922203434015676 -0.0019709362791999908 0 0.00016852787435566287 -0.0017857560871574643 0 0.00025362104281116151 -0.0018752754824897361 0 0.00075338359539072375 -0.00203223271987739 0 0.00077542318382708985 -0.0022153359051566017 0 0.00067961517721099203 -0.0021329281354974523 0 0.00014784547618287882 -0.00036730978161191995 0 0.00019670885238372234 -0.00034413683664328545 0 0.00022108120329667128 -0.00047853333235214088 0 -0.0003161227993587604 -0.0027160163607644109 0 -0.00043522634583022929 -0.0027534312584285166 0 -0.00038864943781322813 -0.0025861927714043789 0 -0.00067417661241629364 -0.001101880100633044 0 -0.0006494363715276283 -0.00092943510691220125 0 -0.00057896355961091592 -0.00096991510858831891 0 -0.000655791804174306 -0.0023614584380332775 0 -0.00057206568239924016 -0.0025167887818531949 0 -0.00065469875877761019 -0.0025468665067780723 0 0.00053608773035737352 -0.0025489585479918806 0 0.00063491828734680308 -0.0024175006096499576 0 0.00064991890864685229 -0.0025539424538434893 0 -0.00033055287716450034 -0.00052975652734984927 0 -0.00045604900419787603 -0.00067259928418241703 0 -0.00040697834125361066 -0.00054057674953413048 0 0.0004914165979167189 -0.00073675957208264647 0 0.00036798122434824373 -0.00056235393886514386 0 0.00042605804780718133 -0.00056338067711322827 0 2.6571951131123907e-05 -0.0019810458327161216 0 -4.9914640588378414e-05 -0.0020683317825933496 0 -0.0001020572269512351 -0.0019367248629163229 0 0.00010209360288375761 -0.0012152992785574952 0 0.00020415635647156043 -0.0011109629081519133 0 0.00019660595586877064 -0.0012785506328176612 0 0.00029361237152351151 -0.0012634752592995625 0 0.00019660595586877064 -0.0012785506328176612 0 0.00020415635647156043 -0.0011109629081519133 0 0.00045575354352704573 -0.0022228538642669288 0 0.0004826112678410179 -0.0020618792403846887 0 0.00053651390158181394 -0.0022419045665610497 0 -0.00045834191707298609 -0.0022192235947937154 0 -0.00035671299094628897 -0.0022629977857933341 0 -0.00046704021072383492 -0.0023502709003725615 0 0.00058710250512929055 -0.0021451620802717961 0 0.00053651390158181394 -0.0022419045665610497 0 0.0004826112678410179 -0.0020618792403846887 0 -0.00040250967490274378 -0.0024308917252204142 0 -0.00046704021072383492 -0.0023502709003725615 0 -0.00035671299094628897 -0.0022629977857933341 0 0.00036004715186104848 -0.00082135588103339821 0 0.00026947389979597514 -0.00076679273947946071 0 0.00033781933984479228 -0.00070056193862065314 0 -0.00035671110174060862 -0.00081776381329451864 0 -0.00041112532270231228 -0.00097901029442354413 0 -0.00042179038544933544 -0.00081854908999661586 0 0.00027066088603543365 -0.00061669126446637365 0 0.00033781933984479228 -0.00070056193862065314 0 0.00026947389979597514 -0.00076679273947946071 0 -0.00048924587706303572 -0.00092702928883021073 0 -0.00042179038544933544 -0.00081854908999661586 0 -0.00041112532270231228 -0.00097901029442354413 0 0.00053670266410215176 -0.0029379068759794137 0 0.00045725511727555862 -0.0029098682594072985 0 0.00053749216507194351 -0.0027785493496236195 0 -0.00087738224248068506 -0.0023825742155572675 0 -0.00086234438881771221 -0.0022591271523035566 0 -0.0007890544797454533 -0.0023757843418725495 0 0.00066728711515979242 -0.00080160170293324068 0 0.00071719841918335236 -0.00092772310593578411 0 0.00059873391329476225 -0.00078584659180160532 0 -0.00018725142117104657 -0.00024269064022724944 0 -0.000152731610395421 -0.00023075813102131268 0 -0.00024845718314671735 -0.00035873517104551326 0 0.00022376734094597896 -0.0023533319619263751 0 0.00032239765931406074 -0.0023545856392230002 0 0.00027037597109583406 -0.0025363106664022168 0 0.00038034244035246005 -0.0024780393467478861 0 0.00027037597109583406 -0.0025363106664022168 0 0.00032239765931406074 -0.0023545856392230002 0 -0.0005407994300724475 -0.0018651798183329372 0 -0.00054227501728851442 -0.0020163267823695525 0 -0.00065029790318778887 -0.0019496464206469539 0 -0.00061593219225619721 -0.0021138686626945911 0 -0.00065029790318778887 -0.0019496464206469539 0 -0.00054227501728851442 -0.0020163267823695525 0 0.00049638236907729083 -0.0011884944435799681 0 0.00047308579376450718 -0.0010386563641221302 0 0.00058894388354453775 -0.0011413395660186487 0 0.00052285730181971467 -0.00096661369770555778 0 0.00058894388354453775 -0.0011413395660186487 0 0.00047308579376450718 -0.0010386563641221302 0 -0.00015717456965736243 -0.00066640102089698169 0 -0.00022713755515088428 -0.00067458041791240394 0 -0.00016112939105999657 -0.00051003322819725191 0 -0.00024460271791092002 -0.00057210946238255413 0 -0.00016112939105999657 -0.00051003322819725191 0 -0.00022713755515088428 -0.00067458041791240394 0 0.00090839603956941351 -0.0021094089662048923 0 0.00092739050780821057 -0.0019411348700001964 0 0.00097848432879184201 -0.00204685314507727 0 8.6294954443402199e-05 -0.0001583791080656904 0 4.6792126706621156e-05 -0.00012809784309569745 0 3.4410213417236727e-05 -6.7361366115626078e-05 0 -0.00035409720840151815 -0.0029991178024060664 0 -0.00023633100517310898 -0.0030436861545799954 0 -0.00030585127175543765 -0.0031385617427617829 0 -0.00081075069575152069 -0.0011037408183975357 0 -0.00086768779842193243 -0.001279396182045468 0 -0.00089434228096558165 -0.0012020827035340471 0 0.00034329878876544279 -0.00200092429693717 0 0.00039932935242493794 -0.0021316861180234259 0 0.00032916582775647369 -0.0021887841830058779 0 -0.00031843945419734093 -0.0020316593098770354 0 -0.0004005678490560568 -0.0021251818873827496 0 -0.00044016677758208582 -0.0020175292472254902 0 0.00027288737735396544 -0.00097295143090402622 0 0.00032878031548921324 -0.00089908874301985965 0 0.00037914713909121558 -0.0010107449852539403 0 -0.00029468107119600399 -0.0010075511551268486 0 -0.00032536140345726801 -0.00089299070872448261 0 -0.00025779292401430654 -0.00082759569797220638 0 0.00053608773035737352 -0.0025489585479918806 0 0.00047588267708578816 -0.0023869989273894833 0 0.00055641187324790523 -0.0023637444349569135 0 -0.000655791804174306 -0.0023614584380332775 0 -0.00055951324870396062 -0.0022578900371561508 0 -0.00054189058727596316 -0.0023864528293392746 0 0.0004914165979167189 -0.00073675957208264647 0 0.00043728944770825436 -0.00080811553180693799 0 0.00038815607105950541 -0.00068199122036988473 0 -0.00033055287716450034 -0.00052975652734984927 0 -0.00033523602681110958 -0.00066700023036246701 0 -0.00040668097178157885 -0.00070796225526003633 0 -0.00014399614048749799 -0.0016687068487579915 0 -0.00011223353195407429 -0.0017841319084018184 0 -0.00021436311121302628 -0.0017595882478782729 0 -7.9220841397912372e-09 -1.154317633975779e-07 0 -4.1723947385698249e-09 -1.1320744328276064e-07 0 -2.9371560508943093e-05 -8.4197432751994254e-05 0 0.00097080973563191139 -0.0013324734963063392 0 0.0009953736262011128 -0.0014801754433462098 0 0.00090715555953298861 -0.0013275485739508148 0 -0.001032373558502658 -0.0019373834673073072 0 -0.0010247399187703816 -0.0017818072893697641 0 -0.00096085496872384021 -0.0019082906320619548 0 0.00022417338620462629 -0.0032561781735123032 0 0.00011243564341537847 -0.0032567049351947095 0 0.00020957873419974273 -0.0031118400062711952 0 0.00033536074116824493 -0.0002688598439171203 0 0.00051519895514928206 -0.00045401945371257327 0 0.00042556275601751637 -0.00034321066818373728 0 2.6861640418965791e-09 -9.7549331169192745e-08 0 -5.8186982015529758e-08 -1.404214653888502e-07 0 -0.0001445043730282159 -9.7262793866171346e-05 0 0.00094139242452435554 -0.0032333205778979318 0 0.00084769231543262212 -0.0032389759443412687 0 0.00086262574531016352 -0.0031051057630724997 0 -0.0010360742687689443 -0.0030649297323910004 0 -0.0010384173096674788 -0.0029019265991920757 0 -0.00096722779318283753 -0.0029219679400313897 0 0.0010381765823641194 -0.0029019264823607976 0 0.0010357096914822342 -0.0030648929755162043 0 0.00096700953449570031 -0.0029219503688115525 0 5.8194314715790419e-08 -1.3908308052990667e-07 0 -3.2008353161719079e-09 -9.7977601753113829e-08 0 0.00014431521191809774 -9.6781032180403545e-05 0 -0.00084802899223328666 -0.003238989429110866 0 -0.00094176827055196272 -0.0032333017109710954 0 -0.00086301197755058779 -0.0031050954729132658 0 -0.00051463263399478278 -0.00045435244720821115 0 -0.00033500869535421272 -0.00026905264948196895 0 -0.00042493487315561559 -0.00034344121268940395 0 0.00084079541628493434 -0.0023637107862778334 0 0.00072615958562025963 -0.0023244259805334142 0 0.00077542318382708985 -0.0022153359051566017 0 0.00019294008048420164 -0.00025686383843589371 0 0.00026929134633559221 -0.00042236185413904595 0 0.00019670885238372234 -0.00034413683664328545 0 -0.00052716952632134845 -0.0028707823742791538 0 -0.00050862512073773629 -0.0026688909464973949 0 -0.00043522634583022929 -0.0027534312584285166 0 -0.00066407821941419799 -0.00081448327075313981 0 -0.00056912729112965109 -0.00079870133962866706 0 -0.0006494363715276283 -0.00092943510691220125 0 3.3846394468416354e-05 -0.0021839354538137042 0 0.00010194378801002778 -0.002362880316809255 0 -2.1388033093802386e-05 -0.0023281442351469933 0 -0.00043108193148102978 -0.001562924109993587 0 -0.00054217461216976689 -0.0016806490168883065 0 -0.00051208379225709964 -0.0014918098399717495 0 0.0004318887805151651 -0.0014590808433939473 0 0.00052292701852191118 -0.0013733992634274367 0 0.00051653552481203404 -0.0015478882758556797 0 -2.8992312573612436e-05 -0.00079161720282038656 0 -7.0098039356067537e-05 -0.00064988756907645624 0 1.1495644177386212e-05 -0.00067671854153917286 0 0.00036764213173629668 -0.0016998005071839095 0 0.00026468650114043008 -0.001686686751424146 0 0.00031605344099297126 -0.0015108471923066568 0 0.00010957646941154747 -0.00091331876215836744 0 0.00018266012374531276 -0.00095824629568131174 0 9.353455260729612e-05 -0.0010613748374099731 0 -0.00019617220765405554 -0.0014568332566076065 0 -0.0001627796370791006 -0.0013038394702321566 0 -8.3293132962271242e-05 -0.0013905773073154732 0 0.00031586844318502488 -0.0027159683384404601 0 0.00027037597109583412 -0.0025363106664022168 0 0.0003818366856703936 -0.0026201264503346341 0 -0.00075363387772362292 -0.0020322132710827389 0 -0.00065029790318778876 -0.0019496464206469539 0 -0.00069926306310064373 -0.0021251885064011364 0 0.00067387485662559704 -0.0011024552157967407 0 0.00058894388354453775 -0.0011413395660186487 0 0.0005995746084191695 -0.00098561316100757683 0 -0.00014782305583517521 -0.00036643392606758448 0 -0.00016112939105999654 -0.00051003322819725191 0 -0.00020872804138695645 -0.00045092833337751327 0 0.00022417338620462629 -0.0032561781735123032 0 0.00020957873419974273 -0.0031118400062711952 0 0.00030847244531455456 -0.00310079121947265 0 -0.001032373558502658 -0.0019373834673073072 0 -0.00096085496872384021 -0.0019082906320619548 0 -0.00095996092806208697 -0.0020492421153061407 0 0.00097080973563191139 -0.0013324734963063392 0 0.00090715555953298861 -0.0013275485739508148 0 0.00087590426183099552 -0.0011903767420721879 0 -7.9220841397912372e-09 -1.154317633975779e-07 0 -2.9371560508943093e-05 -8.4197432751994254e-05 0 -4.5790986572084227e-05 -9.0317731785110477e-05 0 0.00034329878876544279 -0.00200092429693717 0 0.00025362104281116151 -0.0018752754824897361 0 0.00034782160733246281 -0.0018325035431359135 0 0.00027288737735396544 -0.00097295143090402622 0 0.00020415635647156043 -0.0011109629081519133 0 0.00018266012374531276 -0.00095824629568131174 0 0.00014922203434015676 -0.0019709362791999908 0 0.00024721224697111242 -0.0020784424247505397 0 0.00016085795393299868 -0.0021845093866974113 0 -0.00031338144368443923 -0.0017329185006115632 0 -0.00037690757955132403 -0.0018816657408585657 0 -0.00043514533086786182 -0.0017519564243266897 0 0.00029361237152351151 -0.0012634752592995625 0 0.00032990392524107699 -0.0011260827925070869 0 0.00040908319440862383 -0.0012702795161300771 0 -0.00012991415777004932 -0.0010010348073883439 0 -0.00020332811907388496 -0.00091956215742254013 0 -0.0001232023442121476 -0.00081535370201450946 0 1.1390405325230944e-08 -1.1288159142722795e-07 0 3.4410213417236727e-05 -6.7361366115626078e-05 0 4.6792126706621156e-05 -0.00012809784309569745 0 0.0010322036516907231 -0.0019376080314302379 0 0.00097848432879184201 -0.00204685314507727 0 0.00092739050780821057 -0.0019411348700001964 0 -0.00097154586568593427 -0.0013328346470627493 0 -0.00089434228096558165 -0.0012020827035340471 0 -0.00086768779842193243 -0.001279396182045468 0 -0.00022444179360120277 -0.003256252424247116 0 -0.00030585127175543765 -0.0031385617427617829 0 -0.00023633100517310898 -0.0030436861545799954 0 -1.0431608627481674e-07 -0.0024800518082503543 0 -2.1388033093802386e-05 -0.0023281442351469933 0 0.00010194378801002778 -0.002362880316809255 0 -0.00060285411783708015 -0.0015391787360153222 0 -0.00051208379225709964 -0.0014918098399717495 0 -0.00054217461216976689 -0.0016806490168883065 0 0.00060257095605645902 -0.0015392228482763364 0 0.00051653552481203404 -0.0015478882758556797 0 0.00052292701852191118 -0.0013733992634274367 0 -1.2974066672630664e-07 -0.0005486215916307444 0 1.1495644177386212e-05 -0.00067671854153917286 0 -7.0098039356067537e-05 -0.00064988756907645624 0 -0.00023931193922303989 -0.0023551208043293042 0 -0.00015295031319368345 -0.00248131129333563 0 -0.00025692034494519025 -0.0025629076842970475 0 -0.00049435674108574935 -0.0011655481436569637 0 -0.00058289198522989451 -0.0013110218592660107 0 -0.00060730982183748402 -0.0011657678016626003 0 0.00054226403080782795 -0.0018883603979549003 0 0.00061435295656118473 -0.0017679200660212645 0 0.00066501560064560793 -0.0019312507848530773 0 0.00016704799540472878 -0.00066428331306672553 0 9.467414679924211e-05 -0.00054868063921653188 0 0.00014817895760712939 -0.00048760729926872832 0 0.0006211948094516776 -0.0022709331603434869 0 0.00055641187324790523 -0.0023637444349569135 0 0.00053651390158181394 -0.0022419045665610497 0 -0.00048073446560880511 -0.0024900058715121285 0 -0.00054189058727596316 -0.0023864528293392746 0 -0.00046704021072383492 -0.0023502709003725615 0 0.00031105487969251291 -0.00057522198133129357 0 0.00038815607105950541 -0.00068199122036988473 0 0.00033781933984479228 -0.00070056193862065314 0 -0.00048893760390835643 -0.00081480261754295112 0 -0.00040668097178157885 -0.00070796225526003622 0 -0.00042179038544933544 -0.00081854908999661586 0 -1.8450923829322335e-05 -0.0018032612767307857 0 6.8929850002925647e-05 -0.0016712486720731204 0 8.0067745986854542e-05 -0.0018430235674083144 0 -0.00019617220765405554 -0.0014568332566076065 0 -8.3293132962271229e-05 -0.0013905773073154732 0 -0.00010409190998440748 -0.001537460702793327 0 0.00038034244035246005 -0.0024780393467478861 0 0.0003818366856703936 -0.0026201264503346341 0 0.00027037597109583406 -0.0025363106664022168 0 -0.00061593219225619721 -0.0021138686626945911 0 -0.00069926306310064373 -0.0021251885064011364 0 -0.00065029790318778887 -0.0019496464206469539 0 0.00052285730181971467 -0.00096661369770555778 0 0.0005995746084191695 -0.00098561316100757683 0 0.00058894388354453775 -0.0011413395660186487 0 -0.00024460271791092002 -0.00057210946238255413 0 -0.00020872804138695645 -0.00045092833337751327 0 -0.00016112939105999657 -0.00051003322819725191 0 0.00041417728649344632 -0.00046227108357607617 0 0.00051815421038547006 -0.00055507242071317262 0 0.00053194390361337781 -0.00065647061461103333 0 -0.00041125160010270696 -0.00045847996919390235 0 -0.00029681470170886306 -0.00032315716678928006 0 -0.00030640068594078347 -0.00039115233142235866 0 0.00019463576820125309 -0.0014236187856194386 0 0.00027047382525777317 -0.0013714364794754628 0 0.00031605344099297126 -0.0015108471923066568 0 0.00021208921838367588 -0.0015550643828806309 0 0.00019463576820125309 -0.0014236187856194386 0 0.00031605344099297126 -0.0015108471923066568 0 7.7844604250071618e-05 -0.0028534194275454693 0 9.2019861365851124e-05 -0.0027038813088569595 0 0.00018748579315695899 -0.0027993464333921263 0 0.00015388561664546598 -0.0026145341704219096 0 0.00018748579315695899 -0.0027993464333921263 0 9.2019861365851124e-05 -0.0027038813088569595 0 -0.00081823390693933626 -0.001696254169108385 0 -0.00073733512766063823 -0.0017000935993793402 0 -0.00079617608283867971 -0.0018497371839425541 0 -0.00069121039994671555 -0.0017820784712137409 0 -0.00079617608283867971 -0.0018497371839425541 0 -0.00073733512766063823 -0.0017000935993793402 0 0.00080065393087319148 -0.0014722388426846198 0 0.00071718747701618772 -0.0014307842372758995 0 0.00075263870708627432 -0.0013057733352177605 0 0.000657564899341207 -0.0013270394441940105 0 0.00075263870708627432 -0.0013057733352177605 0 0.00071718747701618772 -0.0014307842372758995 0 -2.8460074161766258e-05 -0.000256731652395844 0 -4.2346368479224805e-05 -0.00036971911658447294 0 -7.5674936439700883e-05 -0.00029765336247000013 0 -8.1745892387058357e-05 -0.00044044579869198899 0 -7.5674936439700896e-05 -0.00029765336247000013 0 -4.2346368479224805e-05 -0.00036971911658447294 0 0.00045070199168383219 -0.0027101545758653435 0 0.00045725511727555862 -0.0029098682594072985 0 0.00038046205235071158 -0.0028375538080425292 0 -0.00075093523652999556 -0.0022365993581632783 0 -0.00086234438881771221 -0.0022591271523035566 0 -0.00082206802600482754 -0.0021381725381918915 0 0.00061918034943510931 -0.00089723767149772022 0 0.00071719841918335236 -0.00092772310593578411 0 0.00071672174913675515 -0.0010289710589525699 0 -0.00022021067769047718 -0.00038185126760319698 0 -0.00015273161039542097 -0.00023075813102131268 0 -0.00014484829482884083 -0.0002763758928495561 0 0.00074331752003085948 -0.0024724843670388208 0 0.00063491828734680308 -0.0024175006096499576 0 0.00072615958562025963 -0.0023244259805334142 0 -0.00060090658407642873 -0.0027012894261763359 0 -0.00057206568239924016 -0.0025167887818531949 0 -0.00050862512073773629 -0.0026688909464973949 0 0.00031260176174083119 -0.00040485916549561139 0 0.00036798122434824373 -0.00056235393886514386 0 0.00026929134633559221 -0.00042236185413904595 0 -0.00052782080202745717 -0.00065823047184308261 0 -0.00045604900419787608 -0.00067259928418241703 0 -0.00056912729112965109 -0.00079870133962866706 0 0.00066728711515979242 -0.00080160170293324068 0 0.00059873391329476225 -0.00078584659180160532 0 0.00053194390361337781 -0.00065647061461103333 0 -0.00018725142117104657 -0.00024269064022724944 0 -0.00024845718314671735 -0.00035873517104551326 0 -0.00030640068594078347 -0.00039115233142235866 0 -5.3413338026903128e-06 -0.0026917741293852435 0 -0.00010584371702942616 -0.002747035489839515 0 -7.7914759810771388e-05 -0.0025779888483127467 0 -0.00072254879142488509 -0.001556086942144885 0 -0.0007396368166882949 -0.0014165892346063456 0 -0.00064973528034444701 -0.001435107464938186 0 0.00072343695061106354 -0.0015715400340005035 0 0.00076252101840584038 -0.0017248452836664116 0 0.00066572889896528598 -0.0016656197565820471 0 3.0940104126750065e-06 -0.00037639976908507685 0 4.7143473932751536e-05 -0.00033487104002220055 0 4.3604846892664474e-05 -0.00046698665622717597 0 3.3846394468416354e-05 -0.0021839354538137042 0 -4.9914640588378414e-05 -0.0020683317825933496 0 2.6571951131123907e-05 -0.0019810458327161216 0 -0.00043108193148102978 -0.001562924109993587 0 -0.00035731950601266838 -0.001427997002043992 0 -0.00031135244220781055 -0.0015366946315024149 0 0.00023310317339450619 -0.0026738066123342761 0 0.00031586844318502488 -0.0027159683384404601 0 0.00028198859890674451 -0.0028282992885912059 0 -0.00072796244576195162 -0.0019052471061374106 0 -0.00075363387772362292 -0.0020322132710827389 0 -0.00081503413652372631 -0.001991007452208024 0 0.00067366408249216526 -0.0012183394918026545 0 0.00067387485662559704 -0.0011024552157967407 0 0.00074458824429247917 -0.0011730034558022579 0 -0.00011440354528639953 -0.00039592602787242133 0 -0.00014782305583517521 -0.00036643392606758448 0 -0.00010766511040513007 -0.00027924808335590416 0 0.0004318887805151651 -0.0014590808433939473 0 0.0003160534409929712 -0.0015108471923066568 0 0.00034963577435736219 -0.0013846238801416063 0 0.00016441106609672553 -0.0016397382487520259 0 6.8929850002925647e-05 -0.0016712486720731204 0 0.00011910845487808356 -0.0015177336624381565 0 7.1610653280699788e-06 -0.001487064152685317 0 1.5934398281654588e-05 -0.0013096417566573466 0 0.00010291761501578741 -0.0013663961927440863 0 0.00018748579315695899 -0.0027993464333921263 0 0.00023310317339450616 -0.0026738066123342761 0 0.00028198859890674451 -0.0028282992885912059 0 -0.00079617608283867971 -0.0018497371839425541 0 -0.00072796244576195162 -0.0019052471061374106 0 -0.00081503413652372631 -0.001991007452208024 0 0.00075263870708627432 -0.0013057733352177605 0 0.00067366408249216526 -0.0012183394918026545 0 0.00074458824429247917 -0.0011730034558022579 0 -7.5674936439700883e-05 -0.00029765336247000013 0 -0.00011440354528639953 -0.00039592602787242133 0 -0.00010766511040513007 -0.00027924808335590416 0 -0.00031338144368443923 -0.0017329185006115632 0 -0.00031135244220781055 -0.0015366946315024149 0 -0.000222436034086908 -0.0016125037006643739 0 -0.00015758079937535521 -0.0026273466257656117 0 -7.7914759810771388e-05 -0.0025779888483127467 0 -0.00010584371702942616 -0.002747035489839515 0 -0.00066434927411479613 -0.0013236985998956248 0 -0.00064973528034444701 -0.001435107464938186 0 -0.0007396368166882949 -0.0014165892346063456 0 0.00069860229468738267 -0.0017886259243829507 0 0.00066572889896528598 -0.0016656197565820471 0 0.00076252101840584038 -0.0017248452836664116 0 8.2649700850686975e-05 -0.0004288866941226623 0 4.3604846892664474e-05 -0.00046698665622717597 0 4.7143473932751536e-05 -0.00033487104002220055 0 0.00066728711515979242 -0.00080160170293324068 0 0.00060620189461949687 -0.00066949787035045817 0 0.00071851373933813211 -0.00077551843114867546 0 0.00058228540892648511 -0.00057804358933572463 0 0.00071851373933813211 -0.00077551843114867546 0 0.00060620189461949687 -0.00066949787035045817 0 -0.00018725142117104657 -0.00024269064022724944 0 -0.00022250403585302771 -0.00025285873933677806 0 -0.00011480244129802765 -0.00012245035091872588 0 -0.00020315840861928231 -0.00019587401124660026 0 -0.00011480244129802765 -0.00012245035091872588 0 -0.00022250403585302771 -0.00025285873933677806 0 7.1610653280699788e-06 -0.001487064152685317 0 0.00010291761501578741 -0.0013663961927440863 0 0.00011910845487808356 -0.0015177336624381565 0 -0.00041125160010270696 -0.00045847996919390235 0 -0.00051913301491893042 -0.00055530825442500506 0 -0.00043663177721366397 -0.00042303859032336672 0 0.00041417728649344632 -0.00046227108357607617 0 0.00029577079927269148 -0.00032111357480569614 0 0.00033912890783613944 -0.00032819208673642722 0 0.00053670266410215176 -0.0029379068759794137 0 0.00053749216507194351 -0.0027785493496236195 0 0.00061781039039763533 -0.0028653869784142864 0 0.00062541298593638895 -0.0026934030237760476 0 0.00061781039039763533 -0.0028653869784142864 0 0.00053749216507194351 -0.0027785493496236195 0 -0.00087738224248068506 -0.0023825742155572675 0 -0.0007890544797454533 -0.0023757843418725495 0 -0.00083671000350851721 -0.0025070444618682467 0 -0.00073848047770921237 -0.0025118337400699886 0 -0.00083671000350851721 -0.0025070444618682467 0 -0.0007890544797454533 -0.0023757843418725495 0 0.00021129406960991085 -0.00019942791659451875 0 0.00021078755092814521 -0.00024051211370764998 0 0.00011659416027127305 -0.00012447467873084577 0 -0.00057371673421611818 -0.00056582058543318855 0 -0.00062037456493535417 -0.00068532618793463952 0 -0.00072174906997524049 -0.00078310275643789196 0 0.00089407482463635043 -0.002635019537462628 0 0.00086746667412670217 -0.0025031676487007907 0 0.00094251035012795595 -0.0024702741527697666 0 -0.00069471471648318672 -0.0029698990518185961 0 -0.00061409032947208782 -0.0029217421741925538 0 -0.00058982677691006926 -0.0030589172448336954 0 0.00019294008048420164 -0.00025686383843589371 0 0.00011659416027127305 -0.00012447467873084577 0 0.00021078755092814521 -0.00024051211370764998 0 -0.00066407821941419799 -0.00081448327075313981 0 -0.00072174906997524049 -0.00078310275643789196 0 -0.00062037456493535417 -0.00068532618793463952 0 0.00084079541628493434 -0.0023637107862778334 0 0.00094251035012795595 -0.0024702741527697666 0 0.00086746667412670217 -0.0025031676487007907 0 -0.00052716952632134845 -0.0028707823742791538 0 -0.00058982677691006926 -0.0030589172448336954 0 -0.00061409032947208782 -0.0029217421741925538 0 0.00053651390158181394 -0.0022419045665610497 0 0.00047588267708578816 -0.0023869989273894833 0 0.00045575354352704573 -0.0022228538642669288 0 0.00055641187324790523 -0.0023637444349569135 0 0.00047588267708578816 -0.0023869989273894833 0 0.00053651390158181394 -0.0022419045665610497 0 -0.00046704021072383492 -0.0023502709003725615 0 -0.00055951324870396062 -0.0022578900371561508 0 -0.00045834191707298609 -0.0022192235947937154 0 -0.00054189058727596316 -0.0023864528293392746 0 -0.00055951324870396062 -0.0022578900371561508 0 -0.00046704021072383492 -0.0023502709003725615 0 0.00033781933984479228 -0.00070056193862065314 0 0.00043728944770825436 -0.00080811553180693799 0 0.00036004715186104848 -0.00082135588103339821 0 0.00038815607105950541 -0.00068199122036988473 0 0.00043728944770825436 -0.00080811553180693799 0 0.00033781933984479228 -0.00070056193862065314 0 -0.00042179038544933544 -0.00081854908999661586 0 -0.00033523602681110958 -0.00066700023036246701 0 -0.00035671110174060862 -0.00081776381329451864 0 -0.00040668097178157885 -0.00070796225526003633 0 -0.00033523602681110958 -0.00066700023036246701 0 -0.00042179038544933544 -0.00081854908999661586 0 0.00084079541628493434 -0.0023637107862778334 0 0.00077542318382708985 -0.0022153359051566017 0 0.00086069197783284477 -0.0022193362944291292 0 -0.00052716952632134845 -0.0028707823742791538 0 -0.00043522634583022924 -0.0027534312584285166 0 -0.00043118982838015045 -0.0029079310235151372 0 0.00019294008048420164 -0.00025686383843589371 0 0.00019670885238372234 -0.00034413683664328545 0 0.00014261947380535348 -0.00022587738445929074 0 -0.00066407821941419799 -0.00081448327075313981 0 -0.0006494363715276283 -0.00092943510691220125 0 -0.0007324968075437438 -0.00096952536710128139 0 0.00019463576820125309 -0.0014236187856194386 0 0.00010291761501578741 -0.0013663961927440863 0 0.00019660595586877064 -0.0012785506328176612 0 0.00029361237152351151 -0.0012634752592995625 0 0.00040908319440862383 -0.0012702795161300771 0 0.00034963577435736219 -0.0013846238801416063 0 0.0004318887805151651 -0.0014590808433939473 0 0.00034963577435736219 -0.0013846238801416063 0 0.00040908319440862383 -0.0012702795161300771 0 0.00071990744554612743 -0.0026671755788356451 0 0.00068635960991719508 -0.002797862076730231 0 0.00062541298593638895 -0.0026934030237760476 0 -0.00072019420742712361 -0.0026670901157550813 0 -0.00079743138834637755 -0.002615282620742163 0 -0.00073848047770921237 -0.0025118337400699886 0 0.00053194390361337781 -0.00065647061461103333 0 0.00051815421038547006 -0.00055507242071317262 0 0.00060620189461949687 -0.00066949787035045817 0 -0.00030640068594078347 -0.00039115233142235866 0 -0.00029681470170886306 -0.00032315716678928006 0 -0.00022250403585302771 -0.00025285873933677806 0 0.00033784747729958501 -0.00027418185125592488 0 0.00026909717545495459 -0.00023338504149428879 0 0.00016367806052535505 -0.00013606026352820134 0 -0.00034128959290465516 -0.00027838739703193901 0 -0.00046658945081323711 -0.00042449197810506362 0 -0.00051366544825714848 -0.00045483093420335533 0 0.00075338359539072375 -0.00203223271987739 0 0.00083874016685414013 -0.0019836807965019966 0 0.0008282564982835238 -0.0021170332760859375 0 0.00014784547618287882 -0.00036730978161191995 0 9.5373180155311496e-05 -0.00024653863249657506 0 0.00013637931840605294 -0.00026669513041469207 0 -0.0003161227993587604 -0.0027160163607644109 0 -0.00027483886960976176 -0.002872361538707474 0 -0.00036579409975633808 -0.0028497226063425975 0 -0.00067417661241629364 -0.001101880100633044 0 -0.00077004590798248642 -0.0011919547990012081 0 -0.00072811088153705323 -0.0010539219810020944 0 0.00021129406960991085 -0.00019942791659451875 0 0.00033912890783613944 -0.00032819208673642722 0 0.00029577079927269148 -0.00032111357480569614 0 -0.00057371673421611818 -0.00056582058543318855 0 -0.00043663177721366397 -0.00042303859032336672 0 -0.00051913301491893042 -0.00055530825442500506 0 0.00054921420990779949 -0.0032512503647747441 0 0.00044291540573926624 -0.0032534190698885676 0 0.00048356850363416814 -0.0030845470200791718 0 -0.0010421075105027384 -0.0024143652720494632 0 -0.0010403247274573457 -0.0022535464647827621 0 -0.00095540331408264093 -0.002308124753102948 0 0.00083451495535931093 -0.0009063418067728708 0 0.0008927768695989938 -0.0010484164129462162 0 0.00079361440498049824 -0.00094106076695387971 0 -1.9185212972687612e-08 -1.1232318094805729e-07 0 -1.2654127156102873e-08 -1.1681114080679418e-07 0 -8.3936982749002013e-05 -0.0001081743579856913 0 0.00011243564341537847 -0.0032567049351947095 0 3.3878312437150333e-05 -0.0031252788095637242 0 0.00011962519474802375 -0.0030743334207075676 0 -0.0010247399187703816 -0.0017818072893697641 0 -0.00095372903903795923 -0.0016630678446426176 0 -0.00093552070089667296 -0.0017782012519476527 0 0.0009953736262011128 -0.0014801754433462098 0 0.00094535541584299398 -0.0015702071757298264 0 0.00090629201674709552 -0.0014460533434596107 0 -4.1723947385698249e-09 -1.1320744328276064e-07 0 -3.6990246249562553e-06 -7.5159447530865668e-05 0 -1.9731948151809146e-05 -0.00010974308676077522 0 -2.5888950661531194e-06 -0.0010345964845290048 0 2.7401239282120462e-05 -0.00090695835851733119 0 9.353455260729612e-05 -0.0010613748374099731 0 0.00089407482463635043 -0.002635019537462628 0 0.00083835024659790526 -0.0027501089610913396 0 0.00081444294236581881 -0.0026067052705929976 0 -0.00069471471648318672 -0.0029698990518185961 0 -0.0007658775832433194 -0.0028721980550130547 0 -0.0006807466170460245 -0.0028280898924208132 0 7.1610653280699788e-06 -0.001487064152685317 0 0.00011910845487808356 -0.0015177336624381565 0 6.8929850002925647e-05 -0.0016712486720731204 0 0.00082908360339756996 -0.0012520624380184715 0 0.00090715555953298861 -0.0013275485739508148 0 0.00083222938674483459 -0.0013745716170181161 0 0.00090629201674709552 -0.0014460533434596107 0 0.00083222938674483459 -0.0013745716170181161 0 0.00090715555953298861 -0.0013275485739508148 0 0.00075210899191405494 -0.0032439218186202179 0 0.00070929267432635033 -0.0030974510612316402 0 0.00078934658269842522 -0.0030665032972179707 0 -0.0010412882116868161 -0.0027390573850091236 0 -0.00096348204358184255 -0.0026633840963621873 0 -0.00094627044599419809 -0.0027954614490925569 0 -0.00069471471648318672 -0.0029698990518185961 0 -0.0006947671566607498 -0.0031134753734127396 0 -0.00077979097047826799 -0.0030446968142109733 0 0.00089407482463635043 -0.002635019537462628 0 0.00097169187182581142 -0.0026399367981783822 0 0.00093450028312089045 -0.0027782090386136672 0 -0.00057371673421611818 -0.00056582058543318855 0 -0.00065372980666470024 -0.0006353544111146654 0 -0.00051366544825714848 -0.00045483093420335533 0 0.00021129406960991085 -0.00019942791659451875 0 9.8275639907208768e-05 -8.8813798836938294e-05 0 0.00016367806052535505 -0.00013606026352820134 0 -0.00075239214397282742 -0.0032439654711449734 0 -0.00077979097047826799 -0.0030446968142109733 0 -0.0006947671566607498 -0.0031134753734127396 0 0.0010411402155380469 -0.0027391596865871432 0 0.00093450028312089045 -0.0027782090386136672 0 0.00097169187182581142 -0.0026399367981783822 0 -0.0006555597726245866 -0.00061740488254148878 0 -0.00051366544825714848 -0.00045483093420335539 0 -0.00065372980666470024 -0.0006353544111146654 0 2.420658436598714e-08 -1.056998850345626e-07 0 0.00016367806052535505 -0.00013606026352820134 0 9.8275639907208768e-05 -8.8813798836938294e-05 0 0.00065681908015474894 -0.00061657288240697227 0 0.00065519261615799883 -0.00063806111816950553 0 0.0005187150829489306 -0.0004625285149770595 0 -2.404945514110646e-08 -1.0437617809077159e-07 0 -9.9016951757902255e-05 -8.9040885537636195e-05 0 -0.00017438977880945323 -0.00014569696206672274 0 0.00058228540892648511 -0.00057804358933572463 0 0.0005187150829489306 -0.0004625285149770595 0 0.00065519261615799883 -0.00063806111816950553 0 -0.00020315840861928231 -0.00019587401124660026 0 -0.00017438977880945323 -0.00014569696206672274 0 -9.9016951757902255e-05 -8.9040885537636195e-05 0 -0.00021173147516277165 -0.0018992220598465595 0 -0.00011223353195407428 -0.0017841319084018184 0 -0.0001020572269512351 -0.0019367248629163229 0 7.1610653280699788e-06 -0.001487064152685317 0 6.8929850002925647e-05 -0.0016712486720731204 0 -4.5419542717553793e-05 -0.0016558613563762276 0 -0.00035023466030698649 -0.0012987193098500968 0 -0.00039273594411269499 -0.0011417983372738986 0 -0.00029689423068103603 -0.001161855687914931 0 -0.00029468107119600399 -0.0010075511551268486 0 -0.00029689423068103603 -0.001161855687914931 0 -0.00039273594411269499 -0.0011417983372738986 0 -0.00021920739070660188 -0.0012092333230913359 0 -0.00021490823268344766 -0.0010770381206913556 0 -0.00014463784417201094 -0.0011599155699812734 0 0.00010957646941154747 -0.00091331876215836744 0 9.353455260729612e-05 -0.0010613748374099731 0 2.7401239282120462e-05 -0.00090695835851733119 0 0.00075338359539072375 -0.00203223271987739 0 0.0008282564982835238 -0.0021170332760859375 0 0.00077542318382708985 -0.0022153359051566017 0 0.00014784547618287882 -0.00036730978161191995 0 0.00013637931840605294 -0.00026669513041469207 0 0.00019670885238372234 -0.00034413683664328545 0 -0.0003161227993587604 -0.0027160163607644109 0 -0.00036579409975633808 -0.0028497226063425975 0 -0.00043522634583022929 -0.0027534312584285166 0 -0.00067417661241629364 -0.001101880100633044 0 -0.00072811088153705323 -0.0010539219810020944 0 -0.0006494363715276283 -0.00092943510691220125 0 -0.00019617220765405554 -0.0014568332566076065 0 -0.000222436034086908 -0.0016125037006643739 0 -0.00031135244220781055 -0.0015366946315024149 0 -0.00015758079937535521 -0.0026273466257656117 0 -0.00025692034494519025 -0.0025629076842970475 0 -0.00015295031319368345 -0.00248131129333563 0 0.00069860229468738267 -0.0017886259243829507 0 0.00066501560064560793 -0.0019312507848530773 0 0.00061435295656118473 -0.0017679200660212645 0 -0.00066434927411479613 -0.0013236985998956248 0 -0.00060730982183748402 -0.0011657678016626003 0 -0.0005828919852298944 -0.0013110218592660107 0 8.2649700850686975e-05 -0.0004288866941226623 0 0.00014817895760712939 -0.00048760729926872832 0 9.467414679924211e-05 -0.00054868063921653177 0 0.00078934658269842522 -0.0030665032972179707 0 0.00070929267432635044 -0.0030974510612316402 0 0.00076560612633309985 -0.0029505967940720254 0 -0.00094627044599419809 -0.0027954614490925569 0 -0.00096348204358184255 -0.0026633840963621873 0 -0.00088263468956149805 -0.0027524928763078059 0 0.00069232334821375449 -0.0029521661973197066 0 0.00076560612633309985 -0.0029505967940720254 0 0.00070929267432635044 -0.0030974510612316402 0 -0.00088464324973914251 -0.0026309256908007817 0 -0.00088263468956149805 -0.0027524928763078059 0 -0.00096348204358184255 -0.0026633840963621873 0 0.0006211948094516776 -0.0022709331603434869 0 0.00072615958562025963 -0.0023244259805334142 0 0.00063491828734680308 -0.0024175006096499576 0 -0.00048073446560880511 -0.0024900058715121285 0 -0.00050862512073773629 -0.0026688909464973949 0 -0.00057206568239924016 -0.0025167887818531949 0 0.00031105487969251291 -0.00057522198133129357 0 0.00026929134633559221 -0.00042236185413904595 0 0.00036798122434824373 -0.00056235393886514386 0 -0.00048893760390835643 -0.00081480261754295112 0 -0.00056912729112965109 -0.00079870133962866706 0 -0.00045604900419787608 -0.00067259928418241703 0 0.00010209360288375761 -0.0012152992785574952 0 1.5934398281654588e-05 -0.0013096417566573466 0 9.9429795375323112e-06 -0.0011587468626148034 0 0.00010209360288375761 -0.0012152992785574952 0 0.00019660595586877064 -0.0012785506328176612 0 0.00010291761501578741 -0.0013663961927440863 0 0.00069232334821375449 -0.0029521661973197066 0 0.00068635960991719508 -0.002797862076730231 0 0.00076374072538383823 -0.0028297217935101772 0 -0.00088464324973914251 -0.0026309256908007817 0 -0.00079743138834637755 -0.002615282620742163 0 -0.00081446727264893959 -0.0027451012827583643 0 0.00074331752003085948 -0.0024724843670388208 0 0.00064991890864685229 -0.0025539424538434893 0 0.00063491828734680308 -0.0024175006096499576 0 -0.00060090658407642873 -0.0027012894261763359 0 -0.00065469875877761019 -0.0025468665067780723 0 -0.00057206568239924016 -0.0025167887818531949 0 0.00031260176174083119 -0.00040485916549561139 0 0.00042605804780718133 -0.00056338067711322827 0 0.00036798122434824373 -0.00056235393886514386 0 -0.00052782080202745717 -0.00065823047184308261 0 -0.00040697834125361066 -0.00054057674953413048 0 -0.00045604900419787608 -0.00067259928418241703 0 0.00044627237536046672 -0.0017619725097218748 0 0.00034782160733246281 -0.0018325035431359135 0 0.00036764213173629668 -0.0016998005071839095 0 0.0004319992314980896 -0.0019013045217514519 0 0.00034782160733246281 -0.0018325035431359135 0 0.00044627237536046672 -0.0017619725097218748 0 0.00012556835993703536 -0.00079872728013727216 0 0.00018266012374531276 -0.00095824629568131174 0 0.00010957646941154747 -0.00091331876215836744 0 0.00019968941943898367 -0.00083167811626084468 0 0.00018266012374531276 -0.00095824629568131174 0 0.00012556835993703536 -0.00079872728013727216 0 0.00011962519474802375 -0.0030743334207075676 0 0.00015552059257606174 -0.002946186436051797 0 0.00020957873419974273 -0.0031118400062711952 0 0.00024669647827631159 -0.002969969966467804 0 0.00020957873419974273 -0.0031118400062711952 0 0.00015552059257606174 -0.002946186436051797 0 -0.00093552070089667296 -0.0017782012519476527 0 -0.0008726769521251441 -0.0018172767162498004 0 -0.00096085496872384021 -0.0019082906320619548 0 -0.00088995717852928362 -0.0019505218761983868 0 -0.00096085496872384021 -0.0019082906320619548 0 -0.0008726769521251441 -0.0018172767162498004 0 -1.9731948151809146e-05 -0.00010974308676077522 0 -4.3360790946618454e-05 -0.00019318738488652184 0 -2.9371560508943093e-05 -8.4197432751994254e-05 0 -6.4104008941534452e-05 -0.00017618572939321736 0 -2.9371560508943096e-05 -8.4197432751994254e-05 0 -4.3360790946618454e-05 -0.00019318738488652184 0 0.00014922203434015676 -0.0019709362791999908 0 9.2509021952919359e-05 -0.0020844274161806076 0 2.6571951131123907e-05 -0.0019810458327161216 0 -0.00031338144368443923 -0.0017329185006115632 0 -0.00037321323674410935 -0.0016458391747547925 0 -0.00031135244220781055 -0.0015366946315024149 0 3.3846394468416354e-05 -0.0021839354538137042 0 2.6571951131123907e-05 -0.0019810458327161216 0 9.2509021952919359e-05 -0.0020844274161806076 0 -0.00043108193148102978 -0.001562924109993587 0 -0.00031135244220781055 -0.0015366946315024149 0 -0.00037321323674410935 -0.0016458391747547925 0 0.00085705655694663641 -0.0029127150807351661 0 0.00078934658269842522 -0.0030665032972179707 0 0.00076560612633309985 -0.0029505967940720254 0 -0.00086032265516005843 -0.0029072464120355871 0 -0.00094627044599419809 -0.0027954614490925569 0 -0.00088263468956149805 -0.0027524928763078059 0 0.00021129406960991085 -0.00019942791659451875 0 0.00016367806052535505 -0.00013606026352820134 0 0.00026909717545495459 -0.00023338504149428879 0 -0.00057371673421611818 -0.00056582058543318855 0 -0.00051366544825714848 -0.00045483093420335533 0 -0.00046658945081323711 -0.00042449197810506362 0 0.00039712881605498878 -0.0030143480141782203 0 0.00045725511727555862 -0.0029098682594072985 0 0.00048356850363416814 -0.0030845470200791718 0 -0.00091746372197136895 -0.0021746381506941421 0 -0.00086234438881771221 -0.0022591271523035566 0 -0.00095540331408264093 -0.002308124753102948 0 0.00080164347435009772 -0.001045312713900747 0 0.00071719841918335236 -0.00092772310593578411 0 0.00079361440498049824 -0.00094106076695387971 0 -9.1012746842201352e-05 -0.00014878319331221155 0 -0.000152731610395421 -0.00023075813102131268 0 -8.3936982749002013e-05 -0.0001081743579856913 0 0.00022376734094597896 -0.0023533319619263751 0 0.00017274698806825283 -0.0024717498346077992 0 0.00010194378801002778 -0.002362880316809255 0 -0.0005407994300724475 -0.0018651798183329372 0 -0.00060945808871424483 -0.0017972055401648576 0 -0.00054217461216976689 -0.0016806490168883065 0 0.00049638236907729083 -0.0011884944435799681 0 0.00057331354627248622 -0.0012796009818428346 0 0.00052292701852191118 -0.0013733992634274367 0 -0.00015717456965736243 -0.00066640102089698169 0 -0.0001079534022874121 -0.00055999886951017808 0 -7.0098039356067537e-05 -0.00064988756907645624 0 0.00014922203434015676 -0.0019709362791999908 0 8.0067745986854542e-05 -0.0018430235674083144 0 0.00016852787435566287 -0.0017857560871574643 0 0.00022376734094597896 -0.0023533319619263751 0 0.00016085795393299868 -0.0021845093866974109 0 0.00024658383719476266 -0.002216672898019508 0 -0.0005407994300724475 -0.0018651798183329372 0 -0.00043514533086786182 -0.0017519564243266897 0 -0.00045823027451504807 -0.0018910742996532215 0 0.00049638236907729083 -0.0011884944435799681 0 0.00040908319440862383 -0.0012702795161300771 0 0.00041348988687081177 -0.001139220149037682 0 -0.00015717456965736243 -0.00066640102089698169 0 -0.0001232023442121476 -0.00081535370201450946 0 -0.00018853289581304716 -0.0007917349406910229 0 -1.0431608627481674e-07 -0.0024800518082503543 0 0.00010194378801002778 -0.002362880316809255 0 8.5970046208155431e-05 -0.0025539836098974096 0 -0.00060285411783708015 -0.0015391787360153222 0 -0.00054217461216976689 -0.0016806490168883065 0 -0.00065261529730046826 -0.0016751324343965916 0 0.00060257095605645902 -0.0015392228482763364 0 0.00052292701852191118 -0.0013733992634274367 0 0.00063462466467682343 -0.001419832259937779 0 -1.2974066672630664e-07 -0.0005486215916307444 0 -7.0098039356067537e-05 -0.00064988756907645624 0 -4.8786274724238459e-05 -0.00048802028608433724 0 3.3846394468416354e-05 -0.0021839354538137042 0 9.2509021952919359e-05 -0.0020844274161806076 0 0.00016085795393299868 -0.0021845093866974113 0 -0.00043108193148102978 -0.001562924109993587 0 -0.00037321323674410935 -0.0016458391747547925 0 -0.00043514533086786182 -0.0017519564243266897 0 0.00014922203434015676 -0.0019709362791999908 0 0.00016085795393299868 -0.0021845093866974113 0 9.2509021952919359e-05 -0.0020844274161806076 0 -0.00031338144368443923 -0.0017329185006115632 0 -0.00043514533086786182 -0.0017519564243266897 0 -0.00037321323674410935 -0.0016458391747547925 0 0.00024669647827631159 -0.002969969966467804 0 0.00018748579315695899 -0.0027993464333921259 0 0.00028198859890674451 -0.0028282992885912059 0 -0.00088995717852928362 -0.0019505218761983868 0 -0.00079617608283867971 -0.0018497371839425541 0 -0.00081503413652372631 -0.001991007452208024 0 0.00082908360339756996 -0.0012520624380184715 0 0.00075263870708627422 -0.0013057733352177605 0 0.00074458824429247917 -0.0011730034558022579 0 -6.4104008941534452e-05 -0.00017618572939321736 0 -7.5674936439700869e-05 -0.00029765336247000013 0 -0.00010766511040513007 -0.00027924808335590416 0 6.3653135431846993e-06 -0.00013584352185768794 0 6.1830481682040216e-06 -5.8726536975947404e-05 0 2.0090415629054281e-05 -8.9058139751214141e-05 0 -0.00089808926101883949 -0.0015633363772851083 0 -0.00095524254538428724 -0.0015422989327859417 0 -0.00091858534154892475 -0.0014282452233470451 0 0.00090472234678633473 -0.0016476722216291909 0 0.00096893923022504187 -0.0016971994877162751 0 0.00095108569159535624 -0.0018025411177898913 0 -3.0302231066317321e-05 -0.003028023188843371 0 -5.6546441430257463e-05 -0.0031529316254977754 0 -0.00013534945337164407 -0.0031030643414114117 0 0.00015388561664546598 -0.0026145341704219096 0 9.2019861365851124e-05 -0.0027038813088569595 0 8.5970046208155431e-05 -0.0025539836098974096 0 -0.00069121039994671555 -0.0017820784712137409 0 -0.00073733512766063823 -0.0017000935993793402 0 -0.00065261529730046826 -0.0016751324343965916 0 0.000657564899341207 -0.0013270394441940105 0 0.00071718747701618772 -0.0014307842372758995 0 0.00063462466467682343 -0.001419832259937779 0 -8.1745892387058357e-05 -0.00044044579869198899 0 -4.2346368479224805e-05 -0.00036971911658447294 0 -4.8786274724238459e-05 -0.00048802028608433724 0 7.1610653280699788e-06 -0.001487064152685317 0 -4.5419542717553793e-05 -0.0016558613563762276 0 -0.00010409190998440748 -0.001537460702793327 0 0.00053608773035737352 -0.0025489585479918806 0 0.00044741430615139973 -0.0025488761411231655 0 0.00047588267708578816 -0.0023869989273894833 0 -0.000655791804174306 -0.0023614584380332775 0 -0.00065678171256011134 -0.0022222739738970878 0 -0.00055951324870396062 -0.0022578900371561508 0 0.0004914165979167189 -0.00073675957208264647 0 0.00053495542158802604 -0.00087367659748608913 0 0.00043728944770825436 -0.00080811553180693799 0 -0.00033055287716450034 -0.00052975652734984927 0 -0.00027085671015212117 -0.00051999527548876395 0 -0.00033523602681110958 -0.00066700023036246701 0 -0.00015758079937535521 -0.0026273466257656117 0 -0.0002161788111254103 -0.0027332484165627905 0 -0.00025692034494519025 -0.0025629076842970475 0 -0.0003161227993587604 -0.0027160163607644109 0 -0.00025692034494519025 -0.0025629076842970475 0 -0.0002161788111254103 -0.0027332484165627905 0 -0.00066434927411479613 -0.0013236985998956248 0 -0.00071073864712233124 -0.0012530743090508965 0 -0.00060730982183748402 -0.0011657678016626003 0 0.00069860229468738267 -0.0017886259243829507 0 0.00076055353539314949 -0.0018849536069618521 0 0.00066501560064560793 -0.0019312507848530773 0 0.00075338359539072375 -0.00203223271987739 0 0.00066501560064560793 -0.0019312507848530773 0 0.00076055353539314949 -0.0018849536069618521 0 -0.00067417661241629364 -0.001101880100633044 0 -0.00060730982183748402 -0.0011657678016626003 0 -0.00071073864712233124 -0.0012530743090508965 0 8.2649700850686975e-05 -0.0004288866941226623 0 9.6256477488068041e-05 -0.00034827644515253995 0 0.00014817895760712939 -0.00048760729926872832 0 0.00014784547618287882 -0.00036730978161191995 0 0.00014817895760712939 -0.00048760729926872832 0 9.6256477488068054e-05 -0.00034827644515253995 0 0.00034329878876544279 -0.00200092429693717 0 0.00034782160733246281 -0.0018325035431359135 0 0.0004319992314980896 -0.0019013045217514519 0 0.00027288737735396544 -0.00097295143090402622 0 0.00018266012374531276 -0.00095824629568131174 0 0.00019968941943898367 -0.00083167811626084468 0 -0.00031843945419734093 -0.0020316593098770354 0 -0.00021463794687148091 -0.0020428821077476821 0 -0.00025848590305665623 -0.0021744199913644813 0 0.00085705655694663641 -0.0029127150807351661 0 0.00076374072538383823 -0.0028297217935101767 0 0.00083835024659790526 -0.0027501089610913396 0 -0.00086032265516005843 -0.0029072464120355871 0 -0.00081446727264893959 -0.0027451012827583638 0 -0.0007658775832433194 -0.0028721980550130547 0 0.00033784747729958501 -0.00027418185125592488 0 0.00045513882603376348 -0.00043221860982331777 0 0.00033912890783613944 -0.00032819208673642722 0 -0.00034128959290465516 -0.00027838739703193901 0 -0.00031515332484382007 -0.00029623172093419959 0 -0.00043663177721366397 -0.00042303859032336672 0 -0.00031135244220781055 -0.0015366946315024149 0 -0.00035731950601266838 -0.001427997002043992 0 -0.00026308564999929216 -0.0013478153120978734 0 0.00090839603956941351 -0.0021094089662048923 0 0.00094590451158477879 -0.0022886982340426295 0 0.00086069197783284477 -0.0022193362944291292 0 8.6294954443402199e-05 -0.0001583791080656904 0 8.72590750426947e-05 -0.00011459678099988384 0 0.00014261947380535348 -0.00022587738445929074 0 -0.00035409720840151815 -0.0029991178024060664 0 -0.00047179168863449561 -0.003067373665525344 0 -0.00043118982838015045 -0.0029079310235151372 0 -0.00081075069575152069 -0.0011037408183975357 0 -0.00079448682067103781 -0.00095344717783392224 0 -0.0007324968075437438 -0.00096952536710128139 0 -0.00014399614048749799 -0.0016687068487579915 0 -0.00010409190998440746 -0.001537460702793327 0 -4.5419542717553793e-05 -0.0016558613563762276 0 -0.00035023466030698649 -0.0012987193098500968 0 -0.00042471269077074193 -0.0012701085608094905 0 -0.00039273594411269499 -0.0011417983372738986 0 0.0010399564616702852 -0.0022533906662217519 0 0.00094590451158477879 -0.0022886982340426295 0 0.00098292554091729202 -0.0021583230223671877 0 1.2646722567508618e-08 -1.1850303870988934e-07 0 8.72590750426947e-05 -0.00011459678099988385 0 4.3149066277266224e-05 -6.5412906142558669e-05 0 -0.00044310051663350668 -0.0032533559801106939 0 -0.00047179168863449561 -0.003067373665525344 0 -0.00038199504219757089 -0.0031422817587733599 0 -0.00089220372423998477 -0.0010487855322158055 0 -0.00079448682067103781 -0.00095344717783392235 0 -0.00086944463508161732 -0.0010990552357873419 0 0.00015388561664546598 -0.0026145341704219096 0 0.00017274698806825283 -0.0024717498346077992 0 0.00027037597109583406 -0.0025363106664022168 0 0.00022376734094597896 -0.0023533319619263751 0 0.00027037597109583406 -0.0025363106664022168 0 0.00017274698806825283 -0.0024717498346077992 0 -0.0005407994300724475 -0.0018651798183329372 0 -0.00065029790318778887 -0.0019496464206469539 0 -0.00060945808871424483 -0.0017972055401648576 0 -0.00069121039994671555 -0.0017820784712137409 0 -0.00060945808871424483 -0.0017972055401648576 0 -0.00065029790318778887 -0.0019496464206469539 0 0.00049638236907729083 -0.0011884944435799681 0 0.00058894388354453775 -0.0011413395660186487 0 0.00057331354627248622 -0.0012796009818428346 0 0.000657564899341207 -0.0013270394441940105 0 0.00057331354627248622 -0.0012796009818428346 0 0.00058894388354453775 -0.0011413395660186487 0 -0.00015717456965736243 -0.00066640102089698169 0 -0.00016112939105999657 -0.00051003322819725191 0 -0.0001079534022874121 -0.00055999886951017808 0 -8.1745892387058357e-05 -0.00044044579869198899 0 -0.0001079534022874121 -0.00055999886951017808 0 -0.00016112939105999657 -0.00051003322819725191 0 0.00031586844318502488 -0.0027159683384404601 0 0.00023310317339450619 -0.0026738066123342761 0 0.00027037597109583406 -0.0025363106664022168 0 -0.00075363387772362292 -0.0020322132710827389 0 -0.00072796244576195162 -0.0019052471061374106 0 -0.00065029790318778887 -0.0019496464206469539 0 0.00067387485662559704 -0.0011024552157967407 0 0.00067366408249216526 -0.0012183394918026545 0 0.00058894388354453775 -0.0011413395660186487 0 -0.00014782305583517521 -0.00036643392606758448 0 -0.00011440354528639953 -0.00039592602787242133 0 -0.00016112939105999657 -0.00051003322819725191 0 7.7844604250071618e-05 -0.0028534194275454693 0 0.00018748579315695899 -0.0027993464333921263 0 0.00015552059257606174 -0.002946186436051797 0 -0.00081823390693933626 -0.001696254169108385 0 -0.00079617608283867971 -0.0018497371839425541 0 -0.0008726769521251441 -0.0018172767162498004 0 0.00082908360339756996 -0.0012520624380184715 0 0.00083222938674483459 -0.0013745716170181161 0 0.00075263870708627432 -0.0013057733352177605 0 -2.8460074161766258e-05 -0.000256731652395844 0 -7.5674936439700883e-05 -0.00029765336247000013 0 -4.3360790946618454e-05 -0.00019318738488652184 0 0.00024669647827631159 -0.002969969966467804 0 0.00015552059257606174 -0.002946186436051797 0 0.00018748579315695899 -0.0027993464333921263 0 -0.00088995717852928362 -0.0019505218761983868 0 -0.0008726769521251441 -0.0018172767162498004 0 -0.00079617608283867971 -0.0018497371839425541 0 0.00080065393087319148 -0.0014722388426846198 0 0.00075263870708627432 -0.0013057733352177605 0 0.00083222938674483459 -0.0013745716170181161 0 -6.4104008941534452e-05 -0.00017618572939321736 0 -4.3360790946618454e-05 -0.00019318738488652184 0 -7.5674936439700883e-05 -0.00029765336247000013 0 0.00015388561664546598 -0.0026145341704219096 0 0.00023310317339450619 -0.0026738066123342761 0 0.00018748579315695899 -0.0027993464333921263 0 -0.00069121039994671555 -0.0017820784712137409 0 -0.00072796244576195162 -0.0019052471061374106 0 -0.00079617608283867971 -0.0018497371839425541 0 0.000657564899341207 -0.0013270394441940105 0 0.00067366408249216526 -0.0012183394918026545 0 0.00075263870708627432 -0.0013057733352177605 0 -8.1745892387058357e-05 -0.00044044579869198899 0 -0.00011440354528639953 -0.00039592602787242133 0 -7.5674936439700883e-05 -0.00029765336247000013 0 0.0006211948094516776 -0.0022709331603434869 0 0.00063491828734680308 -0.0024175006096499576 0 0.00055641187324790523 -0.0023637444349569135 0 -0.00048073446560880511 -0.0024900058715121285 0 -0.00057206568239924016 -0.0025167887818531949 0 -0.00054189058727596316 -0.0023864528293392746 0 0.00031105487969251291 -0.00057522198133129357 0 0.00036798122434824373 -0.00056235393886514386 0 0.00038815607105950541 -0.00068199122036988473 0 -0.00048893760390835643 -0.00081480261754295112 0 -0.00045604900419787608 -0.00067259928418241703 0 -0.00040668097178157885 -0.00070796225526003633 0 0.00069860229468738267 -0.0017886259243829507 0 0.00061435295656118473 -0.0017679200660212645 0 0.00066572889896528598 -0.0016656197565820471 0 -0.00015758079937535521 -0.0026273466257656117 0 -0.00015295031319368345 -0.00248131129333563 0 -7.7914759810771388e-05 -0.0025779888483127467 0 8.2649700850686975e-05 -0.0004288866941226623 0 9.467414679924211e-05 -0.00054868063921653177 0 4.3604846892664474e-05 -0.00046698665622717597 0 -0.00066434927411479613 -0.0013236985998956248 0 -0.0005828919852298944 -0.0013110218592660107 0 -0.00064973528034444701 -0.001435107464938186 0 0.00090839603956941351 -0.0021094089662048923 0 0.00098292554091729202 -0.0021583230223671877 0 0.00094590451158477879 -0.0022886982340426295 0 8.6294954443402199e-05 -0.0001583791080656904 0 4.3149066277266224e-05 -6.5412906142558669e-05 0 8.72590750426947e-05 -0.00011459678099988384 0 -0.00035409720840151815 -0.0029991178024060664 0 -0.00038199504219757089 -0.0031422817587733599 0 -0.00047179168863449561 -0.003067373665525344 0 -0.00081075069575152069 -0.0011037408183975357 0 -0.00086944463508161732 -0.0010990552357873419 0 -0.00079448682067103781 -0.00095344717783392235 0 3.3846394468416354e-05 -0.0021839354538137042 0 -7.4703180783760445e-05 -0.0021953227767947709 0 -4.9914640588378414e-05 -0.0020683317825933496 0 -0.00043108193148102978 -0.001562924109993587 0 -0.00042791428920718744 -0.0013975740883075188 0 -0.00035731950601266838 -0.001427997002043992 0 7.7844604250071618e-05 -0.0028534194275454693 0 5.4734666149376534e-05 -0.002983164177508631 0 -2.8353907779484356e-05 -0.0028715804604974443 0 -0.00081823390693933626 -0.001696254169108385 0 -0.00088432534525319077 -0.0016778153811252668 0 -0.00081729049189296487 -0.0015458305773214977 0 0.00080065393087319148 -0.0014722388426846198 0 0.00087108686996523676 -0.0015227611397935663 0 0.000823203808905732 -0.0016270234448429362 0 -2.8460074161766258e-05 -0.000256731652395844 0 -1.4112031647604123e-05 -0.00016627283768959106 0 1.0034608344151342e-05 -0.00024325028607647284 0 -1.8450923829322335e-05 -0.0018032612767307857 0 -4.5419542717553793e-05 -0.0016558613563762276 0 6.8929850002925647e-05 -0.0016712486720731204 0 0.00069232334821375449 -0.0029521661973197066 0 0.00061781039039763533 -0.0028653869784142864 0 0.00068635960991719508 -0.002797862076730231 0 -0.00088464324973914251 -0.0026309256908007817 0 -0.00083671000350851721 -0.0025070444618682467 0 -0.00079743138834637755 -0.002615282620742163 0 0.00085705655694663641 -0.0029127150807351661 0 0.00076560612633309985 -0.0029505967940720254 0 0.00076374072538383823 -0.0028297217935101772 0 -0.00086032265516005843 -0.0029072464120355871 0 -0.00088263468956149805 -0.0027524928763078059 0 -0.00081446727264893959 -0.0027451012827583643 0 0.00021129406960991085 -0.00019942791659451875 0 0.00026909717545495459 -0.00023338504149428879 0 0.00033912890783613944 -0.00032819208673642722 0 -0.00057371673421611818 -0.00056582058543318855 0 -0.00046658945081323706 -0.00042449197810506356 0 -0.00043663177721366397 -0.00042303859032336672 0 0.00015388561664546598 -0.0026145341704219096 0 0.00027037597109583406 -0.0025363106664022168 0 0.00023310317339450619 -0.0026738066123342761 0 -0.00069121039994671555 -0.0017820784712137409 0 -0.00065029790318778887 -0.0019496464206469539 0 -0.00072796244576195162 -0.0019052471061374106 0 0.000657564899341207 -0.0013270394441940105 0 0.00058894388354453764 -0.0011413395660186487 0 0.00067366408249216526 -0.0012183394918026545 0 -8.1745892387058357e-05 -0.00044044579869198899 0 -0.00016112939105999657 -0.00051003322819725191 0 -0.00011440354528639953 -0.00039592602787242133 0 0.00058228540892648511 -0.00057804358933572463 0 0.00051815421038547006 -0.00055507242071317262 0 0.00045513882603376348 -0.00043221860982331771 0 -0.00020315840861928231 -0.00019587401124660026 0 -0.00029681470170886306 -0.00032315716678928006 0 -0.00031515332484382012 -0.00029623172093419959 0 7.1610653280699788e-06 -0.001487064152685317 0 -8.3293132962271242e-05 -0.0013905773073154732 0 1.5934398281654588e-05 -0.0013096417566573466 0 -8.1866027447249733e-05 -0.0012478279312626917 0 1.5934398281654588e-05 -0.0013096417566573466 0 -8.3293132962271242e-05 -0.0013905773073154732 0 0.00045575354352704573 -0.0022228538642669288 0 0.00039838535214396315 -0.002301783849949 0 0.00039932935242493794 -0.0021316861180234259 0 -0.00045834191707298609 -0.0022192235947937154 0 -0.0005076439519479095 -0.0021298852094176583 0 -0.0004005678490560568 -0.0021251818873827496 0 0.00036004715186104848 -0.00082135588103339821 0 0.00042096740847183362 -0.00091646326939690719 0 0.00032878031548921324 -0.00089908874301985965 0 -0.00035671110174060862 -0.00081776381329451864 0 -0.00029403431565435772 -0.00073358285578468063 0 -0.00032536140345726801 -0.00089299070872448261 0 -0.00012991415777004932 -0.0010010348073883439 0 -0.00021490823268344766 -0.0010770381206913556 0 -0.00020332811907388496 -0.00091956215742254013 0 -3.0302231066317321e-05 -0.003028023188843371 0 -2.8353907779484356e-05 -0.0028715804604974443 0 5.4734666149376534e-05 -0.002983164177508631 0 -0.00089808926101883949 -0.0015633363772851083 0 -0.00081729049189296487 -0.0015458305773214977 0 -0.00088432534525319077 -0.0016778153811252668 0 0.00090472234678633473 -0.0016476722216291909 0 0.000823203808905732 -0.0016270234448429362 0 0.00087108686996523676 -0.0015227611397935663 0 6.3653135431846993e-06 -0.00013584352185768794 0 1.0034608344151342e-05 -0.00024325028607647284 0 -1.4112031647604123e-05 -0.00016627283768959106 0 -0.00012906490326022288 -0.0020761920552538993 0 -0.00016642160718476559 -0.002199276096997522 0 -0.00021463794687148091 -0.0020428821077476821 0 -0.00025848590305665623 -0.0021744199913644813 0 -0.00021463794687148091 -0.0020428821077476821 0 -0.00016642160718476559 -0.002199276096997522 0 0.00016441106609672553 -0.0016397382487520259 0 0.00011910845487808356 -0.0015177336624381565 0 0.00021208921838367588 -0.0015550643828806309 0 0.00075210899191405494 -0.0032439218186202179 0 0.00065230786871544547 -0.0032480418231903029 0 0.00070929267432635044 -0.0030974510612316402 0 -0.0010412882116868161 -0.0027390573850091236 0 -0.001042049652073889 -0.0025765054535553775 0 -0.00096348204358184255 -0.0026633840963621873 0 0.00065681908015474894 -0.00061657288240697227 0 0.00075700931628932535 -0.00076238302616466543 0 0.00065519261615799883 -0.00063806111816950553 0 -2.404945514110646e-08 -1.0437617809077159e-07 0 -3.4753355814110706e-08 -1.1898560731119135e-07 0 -9.9016951757902255e-05 -8.9040885537636195e-05 0 0.0010419016947698157 -0.0025767232637774621 0 0.0010411402155380469 -0.0027391596865871432 0 0.00097169187182581142 -0.0026399367981783822 0 3.4150477259319826e-08 -1.1903636674803725e-07 0 2.420658436598714e-08 -1.056998850345626e-07 0 9.8275639907208768e-05 -8.8813798836938294e-05 0 -0.00065274535276904741 -0.0032479593347978495 0 -0.00075239214397282742 -0.0032439654711449734 0 -0.0006947671566607498 -0.0031134753734127396 0 -0.00075726463324735538 -0.00076249837952372247 0 -0.0006555597726245866 -0.00061740488254148878 0 -0.00065372980666470024 -0.0006353544111146654 0 0.00032916582775647369 -0.0021887841830058779 0 0.00039932935242493794 -0.0021316861180234259 0 0.00039838535214396315 -0.002301783849949 0 -0.00044016677758208582 -0.0020175292472254902 0 -0.0004005678490560568 -0.0021251818873827496 0 -0.0005076439519479095 -0.0021298852094176583 0 0.00037914713909121558 -0.0010107449852539403 0 0.00032878031548921324 -0.00089908874301985965 0 0.00042096740847183362 -0.00091646326939690719 0 -0.00025779292401430654 -0.00082759569797220638 0 -0.00032536140345726801 -0.00089299070872448261 0 -0.00029403431565435772 -0.00073358285578468063 0 -5.3413338026903128e-06 -0.0026917741293852435 0 -2.8353907779484356e-05 -0.0028715804604974443 0 -0.00010584371702942616 -0.002747035489839515 0 -0.00072254879142488509 -0.001556086942144885 0 -0.00081729049189296487 -0.0015458305773214977 0 -0.0007396368166882949 -0.0014165892346063456 0 0.00072343695061106354 -0.0015715400340005035 0 0.000823203808905732 -0.0016270234448429362 0 0.00076252101840584038 -0.0017248452836664116 0 3.0940104126750065e-06 -0.00037639976908507685 0 1.0034608344151342e-05 -0.00024325028607647284 0 4.7143473932751536e-05 -0.00033487104002220055 0 0.00045575354352704573 -0.0022228538642669288 0 0.00039932935242493794 -0.0021316861180234259 0 0.0004826112678410179 -0.0020618792403846887 0 -0.00045834191707298609 -0.0022192235947937154 0 -0.0004005678490560568 -0.0021251818873827496 0 -0.00035671299094628897 -0.0022629977857933341 0 0.00036004715186104848 -0.00082135588103339821 0 0.00032878031548921324 -0.00089908874301985965 0 0.00026947389979597514 -0.00076679273947946071 0 -0.00035671110174060862 -0.00081776381329451864 0 -0.00032536140345726801 -0.00089299070872448261 0 -0.00041112532270231228 -0.00097901029442354413 0 0.00090839603956941351 -0.0021094089662048923 0 0.00097848432879184201 -0.00204685314507727 0 0.00098292554091729202 -0.0021583230223671877 0 8.6294954443402199e-05 -0.0001583791080656904 0 3.4410213417236727e-05 -6.7361366115626078e-05 0 4.3149066277266224e-05 -6.5412906142558669e-05 0 -0.00081075069575152069 -0.0011037408183975357 0 -0.00089434228096558165 -0.0012020827035340471 0 -0.00086944463508161732 -0.0010990552357873419 0 -0.00035409720840151815 -0.0029991178024060664 0 -0.00030585127175543765 -0.0031385617427617829 0 -0.00038199504219757089 -0.0031422817587733599 0 0.0010373706186572783 -0.0020946086799056396 0 0.0010399564616702852 -0.0022533906662217519 0 0.00098292554091729202 -0.0021583230223671877 0 1.4586547878830413e-08 -1.1313909601407763e-07 0 1.2646722567508618e-08 -1.1850303870988934e-07 0 4.3149066277266224e-05 -6.5412906142558669e-05 0 -0.0003346931102146549 -0.0032550747218030047 0 -0.00044310051663350668 -0.0032533559801106939 0 -0.00038199504219757089 -0.0031422817587733599 0 -0.0009377981088556761 -0.0011888200793257302 0 -0.00089220372423998477 -0.0010487855322158055 0 -0.00086944463508161732 -0.0010990552357873419 0 -0.00097154586568593427 -0.0013328346470627493 0 -0.0009377981088556761 -0.0011888200793257302 0 -0.00089434228096558165 -0.0012020827035340471 0 -0.00022444179360120277 -0.003256252424247116 0 -0.0003346931102146549 -0.0032550747218030047 0 -0.00030585127175543765 -0.0031385617427617829 0 1.1390405325230944e-08 -1.1288159142722795e-07 0 1.4586547878830413e-08 -1.1313909601407763e-07 0 3.4410213417236727e-05 -6.7361366115626078e-05 0 0.0010322036516907231 -0.0019376080314302379 0 0.0010373706186572783 -0.0020946086799056396 0 0.00097848432879184201 -0.00204685314507727 0 0.00069232334821375449 -0.0029521661973197066 0 0.00076374072538383823 -0.0028297217935101772 0 0.00076560612633309985 -0.0029505967940720254 0 -0.00088464324973914251 -0.0026309256908007817 0 -0.00081446727264893959 -0.0027451012827583643 0 -0.00088263468956149805 -0.0027524928763078059 0 0.00033784747729958501 -0.00027418185125592488 0 0.00033912890783613944 -0.00032819208673642717 0 0.00026909717545495459 -0.00023338504149428879 0 -0.00034128959290465516 -0.00027838739703193901 0 -0.00043663177721366397 -0.00042303859032336672 0 -0.00046658945081323711 -0.00042449197810506362 0 0.00022376734094597896 -0.0023533319619263751 0 0.00024658383719476266 -0.002216672898019508 0 0.00032239765931406074 -0.0023545856392230002 0 0.00032916582775647369 -0.0021887841830058779 0 0.00032239765931406074 -0.0023545856392230002 0 0.00024658383719476266 -0.002216672898019508 0 -0.0005407994300724475 -0.0018651798183329372 0 -0.00045823027451504807 -0.0018910742996532215 0 -0.00054227501728851442 -0.0020163267823695525 0 -0.00044016677758208582 -0.0020175292472254902 0 -0.00054227501728851442 -0.0020163267823695525 0 -0.00045823027451504807 -0.0018910742996532215 0 0.00049638236907729083 -0.0011884944435799681 0 0.00041348988687081177 -0.001139220149037682 0 0.00047308579376450718 -0.0010386563641221302 0 0.00037914713909121558 -0.0010107449852539403 0 0.00047308579376450718 -0.0010386563641221302 0 0.00041348988687081177 -0.001139220149037682 0 -0.00015717456965736243 -0.00066640102089698169 0 -0.00018853289581304716 -0.0007917349406910229 0 -0.00022713755515088428 -0.00067458041791240394 0 -0.00025779292401430654 -0.00082759569797220638 0 -0.00022713755515088428 -0.00067458041791240394 0 -0.00018853289581304716 -0.0007917349406910229 0 0.00071990744554612743 -0.0026671755788356451 0 0.00076374072538383812 -0.0028297217935101767 0 0.00068635960991719508 -0.002797862076730231 0 -0.00072019420742712361 -0.0026670901157550813 0 -0.00081446727264893959 -0.0027451012827583643 0 -0.00079743138834637755 -0.002615282620742163 0 0.00069860229468738267 -0.0017886259243829507 0 0.00076252101840584038 -0.0017248452836664116 0 0.00076055353539314949 -0.0018849536069618521 0 -0.00015758079937535521 -0.0026273466257656117 0 -0.00010584371702942617 -0.002747035489839515 0 -0.0002161788111254103 -0.0027332484165627905 0 8.2649700850686975e-05 -0.0004288866941226623 0 4.7143473932751543e-05 -0.00033487104002220055 0 9.6256477488068054e-05 -0.00034827644515253995 0 -0.00066434927411479613 -0.0013236985998956248 0 -0.0007396368166882949 -0.0014165892346063456 0 -0.00071073864712233124 -0.0012530743090508965 0 -2.5888950661531194e-06 -0.0010345964845290048 0 -6.9148580577813767e-05 -0.0010937856403515098 0 -5.1827498303070963e-05 -0.00093423284351348769 0 -0.00012991415777004932 -0.0010010348073883439 0 -5.1827498303070963e-05 -0.00093423284351348769 0 -6.9148580577813767e-05 -0.0010937856403515098 0 -0.0003161227993587604 -0.0027160163607644109 0 -0.0002161788111254103 -0.0027332484165627905 0 -0.00027483886960976176 -0.002872361538707474 0 0.00075338359539072375 -0.00203223271987739 0 0.00076055353539314949 -0.0018849536069618521 0 0.00083874016685414013 -0.0019836807965019966 0 -0.00067417661241629364 -0.001101880100633044 0 -0.00071073864712233124 -0.0012530743090508965 0 -0.00077004590798248642 -0.0011919547990012081 0 0.00014784547618287882 -0.00036730978161191995 0 9.6256477488068054e-05 -0.00034827644515253995 0 9.5373180155311496e-05 -0.00024653863249657506 0 0.00031605344099297126 -0.0015108471923066568 0 0.00026468650114043008 -0.001686686751424146 0 0.00021208921838367588 -0.0015550643828806309 0 0.00032916582775647369 -0.0021887841830058779 0 0.00024658383719476266 -0.002216672898019508 0 0.00024721224697111242 -0.0020784424247505397 0 -0.00044016677758208582 -0.0020175292472254902 0 -0.00045823027451504807 -0.0018910742996532215 0 -0.00037690757955132403 -0.0018816657408585657 0 0.00037914713909121558 -0.0010107449852539403 0 0.00041348988687081177 -0.001139220149037682 0 0.00032990392524107699 -0.0011260827925070869 0 -0.00025779292401430654 -0.00082759569797220638 0 -0.00018853289581304716 -0.0007917349406910229 0 -0.00020332811907388496 -0.00091956215742254013 0 -0.00023931193922303989 -0.0023551208043293042 0 -0.00025692034494519025 -0.0025629076842970475 0 -0.00032151170512004852 -0.002474815918900516 0 0.00054226403080782795 -0.0018883603979549003 0 0.00066501560064560793 -0.0019312507848530773 0 0.00061414861929255877 -0.0020225110814965793 0 -0.00049435674108574935 -0.0011655481436569637 0 -0.00060730982183748402 -0.0011657678016626003 0 -0.00053956747856691268 -0.0010559024050971727 0 0.00016704799540472878 -0.00066428331306672553 0 0.00014817895760712939 -0.00048760729926872832 0 0.00020393789121756615 -0.00056719578331910255 0 -8.1866027447249733e-05 -0.0012478279312626917 0 -8.3293132962271242e-05 -0.0013905773073154732 0 -0.0001627796370791006 -0.0013038394702321566 0 0.00010957646941154747 -0.00091331876215836744 0 5.047471667656341e-05 -0.00078969990735940879 0 0.00012556835993703536 -0.00079872728013727216 0 0.00019463576820125309 -0.0014236187856194386 0 0.00011910845487808356 -0.0015177336624381565 0 0.00010291761501578741 -0.0013663961927440863 0 -0.00031843945419734093 -0.0020316593098770354 0 -0.00037690757955132403 -0.0018816657408585657 0 -0.00029080577777993778 -0.0018669660634788971 0 0.00019463576820125309 -0.0014236187856194386 0 0.00021208921838367588 -0.0015550643828806309 0 0.00011910845487808356 -0.0015177336624381565 0 0.00011243564341537847 -0.0032567049351947095 0 -9.6809237434016919e-08 -0.0032566897078434168 0 3.3878312437150333e-05 -0.0031252788095637242 0 -0.0010247399187703816 -0.0017818072893697641 0 -0.0010118427295732083 -0.0016292790359508521 0 -0.00095372903903795923 -0.0016630678446426176 0 0.0009953736262011128 -0.0014801754433462098 0 0.0010117858117917424 -0.001630078387157447 0 0.00094535541584299398 -0.0015702071757298264 0 -4.1723947385698249e-09 -1.1320744328276064e-07 0 3.2438507733420868e-09 -1.1513784082109501e-07 0 -3.6990246249562553e-06 -7.5159447530865668e-05 0 0.00061435295656118473 -0.0017679200660212645 0 0.00058353285157100598 -0.0016481942123415725 0 0.00066572889896528598 -0.0016656197565820471 0 -0.00015295031319368345 -0.00248131129333563 0 -7.7066829497340116e-05 -0.0024354946352020458 0 -7.7914759810771388e-05 -0.0025779888483127467 0 9.467414679924211e-05 -0.00054868063921653177 0 4.7786998803095949e-05 -0.00058434534780507728 0 4.3604846892664474e-05 -0.00046698665622717597 0 -0.0005828919852298944 -0.0013110218592660107 0 -0.00056809624959666216 -0.001419267416324225 0 -0.00064973528034444701 -0.001435107464938186 0 0.00010957646941154747 -0.00091331876215836744 0 2.7401239282120462e-05 -0.00090695835851733119 0 5.047471667656341e-05 -0.00078969990735940879 0 -0.00014399614048749799 -0.0016687068487579915 0 -4.5419542717553793e-05 -0.0016558613563762276 0 -0.00011223353195407428 -0.0017841319084018184 0 7.1610653280699788e-06 -0.001487064152685317 0 -0.00010409190998440748 -0.001537460702793327 0 -8.3293132962271242e-05 -0.0013905773073154732 0 -1.9837259102738314e-07 -3.3401872872219444e-07 0 -0.00015329137809104974 -0.00011034824275188631 0 -0.00033500869535421272 -0.00026905264948196895 0 1.9907472221551943e-07 -3.3409851732297205e-07 0 0.0001536758219737957 -0.00011050358968541822 0 -3.2008353161719079e-09 -9.7977601753113829e-08 0 1.9907472221551943e-07 -3.3409851732297205e-07 0 0.00033536074116824493 -0.0002688598439171203 0 0.00015367582197379573 -0.00011050358968541825 0 -1.9837259102738314e-07 -3.3401872872219444e-07 0 2.6861640418965791e-09 -9.7549331169192745e-08 0 -0.00015329137809104974 -0.00011034824275188631 0 0.0010310468993782918 -0.003227785513821219 0 0.00094139242452435554 -0.0032333205778979318 0 0.00097659019730690871 -0.0031251150983525517 0 0.0010310468993782918 -0.003227785513821219 0 0.00097659019730690871 -0.0031251150983525517 0 0.0010357096914822342 -0.0030648929755162043 0 -0.0010313415942657784 -0.0032276981759133492 0 -0.00098026605105870222 -0.0031312283784005251 0 -0.00094176827055196272 -0.0032333017109710954 0 -0.0010313415942657784 -0.0032276981759133492 0 -0.0010360742687689443 -0.0030649297323910004 0 -0.00098026605105870222 -0.0031312283784005251 0 -0.00031338144368443923 -0.0017329185006115632 0 -0.000222436034086908 -0.0016125037006643739 0 -0.00021436311121302628 -0.0017595882478782729 0 -0.00019617220765405554 -0.0014568332566076065 0 -0.00026308564999929216 -0.0013478153120978734 0 -0.0001627796370791006 -0.0013038394702321566 0 -0.00021920739070660188 -0.0012092333230913359 0 -0.0001627796370791006 -0.0013038394702321566 0 -0.00026308564999929216 -0.0013478153120978734 0 0.00024669647827631159 -0.002969969966467804 0 0.00030847244531455456 -0.00310079121947265 0 0.00020957873419974273 -0.0031118400062711952 0 -0.00088995717852928362 -0.0019505218761983868 0 -0.00095996092806208697 -0.0020492421153061407 0 -0.00096085496872384021 -0.0019082906320619548 0 0.00082908360339756996 -0.0012520624380184715 0 0.00087590426183099552 -0.0011903767420721879 0 0.00090715555953298861 -0.0013275485739508148 0 -6.4104008941534452e-05 -0.00017618572939321736 0 -4.5790986572084227e-05 -9.0317731785110477e-05 0 -2.9371560508943093e-05 -8.4197432751994254e-05 0 0.00038034244035246005 -0.0024780393467478861 0 0.00039838535214396315 -0.002301783849949 0 0.00047588267708578816 -0.0023869989273894833 0 -0.00061593219225619721 -0.0021138686626945911 0 -0.0005076439519479095 -0.0021298852094176583 0 -0.00055951324870396062 -0.0022578900371561508 0 0.00052285730181971467 -0.00096661369770555778 0 0.00042096740847183362 -0.00091646326939690719 0 0.00043728944770825436 -0.00080811553180693799 0 -0.00024460271791092002 -0.00057210946238255413 0 -0.00029403431565435772 -0.00073358285578468063 0 -0.00033523602681110958 -0.00066700023036246701 0 0.00010209360288375761 -0.0012152992785574952 0 0.00010291761501578741 -0.0013663961927440863 0 1.5934398281654588e-05 -0.0013096417566573466 0 -0.00029468107119600399 -0.0010075511551268486 0 -0.00020332811907388496 -0.00091956215742254013 0 -0.00021490823268344766 -0.0010770381206913556 0 0.00044291540573926624 -0.0032534190698885676 0 0.00039370151822145592 -0.0031416816248036649 0 0.00048356850363416814 -0.0030845470200791718 0 -0.0010403247274573457 -0.0022535464647827621 0 -0.00098311543985045088 -0.0021762222492569452 0 -0.00095540331408264093 -0.002308124753102948 0 0.00039712881605498878 -0.0030143480141782203 0 0.00048356850363416814 -0.0030845470200791718 0 0.00039370151822145592 -0.0031416816248036649 0 -0.00091746372197136895 -0.0021746381506941421 0 -0.00095540331408264093 -0.002308124753102948 0 -0.00098311543985045088 -0.0021762222492569452 0 0.0008927768695989938 -0.0010484164129462162 0 0.00086424340959558239 -0.001082462889524647 0 0.00079361440498049824 -0.00094106076695387971 0 -1.2654127156102873e-08 -1.1681114080679418e-07 0 -4.4227959988590047e-05 -6.7206672275737757e-05 0 -8.3936982749002013e-05 -0.0001081743579856913 0 0.00080164347435009772 -0.001045312713900747 0 0.00079361440498049824 -0.00094106076695387971 0 0.00086424340959558239 -0.001082462889524647 0 -9.1012746842201352e-05 -0.00014878319331221155 0 -8.3936982749002013e-05 -0.0001081743579856913 0 -4.4227959988590047e-05 -6.7206672275737757e-05 0 0.00089407482463635043 -0.002635019537462628 0 0.00081444294236581881 -0.0026067052705929976 0 0.00086746667412670217 -0.0025031676487007907 0 -0.00069471471648318672 -0.0029698990518185961 0 -0.0006807466170460245 -0.0028280898924208132 0 -0.00061409032947208782 -0.0029217421741925538 0 0.00058710250512929055 -0.0021451620802717961 0 0.00061414861929255877 -0.0020225110814965793 0 0.00067961517721099203 -0.0021329281354974523 0 -0.00040250967490274378 -0.0024308917252204142 0 -0.00032151170512004852 -0.002474815918900516 0 -0.00038864943781322813 -0.0025861927714043789 0 0.00027066088603543365 -0.00061669126446637365 0 0.00020393789121756615 -0.00056719578331910255 0 0.00022108120329667128 -0.00047853333235214088 0 -0.00048924587706303572 -0.00092702928883021073 0 -0.00053956747856691268 -0.0010559024050971727 0 -0.00057896355961091592 -0.00096991510858831891 0 0.00021129406960991085 -0.00019942791659451875 0 0.00029577079927269148 -0.00032111357480569614 0 0.00021078755092814521 -0.00024051211370764998 0 -0.00057371673421611818 -0.00056582058543318855 0 -0.00051913301491893042 -0.00055530825442500506 0 -0.00062037456493535417 -0.00068532618793463952 0 -0.00012991415777004932 -0.0010010348073883439 0 -6.9148580577813767e-05 -0.0010937856403515098 0 -0.00014463784417201094 -0.0011599155699812734 0 -0.00014539244651900324 -0.0029146462175319988 0 -0.00010584371702942616 -0.002747035489839515 0 -2.8353907779484356e-05 -0.0028715804604974443 0 -0.00082257061916729969 -0.0013852788135271707 0 -0.0007396368166882949 -0.0014165892346063456 0 -0.00081729049189296487 -0.0015458305773214977 0 0.00085558479344070956 -0.0017992975705072769 0 0.00076252101840584038 -0.0017248452836664116 0 0.000823203808905732 -0.0016270234448429362 0 4.4891167429477381e-05 -0.00021292379847141267 0 4.7143473932751543e-05 -0.00033487104002220055 0 1.0034608344151342e-05 -0.00024325028607647284 0 3.3846394468416354e-05 -0.0021839354538137042 0 -2.1388033093802386e-05 -0.0023281442351469933 0 -7.4703180783760445e-05 -0.0021953227767947709 0 -0.0001198050640719008 -0.0023288369020758462 0 -7.4703180783760445e-05 -0.0021953227767947709 0 -2.1388033093802386e-05 -0.0023281442351469933 0 -0.00043108193148102978 -0.001562924109993587 0 -0.00051208379225709964 -0.0014918098399717495 0 -0.00042791428920718744 -0.0013975740883075188 0 -0.00050058925361039903 -0.0013434461479878549 0 -0.00042791428920718744 -0.0013975740883075186 0 -0.00051208379225709964 -0.0014918098399717495 0 0.0004318887805151651 -0.0014590808433939473 0 0.00051653552481203404 -0.0015478882758556797 0 0.0004348210908565798 -0.0016123026671655014 0 0.00052250522460798611 -0.0017047363891243999 0 0.0004348210908565798 -0.0016123026671655014 0 0.00051653552481203404 -0.0015478882758556797 0 0.00039712881605498878 -0.0030143480141782203 0 0.00032416031679994645 -0.0029566708695934894 0 0.00038046205235071158 -0.0028375538080425292 0 -0.00091746372197136895 -0.0021746381506941421 0 -0.0008851589802140262 -0.00206275273341359 0 -0.00082206802600482754 -0.0021381725381918915 0 0.00080164347435009772 -0.001045312713900747 0 0.00079557478612191773 -0.0011378349816540754 0 0.00071672174913675515 -0.0010289710589525699 0 -9.1012746842201352e-05 -0.00014878319331221155 0 -8.8840695770074933e-05 -0.00018774205667585131 0 -0.00014484829482884083 -0.0002763758928495561 0 0.00031586844318502488 -0.0027159683384404601 0 0.00038046205235071158 -0.0028375538080425292 0 0.00028198859890674451 -0.0028282992885912059 0 -0.00075363387772362292 -0.0020322132710827389 0 -0.00082206802600482754 -0.0021381725381918915 0 -0.00081503413652372631 -0.001991007452208024 0 0.00067387485662559704 -0.0011024552157967407 0 0.00071672174913675515 -0.0010289710589525699 0 0.00074458824429247917 -0.0011730034558022579 0 -0.00014782305583517521 -0.00036643392606758448 0 -0.00014484829482884086 -0.0002763758928495561 0 -0.00010766511040513007 -0.00027924808335590416 0 -8.1866027447249733e-05 -0.0012478279312626917 0 9.9429795375323112e-06 -0.0011587468626148034 0 1.5934398281654588e-05 -0.0013096417566573466 0 0.00077542318382708985 -0.0022153359051566017 0 0.0008282564982835238 -0.0021170332760859375 0 0.00086069197783284477 -0.0022193362944291292 0 -0.00043522634583022929 -0.0027534312584285166 0 -0.00036579409975633808 -0.0028497226063425975 0 -0.00043118982838015045 -0.0029079310235151372 0 0.00019670885238372234 -0.00034413683664328545 0 0.00013637931840605291 -0.00026669513041469202 0 0.00014261947380535348 -0.00022587738445929074 0 -0.0006494363715276283 -0.00092943510691220125 0 -0.00072811088153705323 -0.0010539219810020944 0 -0.0007324968075437438 -0.00096952536710128139 0 0.00062541298593638895 -0.0026934030237760476 0 0.00068635960991719508 -0.002797862076730231 0 0.00061781039039763533 -0.0028653869784142864 0 -0.00073848047770921237 -0.0025118337400699886 0 -0.00079743138834637765 -0.002615282620742163 0 -0.00083671000350851721 -0.0025070444618682467 0 0.00038034244035246005 -0.0024780393467478861 0 0.00032239765931406074 -0.0023545856392230002 0 0.00039838535214396315 -0.002301783849949 0 -0.00061593219225619721 -0.0021138686626945911 0 -0.00054227501728851442 -0.0020163267823695525 0 -0.0005076439519479095 -0.0021298852094176583 0 0.00052285730181971467 -0.00096661369770555778 0 0.00047308579376450718 -0.0010386563641221302 0 0.00042096740847183362 -0.00091646326939690719 0 -0.00024460271791092002 -0.00057210946238255413 0 -0.00022713755515088431 -0.00067458041791240394 0 -0.00029403431565435772 -0.00073358285578468063 0 -0.00012906490326022288 -0.0020761920552538993 0 -0.0001020572269512351 -0.0019367248629163229 0 -4.9914640588378414e-05 -0.0020683317825933496 0 0.00044291540573926624 -0.0032534190698885676 0 0.00033450191967582639 -0.0032549918464175333 0 0.00039370151822145592 -0.0031416816248036649 0 -0.0010403247274573457 -0.0022535464647827621 0 -0.0010376064632637281 -0.0020950069551818021 0 -0.00098311543985045088 -0.0021762222492569452 0 0.0008927768695989938 -0.0010484164129462162 0 0.0009378881296511686 -0.0011876763773148581 0 0.00086424340959558239 -0.001082462889524647 0 -1.2654127156102873e-08 -1.1681114080679418e-07 0 -1.7636974126354541e-08 -1.1419456720676957e-07 0 -4.4227959988590047e-05 -6.7206672275737757e-05 0 -2.5888950661531194e-06 -0.0010345964845290048 0 -5.1827498303070963e-05 -0.00093423284351348769 0 2.7401239282120462e-05 -0.00090695835851733119 0 -9.6809237434016919e-08 -0.0032566897078434168 0 -0.00011252348272714093 -0.0032564594694454636 0 -5.6546441430257463e-05 -0.0031529316254977754 0 -0.0010118427295732083 -0.0016292790359508521 0 -0.00099407259142711467 -0.0014805621764920885 0 -0.00095524254538428724 -0.0015422989327859417 0 0.0010117858117917424 -0.0016300783871574472 0 0.0010233186116363237 -0.0017819969000574874 0 0.00096893923022504187 -0.0016971994877162751 0 3.2438507733420868e-09 -1.1513784082109501e-07 0 -2.5594433409089245e-10 -1.1809077790648968e-07 0 6.1830481682040216e-06 -5.8726536975947404e-05 0 0.00058228540892648511 -0.00057804358933572463 0 0.00060620189461949687 -0.00066949787035045817 0 0.00051815421038547006 -0.00055507242071317262 0 -0.00020315840861928231 -0.00019587401124660026 0 -0.00022250403585302771 -0.00025285873933677806 0 -0.00029681470170886306 -0.00032315716678928006 0 -2.8992312573612436e-05 -0.00079161720282038656 0 2.7401239282120462e-05 -0.00090695835851733119 0 -5.1827498303070963e-05 -0.00093423284351348769 0 0.00019463576820125309 -0.0014236187856194386 0 0.00019660595586877064 -0.0012785506328176612 0 0.00027047382525777317 -0.0013714364794754628 0 0.00029361237152351151 -0.0012634752592995625 0 0.00027047382525777317 -0.0013714364794754628 0 0.00019660595586877064 -0.0012785506328176612 0 -0.00099407259142711467 -0.0014805621764920885 0 -0.00091858534154892475 -0.0014282452233470451 0 -0.00095524254538428724 -0.0015422989327859417 0 -0.00011252348272714093 -0.0032564594694454636 0 -0.00013534945337164407 -0.0031030643414114117 0 -5.6546441430257463e-05 -0.0031529316254977754 0 -2.5594433409089245e-10 -1.1809077790648968e-07 0 2.0090415629054281e-05 -8.9058139751214141e-05 0 6.1830481682040216e-06 -5.8726536975947404e-05 0 0.0010233186116363237 -0.0017819969000574874 0 0.00095108569159535624 -0.0018025411177898913 0 0.00096893923022504187 -0.0016971994877162751 0 0.00016085795393299868 -0.0021845093866974113 0 0.00024721224697111242 -0.0020784424247505397 0 0.00024658383719476266 -0.002216672898019508 0 -0.00043514533086786182 -0.0017519564243266897 0 -0.00037690757955132403 -0.0018816657408585657 0 -0.00045823027451504807 -0.0018910742996532215 0 0.00040908319440862383 -0.0012702795161300771 0 0.00032990392524107699 -0.0011260827925070869 0 0.00041348988687081177 -0.001139220149037682 0 -0.0001232023442121476 -0.00081535370201450946 0 -0.00020332811907388496 -0.00091956215742254013 0 -0.00018853289581304716 -0.0007917349406910229 0 -0.00031338144368443923 -0.0017329185006115632 0 -0.00029080577777993778 -0.0018669660634788971 0 -0.00037690757955132403 -0.0018816657408585657 0 -0.00014399614048749799 -0.0016687068487579915 0 -0.0002143631112130263 -0.0017595882478782729 0 -0.000222436034086908 -0.0016125037006643739 0 0.00038034244035246005 -0.0024780393467478861 0 0.00047588267708578816 -0.0023869989273894833 0 0.00044741430615139973 -0.0025488761411231659 0 -0.00061593219225619721 -0.0021138686626945911 0 -0.00055951324870396062 -0.0022578900371561508 0 -0.00065678171256011134 -0.0022222739738970878 0 0.00052285730181971467 -0.00096661369770555778 0 0.00043728944770825436 -0.00080811553180693799 0 0.00053495542158802604 -0.00087367659748608913 0 -0.00024460271791092002 -0.00057210946238255413 0 -0.00033523602681110958 -0.00066700023036246701 0 -0.00027085671015212117 -0.00051999527548876395 0 -0.00029468107119600399 -0.0010075511551268486 0 -0.00021490823268344766 -0.0010770381206913556 0 -0.00029689423068103603 -0.001161855687914931 0 0.00039712881605498878 -0.0030143480141782203 0 0.00038046205235071158 -0.0028375538080425292 0 0.00045725511727555862 -0.0029098682594072985 0 -0.00091746372197136895 -0.0021746381506941421 0 -0.00082206802600482754 -0.0021381725381918915 0 -0.00086234438881771221 -0.0022591271523035566 0 0.00080164347435009772 -0.001045312713900747 0 0.00071672174913675515 -0.0010289710589525699 0 0.00071719841918335236 -0.00092772310593578411 0 -9.1012746842201352e-05 -0.00014878319331221155 0 -0.00014484829482884083 -0.0002763758928495561 0 -0.000152731610395421 -0.00023075813102131268 0 7.7844604250071618e-05 -0.0028534194275454693 0 0.00015552059257606174 -0.002946186436051797 0 5.4734666149376534e-05 -0.002983164177508631 0 -0.00081823390693933626 -0.001696254169108385 0 -0.0008726769521251441 -0.0018172767162498004 0 -0.00088432534525319077 -0.0016778153811252668 0 -2.8460074161766258e-05 -0.000256731652395844 0 -4.3360790946618454e-05 -0.00019318738488652184 0 -1.4112031647604123e-05 -0.00016627283768959106 0 -0.00021920739070660188 -0.0012092333230913359 0 -0.00029689423068103603 -0.001161855687914931 0 -0.00021490823268344766 -0.0010770381206913556 0 0.0010117858117917424 -0.0016300783871574472 0 0.00096893923022504187 -0.0016971994877162751 0 0.00094535541584299398 -0.0015702071757298264 0 3.2438507733420868e-09 -1.1513784082109501e-07 0 6.1830481682040216e-06 -5.8726536975947397e-05 0 -3.6990246249562553e-06 -7.5159447530865668e-05 0 0.00090472234678633473 -0.0016476722216291909 0 0.00094535541584299398 -0.0015702071757298264 0 0.00096893923022504187 -0.0016971994877162751 0 6.3653135431846993e-06 -0.00013584352185768794 0 -3.6990246249562553e-06 -7.5159447530865654e-05 0 6.1830481682040216e-06 -5.8726536975947404e-05 0 -0.0010118427295732083 -0.0016292790359508521 0 -0.00095524254538428724 -0.0015422989327859417 0 -0.00095372903903795923 -0.0016630678446426176 0 -9.6809237434016919e-08 -0.0032566897078434168 0 -5.6546441430257463e-05 -0.0031529316254977754 0 3.3878312437150333e-05 -0.0031252788095637242 0 -3.0302231066317321e-05 -0.003028023188843371 0 3.387831243715034e-05 -0.0031252788095637242 0 -5.6546441430257463e-05 -0.0031529316254977754 0 -0.00089808926101883949 -0.0015633363772851083 0 -0.00095372903903795923 -0.0016630678446426176 0 -0.00095524254538428724 -0.0015422989327859417 0 0.00011962519474802375 -0.0030743334207075676 0 5.4734666149376534e-05 -0.002983164177508631 0 0.00015552059257606174 -0.002946186436051797 0 -0.00093552070089667296 -0.0017782012519476527 0 -0.00088432534525319077 -0.0016778153811252668 0 -0.0008726769521251441 -0.0018172767162498004 0 -1.9731948151809146e-05 -0.00010974308676077522 0 -1.4112031647604125e-05 -0.00016627283768959106 0 -4.3360790946618454e-05 -0.00019318738488652184 0 0.00045070199168383219 -0.0027101545758653435 0 0.0003818366856703936 -0.0026201264503346341 0 0.00044741430615139973 -0.0025488761411231659 0 -0.00075093523652999556 -0.0022365993581632783 0 -0.00069926306310064373 -0.0021251885064011364 0 -0.00065678171256011134 -0.0022222739738970878 0 0.00061918034943510931 -0.00089723767149772022 0 0.0005995746084191695 -0.00098561316100757683 0 0.00053495542158802604 -0.00087367659748608913 0 -0.00022021067769047718 -0.00038185126760319698 0 -0.00020872804138695645 -0.00045092833337751327 0 -0.00027085671015212117 -0.00051999527548876395 0 -0.00035023466030698649 -0.0012987193098500968 0 -0.00026308564999929216 -0.0013478153120978734 0 -0.00035731950601266838 -0.001427997002043992 0 -0.0001198050640719008 -0.0023288369020758462 0 -7.7066829497340103e-05 -0.0024354946352020458 0 -0.00015295031319368345 -0.00248131129333563 0 0.00052250522460798611 -0.0017047363891243999 0 0.00058353285157100598 -0.0016481942123415725 0 0.00061435295656118473 -0.0017679200660212645 0 -0.00050058925361039903 -0.0013434461479878549 0 -0.00056809624959666216 -0.001419267416324225 0 -0.0005828919852298944 -0.0013110218592660107 0 8.3027161859495347e-05 -0.00067706091712654804 0 4.7786998803095949e-05 -0.00058434534780507728 0 9.467414679924211e-05 -0.00054868063921653177 0 0.00033450191967582639 -0.0032549918464175333 0 0.00030847244531455456 -0.00310079121947265 0 0.00039370151822145592 -0.0031416816248036649 0 -0.0010376064632637281 -0.0020950069551818021 0 -0.00095996092806208697 -0.0020492421153061407 0 -0.00098311543985045088 -0.0021762222492569452 0 0.0009378881296511686 -0.0011876763773148581 0 0.00087590426183099552 -0.0011903767420721879 0 0.00086424340959558239 -0.001082462889524647 0 -1.7636974126354541e-08 -1.1419456720676957e-07 0 -4.5790986572084227e-05 -9.0317731785110477e-05 0 -4.4227959988590047e-05 -6.7206672275737757e-05 0 0.00039712881605498878 -0.0030143480141782203 0 0.00039370151822145597 -0.0031416816248036644 0 0.00030847244531455456 -0.00310079121947265 0 -0.00091746372197136895 -0.0021746381506941421 0 -0.00098311543985045088 -0.0021762222492569452 0 -0.00095996092806208697 -0.0020492421153061407 0 0.00080164347435009772 -0.001045312713900747 0 0.00086424340959558239 -0.001082462889524647 0 0.00087590426183099552 -0.0011903767420721879 0 -9.1012746842201352e-05 -0.00014878319331221155 0 -4.4227959988590054e-05 -6.7206672275737771e-05 0 -4.5790986572084227e-05 -9.0317731785110477e-05 0 0.00090629201674709552 -0.0014460533434596107 0 0.00087108686996523676 -0.0015227611397935663 0 0.00083222938674483459 -0.0013745716170181161 0 0.00080065393087319148 -0.0014722388426846198 0 0.00083222938674483459 -0.0013745716170181161 0 0.00087108686996523676 -0.0015227611397935663 0 -1.8450923829322335e-05 -0.0018032612767307857 0 -0.0001020572269512351 -0.0019367248629163229 0 -0.00011223353195407428 -0.0017841319084018184 0 0.00010194378801002778 -0.002362880316809255 0 0.0001727469880682528 -0.0024717498346077992 0 8.5970046208155431e-05 -0.0025539836098974096 0 -0.00054217461216976689 -0.0016806490168883065 0 -0.00060945808871424483 -0.0017972055401648576 0 -0.00065261529730046826 -0.0016751324343965916 0 0.00052292701852191118 -0.0013733992634274367 0 0.00057331354627248622 -0.0012796009818428346 0 0.00063462466467682343 -0.001419832259937779 0 -7.0098039356067537e-05 -0.00064988756907645624 0 -0.0001079534022874121 -0.00055999886951017808 0 -4.8786274724238459e-05 -0.00048802028608433724 0 0.00016441106609672553 -0.0016397382487520259 0 0.00021208921838367586 -0.0015550643828806309 0 0.00026468650114043008 -0.001686686751424146 0 0.00038046205235071158 -0.0028375538080425292 0 0.00032416031679994651 -0.0029566708695934894 0 0.00028198859890674451 -0.0028282992885912059 0 -0.00082206802600482754 -0.0021381725381918915 0 -0.0008851589802140262 -0.00206275273341359 0 -0.00081503413652372631 -0.001991007452208024 0 0.00071672174913675515 -0.0010289710589525699 0 0.00079557478612191773 -0.0011378349816540754 0 0.00074458824429247917 -0.0011730034558022579 0 -0.00014484829482884083 -0.0002763758928495561 0 -8.8840695770074933e-05 -0.00018774205667585131 0 -0.00010766511040513007 -0.00027924808335590416 0 -1.8450923829322335e-05 -0.0018032612767307857 0 -0.00011223353195407428 -0.0017841319084018184 0 -4.5419542717553793e-05 -0.0016558613563762276 0 0.00090839603956941351 -0.0021094089662048923 0 0.00086069197783284477 -0.0022193362944291292 0 0.0008282564982835238 -0.0021170332760859375 0 8.6294954443402199e-05 -0.0001583791080656904 0 0.00014261947380535348 -0.00022587738445929074 0 0.00013637931840605294 -0.00026669513041469207 0 -0.00035409720840151815 -0.0029991178024060664 0 -0.00043118982838015045 -0.0029079310235151372 0 -0.00036579409975633808 -0.0028497226063425975 0 -0.00081075069575152069 -0.0011037408183975357 0 -0.0007324968075437438 -0.00096952536710128139 0 -0.00072811088153705323 -0.0010539219810020944 0 0.00024669647827631159 -0.002969969966467804 0 0.00032416031679994651 -0.0029566708695934894 0 0.00030847244531455456 -0.00310079121947265 0 -0.00088995717852928362 -0.0019505218761983868 0 -0.0008851589802140262 -0.00206275273341359 0 -0.00095996092806208697 -0.0020492421153061407 0 0.00082908360339756996 -0.0012520624380184715 0 0.00079557478612191784 -0.0011378349816540754 0 0.00087590426183099552 -0.0011903767420721879 0 -6.4104008941534452e-05 -0.00017618572939321736 0 -8.8840695770074933e-05 -0.00018774205667585131 0 -4.5790986572084227e-05 -9.0317731785110477e-05 0 0.00039712881605498878 -0.0030143480141782203 0 0.00030847244531455456 -0.00310079121947265 0 0.00032416031679994651 -0.0029566708695934894 0 -0.00091746372197136895 -0.0021746381506941421 0 -0.00095996092806208697 -0.0020492421153061407 0 -0.0008851589802140262 -0.00206275273341359 0 0.00080164347435009772 -0.001045312713900747 0 0.00087590426183099552 -0.0011903767420721879 0 0.00079557478612191773 -0.0011378349816540754 0 -9.1012746842201352e-05 -0.00014878319331221155 0 -4.5790986572084227e-05 -9.0317731785110477e-05 0 -8.8840695770074933e-05 -0.00018774205667585131 0 0.00015388561664546598 -0.0026145341704219096 0 8.5970046208155431e-05 -0.0025539836098974096 0 0.00017274698806825283 -0.0024717498346077992 0 -0.00069121039994671555 -0.0017820784712137409 0 -0.00065261529730046826 -0.0016751324343965916 0 -0.00060945808871424483 -0.0017972055401648576 0 0.000657564899341207 -0.0013270394441940105 0 0.00063462466467682343 -0.001419832259937779 0 0.00057331354627248622 -0.0012796009818428346 0 -8.1745892387058357e-05 -0.00044044579869198899 0 -4.8786274724238452e-05 -0.00048802028608433724 0 -0.0001079534022874121 -0.00055999886951017808 0 -0.00012906490326022288 -0.0020761920552538993 0 -7.4703180783760445e-05 -0.0021953227767947709 0 -0.00016642160718476559 -0.002199276096997522 0 -0.0001198050640719008 -0.0023288369020758462 0 -0.00016642160718476559 -0.002199276096997522 0 -7.4703180783760445e-05 -0.0021953227767947709 0 0.00036764213173629668 -0.0016998005071839095 0 0.0004348210908565798 -0.0016123026671655014 0 0.00044627237536046672 -0.0017619725097218748 0 -0.00035023466030698649 -0.0012987193098500968 0 -0.00042791428920718744 -0.0013975740883075188 0 -0.00042471269077074193 -0.0012701085608094905 0 0.00052250522460798611 -0.0017047363891243999 0 0.00044627237536046672 -0.0017619725097218748 0 0.0004348210908565798 -0.0016123026671655014 0 -0.00050058925361039903 -0.0013434461479878549 0 -0.00042471269077074193 -0.0012701085608094905 0 -0.00042791428920718744 -0.0013975740883075188 0 -8.1866027447249733e-05 -0.0012478279312626917 0 -6.9148580577813767e-05 -0.0010937856403515098 0 9.9429795375323112e-06 -0.0011587468626148034 0 -2.5888950661531194e-06 -0.0010345964845290048 0 9.9429795375323078e-06 -0.0011587468626148034 0 -6.9148580577813767e-05 -0.0010937856403515098 0 8.3027161859495347e-05 -0.00067706091712654804 0 0.00012556835993703536 -0.00079872728013727216 0 5.047471667656341e-05 -0.00078969990735940879 0 -2.8992312573612436e-05 -0.00079161720282038656 0 5.047471667656341e-05 -0.00078969990735940879 0 2.7401239282120462e-05 -0.00090695835851733119 0 -8.1866027447249733e-05 -0.0012478279312626917 0 -0.0001627796370791006 -0.0013038394702321566 0 -0.00014463784417201094 -0.0011599155699812734 0 -0.00021920739070660188 -0.0012092333230913359 0 -0.00014463784417201094 -0.0011599155699812734 0 -0.0001627796370791006 -0.0013038394702321566 0 0.00090629201674709552 -0.0014460533434596107 0 0.00094535541584299398 -0.0015702071757298264 0 0.00087108686996523676 -0.0015227611397935663 0 -1.9731948151809146e-05 -0.00010974308676077522 0 -3.6990246249562553e-06 -7.5159447530865668e-05 0 -1.4112031647604123e-05 -0.00016627283768959106 0 0.00090472234678633473 -0.0016476722216291909 0 0.00087108686996523676 -0.0015227611397935663 0 0.00094535541584299398 -0.0015702071757298264 0 6.3653135431846993e-06 -0.00013584352185768794 0 -1.4112031647604123e-05 -0.00016627283768959106 0 -3.6990246249562553e-06 -7.5159447530865668e-05 0 0.00011962519474802375 -0.0030743334207075676 0 3.3878312437150333e-05 -0.0031252788095637242 0 5.4734666149376534e-05 -0.002983164177508631 0 -0.00093552070089667296 -0.0017782012519476527 0 -0.00095372903903795923 -0.0016630678446426176 0 -0.00088432534525319077 -0.0016778153811252668 0 -3.0302231066317321e-05 -0.003028023188843371 0 5.4734666149376534e-05 -0.002983164177508631 0 3.3878312437150333e-05 -0.0031252788095637242 0 -0.00089808926101883949 -0.0015633363772851083 0 -0.00088432534525319077 -0.0016778153811252668 0 -0.00095372903903795923 -0.0016630678446426176 0 0.00045575354352704573 -0.0022228538642669288 0 0.00047588267708578816 -0.0023869989273894833 0 0.00039838535214396315 -0.002301783849949 0 -0.00045834191707298609 -0.0022192235947937154 0 -0.00055951324870396073 -0.0022578900371561508 0 -0.0005076439519479095 -0.0021298852094176583 0 0.00036004715186104848 -0.00082135588103339821 0 0.00043728944770825436 -0.00080811553180693799 0 0.00042096740847183362 -0.00091646326939690719 0 -0.00035671110174060862 -0.00081776381329451864 0 -0.00033523602681110958 -0.00066700023036246701 0 -0.00029403431565435772 -0.00073358285578468063 0 -2.8992312573612436e-05 -0.00079161720282038656 0 1.149564417738622e-05 -0.00067671854153917286 0 5.047471667656341e-05 -0.00078969990735940879 0 -1.0431608627481674e-07 -0.0024800518082503543 0 -7.7066829497340103e-05 -0.0024354946352020458 0 -2.1388033093802386e-05 -0.0023281442351469933 0 -0.0001198050640719008 -0.0023288369020758462 0 -2.1388033093802386e-05 -0.0023281442351469933 0 -7.7066829497340103e-05 -0.0024354946352020458 0 0.00052250522460798611 -0.0017047363891243999 0 0.00051653552481203404 -0.0015478882758556797 0 0.00058353285157100598 -0.0016481942123415725 0 0.00060257095605645902 -0.0015392228482763364 0 0.00058353285157100598 -0.0016481942123415725 0 0.00051653552481203404 -0.0015478882758556797 0 -0.00060285411783708015 -0.0015391787360153222 0 -0.00056809624959666216 -0.001419267416324225 0 -0.00051208379225709964 -0.0014918098399717495 0 -0.00050058925361039903 -0.0013434461479878549 0 -0.00051208379225709964 -0.0014918098399717495 0 -0.00056809624959666216 -0.001419267416324225 0 8.3027161859495347e-05 -0.00067706091712654804 0 1.1495644177386212e-05 -0.00067671854153917286 0 4.7786998803095949e-05 -0.00058434534780507728 0 -1.2974066672630664e-07 -0.0005486215916307444 0 4.7786998803095949e-05 -0.00058434534780507739 0 1.1495644177386212e-05 -0.00067671854153917286 0 0.00031605344099297126 -0.0015108471923066568 0 0.00027047382525777317 -0.0013714364794754628 0 0.00034963577435736219 -0.0013846238801416063 0 -1.0431608627481674e-07 -0.0024800518082503543 0 -7.7914759810771388e-05 -0.0025779888483127467 0 -7.7066829497340103e-05 -0.0024354946352020458 0 -0.00060285411783708015 -0.0015391787360153222 0 -0.00064973528034444701 -0.001435107464938186 0 -0.00056809624959666216 -0.001419267416324225 0 0.00060257095605645902 -0.0015392228482763364 0 0.00066572889896528598 -0.0016656197565820471 0 0.00058353285157100598 -0.0016481942123415725 0 -1.2974066672630664e-07 -0.0005486215916307444 0 4.3604846892664468e-05 -0.00046698665622717597 0 4.7786998803095949e-05 -0.00058434534780507728 0 8.3027161859495347e-05 -0.00067706091712654804 0 5.047471667656341e-05 -0.00078969990735940879 0 1.1495644177386212e-05 -0.00067671854153917286 0 0.00032916582775647369 -0.0021887841830058779 0 0.00039838535214396315 -0.002301783849949 0 0.00032239765931406074 -0.0023545856392230002 0 -0.00044016677758208582 -0.0020175292472254902 0 -0.0005076439519479095 -0.0021298852094176583 0 -0.00054227501728851442 -0.0020163267823695525 0 0.00037914713909121558 -0.0010107449852539403 0 0.00042096740847183362 -0.00091646326939690719 0 0.00047308579376450718 -0.0010386563641221302 0 -0.00025779292401430654 -0.00082759569797220638 0 -0.00029403431565435772 -0.00073358285578468063 0 -0.00022713755515088428 -0.00067458041791240394 0 0.00029361237152351151 -0.0012634752592995625 0 0.00034963577435736219 -0.0013846238801416063 0 0.00027047382525777317 -0.0013714364794754628 0 0.0010373706186572783 -0.0020946086799056396 0 0.00098292554091729202 -0.0021583230223671877 0 0.00097848432879184201 -0.00204685314507727 0 1.4586547878830413e-08 -1.1313909601407763e-07 0 4.3149066277266224e-05 -6.5412906142558669e-05 0 3.4410213417236727e-05 -6.7361366115626078e-05 0 -0.0003346931102146549 -0.0032550747218030047 0 -0.00038199504219757089 -0.0031422817587733599 0 -0.00030585127175543765 -0.0031385617427617829 0 -0.0009377981088556761 -0.0011888200793257302 0 -0.00086944463508161732 -0.0010990552357873419 0 -0.00089434228096558165 -0.0012020827035340471 0 0.00038034244035246005 -0.0024780393467478861 0 0.00044741430615139973 -0.0025488761411231659 0 0.0003818366856703936 -0.0026201264503346341 0 -0.00061593219225619721 -0.0021138686626945911 0 -0.00065678171256011134 -0.0022222739738970878 0 -0.00069926306310064373 -0.0021251885064011364 0 0.00052285730181971467 -0.00096661369770555778 0 0.00053495542158802604 -0.00087367659748608913 0 0.0005995746084191695 -0.00098561316100757683 0 -0.00024460271791092002 -0.00057210946238255413 0 -0.00027085671015212117 -0.00051999527548876395 0 -0.00020872804138695645 -0.00045092833337751327 0 -0.00012906490326022288 -0.0020761920552538993 0 -4.9914640588378414e-05 -0.0020683317825933496 0 -7.4703180783760445e-05 -0.0021953227767947709 0 -0.00035023466030698649 -0.0012987193098500968 0 -0.00035731950601266838 -0.001427997002043992 0 -0.00042791428920718744 -0.0013975740883075188 0 -8.1866027447249733e-05 -0.0012478279312626917 0 -0.00014463784417201094 -0.0011599155699812734 0 -6.9148580577813767e-05 -0.0010937856403515098 0 -0.00031338144368443923 -0.0017329185006115632 0 -0.00021436311121302628 -0.0017595882478782729 0 -0.00029080577777993778 -0.0018669660634788971 0 0.00024669647827631159 -0.002969969966467804 0 0.00028198859890674451 -0.0028282992885912059 0 0.00032416031679994651 -0.0029566708695934894 0 -0.00088995717852928362 -0.0019505218761983868 0 -0.00081503413652372631 -0.001991007452208024 0 -0.0008851589802140262 -0.00206275273341359 0 0.00082908360339756996 -0.0012520624380184715 0 0.00074458824429247917 -0.0011730034558022579 0 0.00079557478612191773 -0.0011378349816540754 0 -6.4104008941534452e-05 -0.00017618572939321736 0 -0.00010766511040513007 -0.00027924808335590416 0 -8.8840695770074933e-05 -0.00018774205667585131 0 -0.00021173147516277165 -0.0018992220598465595 0 -0.00029080577777993778 -0.0018669660634788971 0 -0.00021436311121302628 -0.0017595882478782729 0 
</DataArray>
</PointData>
<CellData Scalars="" Vectors="" Tensors="stress,">
<DataArray type="Float64" Name="stress" NumberOfComponents="9" format="ascii">
15588772.285086155 511259.86548900604 0 511259.86548900604 -100957420.8287282 0 0 0 -29879026.990274429 11818766.687477231 -1554382.716693759 0 -1554382.716693759 -100095395.51504564 0 0 0 -30896820.089648962 8559901.8741466999 -156807.64027175307 0 -156807.64027175307 -100921990.8648138 0 0 0 -32326731.146733522 -4768555.6479704976 1978381.0839612782 0 1978381.0839612782 -100682795.928307 0 0 0 -36907973.051697105 15014750.424085736 -657160.85146918893 0 -657160.85146918893 -100891741.35178971 0 0 0 -30056946.824696541 14406705.558972955 -1006819.7316514254 0 -1006819.7316514254 -101283997.23521066 0 0 0 -30407052.086683273 7375892.7465206981 467241.04108574986 0 467241.04108574986 -101609637.9005245 0 0 0 -32981810.803901255 7631758.6737213731 1258882.7751050293 0 1258882.7751050293 -101094228.49459863 0 0 0 -32711864.43730706 10945142.701982737 -364842.14161252975 0 -364842.14161252975 -100088894.21696639 0 0 0 -31200313.03024435 3724598.4025433064 909161.60504877567 0 909161.60504877567 -98351102.196565151 0 0 0 -33119276.327907443 2307426.1348787546 2136030.8957915455 0 2136030.8957915455 -94662770.806805253 0 0 0 -32324370.635174215 -38767849.785676934 -16598738.404556427 0 -16598738.404556427 -97644215.341094732 0 0 0 -47744222.794370115 5181227.0760200024 -93916.800580088777 0 -93916.800580088777 -99615805.165904999 0 0 0 -33052102.331459761 659562.32834011409 77794.177379131317 0 77794.177379131317 -99872059.782080054 0 0 0 -34724374.108808935 4041824.4694746733 -5009790.1278843433 0 -5009790.1278843433 -98163593.18265146 0 0 0 -32942619.049611807 5215714.4664552212 98772.985325336456 0 98772.985325336456 -99612928.288082123 0 0 0 -33039024.837569475 -56260590.024598069 36004007.700030215 0 36004007.700030215 -104522796.02322468 0 0 0 -56274185.116737954 671933.21863937378 -97863.690984129906 0 -97863.690984129906 -99802371.819640636 0 0 0 -34695653.510350466 4125007.4849961996 5160154.6185566932 0 5160154.6185566932 -97811721.320239007 0 0 0 -32790349.842334986 -56540126.278634928 -36050694.232650585 0 -36050694.232650585 -105042105.97675003 0 0 0 -56553781.28938473 -12347.439482748508 1917369.9828255922 0 1917369.9828255922 -97717795.006089091 0 0 0 -34205549.855950177 -34063751.199911229 -22600733.09348429 0 -22600733.09348429 -87314913.030321836 0 0 0 -42482532.480581559 8840531.7624729872 -159168.37778294086 0 -159168.37778294086 -100071215.22629499 0 0 0 -31930739.212337613 972401.41001749039 253129.58373337984 0 253129.58373337984 -100119749.27871323 0 0 0 -34701571.754043579 986820.09070789814 -233694.00703784823 0 -233694.00703784823 -100135015.1436255 0 0 0 -34701868.26852107 -34752400.190786257 22434595.806821913 0 22434595.806821913 -87827007.21232143 0 0 0 -42902792.591087684 9081609.6352171898 207396.83653223515 0 207396.83653223515 -99938051.317573309 0 0 0 -31799754.588824511 193080.77094006538 -1971830.1174920425 0 -1971830.1174920425 -98088499.326810658 0 0 0 -34263396.494554728 16139047.585916638 -101155.20136928558 0 -101155.20136928558 -100491187.5766921 0 0 0 -29523248.996771336 8402586.4418434501 1997302.5516894758 0 1997302.5516894758 -99479710.533357859 0 0 0 -31876993.432030022 8146019.6116347909 -1522259.5277398229 0 -1522259.5277398229 -100046965.17360926 0 0 0 -32165330.946691036 -11330501.878483474 -210967.600489676 0 -210967.600489676 -94922956.89051044 0 0 0 -37188710.569147855 9599818.6821124554 -14715.463761438668 0 -14715.463761438668 -99993089.657060623 0 0 0 -31637644.841231823 1450699.2732661082 281998.91381949186 0 281998.91381949186 -98997427.472573668 0 0 0 -34141354.869757384 1404618.8546155416 1396318.213894695 0 1396318.213894695 -87833685.60666877 0 0 0 -30250173.363218572 -51564070.220337972 -20737684.842167176 0 -20737684.842167176 -95779636.858160794 0 0 0 -51570297.477474563 1484679.6674577165 -340621.07916277647 0 -340621.07916277647 -99068834.700135663 0 0 0 -34154454.261437282 -51390287.190833338 20647607.083033726 0 20647607.083033726 -95454635.348619327 0 0 0 -51395722.888808437 9595446.7243416309 -48.860503608681462 0 -48.860503608681462 -100259182.61860991 0 0 0 -31732307.562994003 1523960.4930170178 -1631204.8465002179 0 -1631204.8465002179 -87669861.041483521 0 0 0 -30151065.191963255 1216369.2488800287 -304976.09464345872 0 -304976.09464345872 -99729252.601453543 0 0 0 -34479509.173400521 -31524850.245206136 18692158.797852676 0 18692158.797852676 -84142475.811884537 0 0 0 -40483564.119981721 11479786.432497561 305571.49370121956 0 305571.49370121956 -99705057.703996658 0 0 0 -30878844.945024908 -413275.06506258249 626122.55650275946 0 626122.55650275946 -95774483.651144505 0 0 0 -33665715.550672472 7233992.5459742546 -759206.59962213039 0 -759206.59962213039 -99097743.239697456 0 0 0 -32152312.742803097 8084658.3798105717 475412.92044699192 0 475412.92044699192 -99694417.164973617 0 0 0 -32063415.574807167 15770857.146467209 515117.60171194375 0 515117.60171194375 -100614783.43186951 0 0 0 -29695374.19989109 10789361.285469547 -1901844.8342502117 0 -1901844.8342502117 -100501480.92132756 0 0 0 -31399241.872550353 8756011.9498864114 350910.70116978884 0 350910.70116978884 -101017969.18597284 0 0 0 -32291685.032630235 -2789051.4036796093 2386801.2637624349 0 2386801.2637624349 -97192287.466076255 0 0 0 -34993468.604414582 5214966.2477016449 -76099.376795172691 0 -76099.376795172691 -100449436.42431211 0 0 0 -33332064.561813593 1358609.0481545925 222514.19886159897 0 222514.19886159897 -100300402.56375742 0 0 0 -34629627.730460882 -6690954.2593191266 -9520082.1487920247 0 -9520082.1487920247 -112339531.06208062 0 0 0 -41660669.862489939 5320152.0346644521 57441.605274677277 0 57441.605274677277 -100516785.21160257 0 0 0 -33318821.611928403 -33730547.562595032 28774274.105593152 0 28774274.105593152 -94919812.608474642 0 0 0 -45027626.059874378 1391852.1376750469 -234815.75888776779 0 -234815.75888776779 -100206239.09974384 0 0 0 -34585035.436723948 -5905547.1962529421 9741144.8506992757 0 9741144.8506992757 -112187745.31208998 0 0 0 -41332652.377920032 -34018420.084976256 -28831672.186271515 0 -28831672.186271515 -94467810.789695039 0 0 0 -44970180.806134954 -876249.82084167004 -6258640.7447387576 0 -6258640.7447387576 -100885125.73724507 0 0 0 -35616481.445330381 -27236117.160507411 14934380.522517875 0 14934380.522517875 -101150454.94672257 0 0 0 -44935300.2375305 6701082.345948875 -1257406.8963061571 0 -1257406.8963061571 -98275159.413795352 0 0 0 -32050926.973746359 10868373.39119029 605433.481895715 0 605433.481895715 -99684087.53667593 0 0 0 -31085499.950919986 11993504.490848899 -500412.00693428516 0 -500412.00693428516 -100101353.08825183 0 0 0 -30837747.0090909 3122014.7017426491 1041319.810982883 0 1041319.810982883 -99587165.747749329 0 0 0 -33762802.866102219 2122737.5142265558 1441059.5222419351 0 1441059.5222419351 -98693464.027349472 0 0 0 -33799754.27959311 -23406519.694186017 -14339289.487993568 0 -14339289.487993568 -88464357.049900562 0 0 0 -39154806.8604303 -32772062.414629132 8196151.0004911721 0 8196151.0004911721 -92440722.801852465 0 0 0 -43824474.825768545 4355539.9687473774 -1542694.6845966578 0 -1542694.6845966578 -97361570.554933071 0 0 0 -32552110.705165148 3519321.8931795955 622207.42401757836 0 622207.42401757836 -95046742.083233833 0 0 0 -32034597.066519082 14315255.565531731 313815.87379717827 0 313815.87379717827 -100314754.46479964 0 0 0 -30099824.61474371 15983843.292198181 -120321.87217628956 0 -120321.87217628956 -100446015.94671726 0 0 0 -29561760.429081917 8349363.0843750238 1800931.2488979101 0 1800931.2488979101 -98230435.218454599 0 0 0 -31458375.246927619 7803551.1407518387 -1767665.68007195 0 -1767665.68007195 -98259674.391858816 0 0 0 -31659643.137887478 -18635322.016487151 -1599840.8102931678 0 -1599840.8102931678 -96328745.876924872 0 0 0 -40237423.76269421 6315894.4993300438 -431144.75856000185 0 -431144.75856000185 -100250289.8818326 0 0 0 -32877038.383875608 6988762.8357686996 593014.11292028427 0 593014.11292028427 -99992298.849586248 0 0 0 -32551237.604836106 -5595137.0602616966 16756716.852134511 0 16756716.852134511 -100917441.29617292 0 0 0 -37279402.424752116 -6384152.4205876589 -17192912.610009156 0 -17192912.610009156 -99360792.881306648 0 0 0 -37010730.855662972 -2317124.2265667319 -8682464.889386747 0 -8682464.889386747 -105315601.20318675 0 0 0 -37671453.900413692 -15606554.82724715 16235971.092703804 0 16235971.092703804 -94524584.441799939 0 0 0 -38545898.744166501 -10869477.719646037 14131397.884109646 0 14131397.884109646 -105671135.123281 0 0 0 -40789214.495024502 -19082893.792286158 -17603086.519619122 0 -17603086.519619122 -104378857.41885328 0 0 0 -43211612.923898786 14081503.915437222 900368.41360759735 0 900368.41360759735 -100662971.43674886 0 0 0 -30303513.632459044 11889089.532706976 -1695503.2584557831 0 -1695503.2584557831 -99439801.097169399 0 0 0 -30642749.047561884 3865981.7668390274 -2490786.4189108461 0 -2490786.4189108461 -101811254.87262094 0 0 0 -34280845.587023735 -5128243.515478611 4687621.4109541029 0 4687621.4109541029 -100137631.84867525 0 0 0 -36843056.377453864 11307140.178322077 295814.30396580696 0 295814.30396580696 -100028480.66727769 0 0 0 -31052469.171134233 2494557.5025415421 -1993678.0931337103 0 -1993678.0931337103 -94623333.222015262 0 0 0 -32245071.501815856 4106217.6292700768 -972747.50131040812 0 -972747.50131040812 -98255723.240931034 0 0 0 -32952326.964081287 -37859150.743468136 15993296.093545794 0 15993296.093545794 -96731966.133439213 0 0 0 -47106890.906917557 9529781.4351233542 649684.69307005405 0 649684.69307005405 -100375070.44002992 0 0 0 -31795851.151717275 5912579.9884710312 -757836.18979839981 0 -757836.18979839981 -99419378.711228371 0 0 0 -32727379.552964926 14999427.973106027 865568.73533427715 0 865568.73533427715 -100185217.3355726 0 0 0 -29815026.276863337 11358052.785758257 -1734394.8237900436 0 -1734394.8237900436 -100452193.11729026 0 0 0 -31182949.116036177 5474033.9128021002 -912439.03611885756 0 -912439.03611885756 -100982709.98085725 0 0 0 -33428036.623819232 -4286395.0843746662 4542029.7708376646 0 4542029.7708376646 -99608134.273098946 0 0 0 -36363085.275115728 14582647.651515365 -470822.25226014853 0 -470822.25226014853 -101598704.99917269 0 0 0 -30455620.071680069 1767595.6262552738 -665148.02603338659 0 -665148.02603338659 -96253477.88808322 0 0 0 -33070058.791639805 -35638722.108995646 6727082.7575687207 0 6727082.7575687207 -84062984.609569103 0 0 0 -41895597.351497658 15212775.106202617 173734.14901459217 0 173734.14901459217 -99863272.7936652 0 0 0 -29627674.190611824 871664.78175413609 1342229.532443963 0 1342229.532443963 -94126105.972254515 0 0 0 -32639054.416675091 15654102.423110008 139933.27605760098 0 139933.27605760098 -99962813.647952557 0 0 0 -29508048.928694963 3016632.3226841092 1918934.5246759653 0 1918934.5246759653 -95345655.818302035 0 0 0 -32315158.223466218 3744450.2795094848 -1343713.2954588532 0 -1343713.2954588532 -95841278.255060911 0 0 0 -32233889.791442931 -32769876.018481478 3740511.6787441596 0 3740511.6787441596 -88775918.841682866 0 0 0 -42541028.201057509 14006752.841893867 -278947.05600482225 0 -278947.05600482225 -101482675.40715598 0 0 0 -30616572.897841617 1213233.5523550997 -280995.20523744822 0 -280995.20523744822 -98452348.984493852 0 0 0 -34033690.401248403 -49708241.446492478 16239035.966903931 0 16239035.966903931 -92324350.697490633 0 0 0 -49711407.250394084 11468714.991665602 134065.28766642977 0 134065.28766642977 -100215758.34842587 0 0 0 -31061465.174866199 1513625.5319999256 115164.89282795787 0 115164.89282795787 -86871225.062517688 0 0 0 -29875159.835681219 5731377.3661818504 -2123626.8156088293 0 -2123626.8156088293 -98921416.982839823 0 0 0 -32616513.865830421 15752537.131221771 297896.57437849045 0 297896.57437849045 -100105516.8175838 0 0 0 -29523542.890226841 -18348640.330710232 3583871.3100493848 0 3583871.3100493848 -89652565.542780906 0 0 0 -37800422.055721879 5591058.7791119814 1416175.5344795585 0 1416175.5344795585 -98733444.287683249 0 0 0 -32599834.927999854 6442840.5434163809 -1976241.3862172365 0 -1976241.3862172365 -97215518.704195201 0 0 0 -31770437.356272578 -27706307.245197892 5059657.4362257626 0 5059657.4362257626 -95093395.204304844 0 0 0 -42979895.857325941 15104957.547028065 337697.82294684649 0 337697.82294684649 -100338377.17843342 0 0 0 -29831696.870991707 5029310.6352433264 978286.69569575787 0 978286.69569575787 -96679660.250297904 0 0 0 -32077622.365269154 12034325.487556934 -1594858.888442494 0 -1594858.888442494 -101090607.9628613 0 0 0 -31169698.866356492 15537340.853325069 687207.11706018448 0 687207.11706018448 -100389927.40037447 0 0 0 -29698405.291467249 747436.37585685402 2471235.6478214264 0 2471235.6478214264 -99407024.489719659 0 0 0 -34530855.839851998 7251795.5463399887 199699.25319050252 0 199699.25319050252 -101691502.83770347 0 0 0 -33053897.551977158 16024262.195876598 -333338.24991624337 0 -333338.24991624337 -100616037.26711273 0 0 0 -29607121.274932861 11453908.570497479 1502606.161344111 0 1502606.161344111 -101172715.00981405 0 0 0 -31401582.253760848 9885760.3786407039 -846308.32256543636 0 -846308.32256543636 -101218876.7334654 0 0 0 -31966590.724188633 1224347.6412543058 -1365880.4655212443 0 -1365880.4655212443 -97586742.142289758 0 0 0 -33726838.075362384 3357068.6639834046 2759611.5134368669 0 2759611.5134368669 -95292238.366314411 0 0 0 -32177309.39581579 -38508514.759390794 -23270098.577866361 0 -23270098.577866361 -98366148.359141231 0 0 0 -47906132.091486208 9232934.3122433424 -269385.83907556534 0 -269385.83907556534 -99430487.892811298 0 0 0 -31569143.753198743 3497456.0166795254 410359.40176267922 0 410359.40176267922 -98730832.92500782 0 0 0 -33331681.917915106 3159754.5345489979 -394736.76456201077 0 -394736.76456201077 -98963749.910390854 0 0 0 -33531398.38154459 -37504823.991897322 24040091.180768408 0 24040091.180768408 -97412188.895688966 0 0 0 -47220954.510655172 9497748.5635347366 321178.51050198078 0 321178.51050198078 -99293051.705229282 0 0 0 -31428356.099592924 3506353.5215309858 -2773218.371155709 0 -2773218.371155709 -95724499.79462409 0 0 0 -32276351.195582569 15624355.454204321 -471392.47082253918 0 -471392.47082253918 -100997955.36405301 0 0 0 -29880759.968447208 11691499.611056767 1584057.5039836764 0 1584057.5039836764 -100115935.41102672 0 0 0 -30948552.529989518 8571913.2208684683 11768.582726925611 0 11768.582726925611 -100832483.37738483 0 0 0 -32291199.554780602 -4339489.7303013206 -1650164.1768822744 0 -1650164.1768822744 -100017922.05084348 0 0 0 -36525094.123400688 9555610.3606905937 -1511448.3570170105 0 -1511448.3570170105 -99370529.110342741 0 0 0 -31435221.562378407 13325595.571917892 961828.09021103382 0 961828.09021103382 -99745479.40886271 0 0 0 -30246959.342930675 -12247465.706909791 9268610.3302983493 0 9268610.3302983493 -99961917.56373167 0 0 0 -39273284.144724533 787595.2557682991 -3528088.3852985203 0 -3528088.3852985203 -101582758.93264198 0 0 0 -35278307.286905825 7973558.7115836143 -1702107.8536925316 0 -1702107.8536925316 -99749554.795300484 0 0 0 -32121598.629300714 -10320443.04072687 9253397.953420341 0 9253397.953420341 -95148812.349593103 0 0 0 -36914239.386612028 12814507.1004529 762504.00186055899 0 762504.00186055899 -100321200.59926128 0 0 0 -30627342.724582911 4928180.4126658142 -2887373.6682958305 0 -2887373.6682958305 -100804305.20048159 0 0 0 -33556643.675735474 13370519.812342882 -1349111.0450955629 0 -1349111.0450955629 -100575176.26013613 0 0 0 -30521629.756727815 14734485.852509737 882525.39938950539 0 882525.39938950539 -100656355.16244841 0 0 0 -30072654.258478522 365609.05871590972 2610571.5746474266 0 2610571.5746474266 -101484452.71167636 0 0 0 -35391595.278536171 5029595.9069994092 -1618942.6257694662 0 -1618942.6257694662 -101513390.21714866 0 0 0 -33769328.008552313 14366192.90816465 -658660.73982453346 0 -658660.73982453346 -99823039.515725851 0 0 0 -29909896.312646359 13501966.741524696 -740494.35910093784 0 -740494.35910093784 -100288251.52590775 0 0 0 -30375199.674534202 7486984.4117329121 1909400.1847455318 0 1909400.1847455318 -98917524.97437048 0 0 0 -32000689.196923018 7300356.2448729277 1522084.0055692792 0 1522084.0055692792 -99262886.630130291 0 0 0 -32186885.634840369 4586403.9758298397 458027.70562534535 0 458027.70562534535 -99130634.712129354 0 0 0 -33090480.757704854 3471535.7334795594 1869866.7687626183 0 1869866.7687626183 -101205602.04752493 0 0 0 -34206923.209915817 -17958134.505864702 -8059729.8531088382 0 -8059729.8531088382 -96023131.342960805 0 0 0 -39893443.047088973 -14184627.45555526 -9673407.9976556003 0 -9673407.9976556003 -93988476.191904575 0 0 0 -37860586.276610911 15295613.161531329 175917.62713956833 0 175917.62713956833 -101596949.72178066 0 0 0 -30205467.796087146 8460636.7630563974 600735.07198022306 0 600735.07198022306 -101161497.40448916 0 0 0 -32445301.224501491 15773300.926699638 79154.306603193283 0 79154.306603193283 -100147619.54903936 0 0 0 -29531011.517818928 4301390.8959057033 1328618.0896627307 0 1328618.0896627307 -96592159.899595678 0 0 0 -32301769.151291519 3952381.7175026536 -2051707.670532465 0 -2051707.670532465 -97568246.840981245 0 0 0 -32765552.793217361 -26344212.758016989 1161092.7476738533 0 1161092.7476738533 -88764426.78228274 0 0 0 -40288023.839104921 15100503.743179083 -158579.89636324346 0 -158579.89636324346 -101231135.63110471 0 0 0 -30145721.160773993 15314671.043264151 -305067.08486386016 0 -305067.08486386016 -101528503.61188173 0 0 0 -30174841.399015903 -23131148.767727628 9990815.8004183695 0 9990815.8004183695 -90162052.324859634 0 0 0 -39652620.382405534 4722637.983240366 -1394436.987333782 0 -1394436.987333782 -98706626.446065187 0 0 0 -32894395.961988449 14550931.468811154 428494.32366907597 0 428494.32366907597 -99784112.628276944 0 0 0 -29831613.405813098 4615148.3874139786 798748.29173703864 0 798748.29173703864 -97299118.87876606 0 0 0 -32439389.671973228 9262433.030020833 -1122347.5733992457 0 -1122347.5733992457 -98970498.406863689 0 0 0 -31397822.881894946 9371862.5648365021 916015.99686568975 0 916015.99686568975 -99862830.496700048 0 0 0 -31671838.776152134 -10344164.497510612 11168178.240523987 0 11168178.240523987 -101339250.41163701 0 0 0 -39089195.218201637 -7948560.6278868914 -11232055.749110028 0 -11232055.749110028 -104098103.58505571 0 0 0 -39216332.474529862 8199306.2863602638 -1870295.9717520475 0 -1870295.9717520475 -99853840.842429161 0 0 0 -32079087.094624281 14662528.220123649 669753.07604128122 0 669753.07604128122 -100158803.31472802 0 0 0 -29923696.283111453 -9938746.0756887197 7000064.4679963887 0 7000064.4679963887 -93408830.782080233 0 0 0 -36171651.900219142 6379330.9432467222 -598779.85266137123 0 -598779.85266137123 -100297180.68372965 0 0 0 -32871247.409169018 13832614.061062574 -974759.94877141714 0 -974759.94877141714 -101485434.2077525 0 0 0 -30678487.051341414 11002956.561536074 -508614.18040817976 0 -508614.18040817976 -99382890.929463863 0 0 0 -30932977.028774738 4189373.0209423304 918741.93088817596 0 918741.93088817596 -99113786.757837653 0 0 0 -33223544.807913661 9138595.0560717583 -353052.46538513899 0 -353052.46538513899 -100355882.86875296 0 0 0 -31926050.734438419 3882287.8691527843 634373.23860257864 0 634373.23860257864 -99777678.239431381 0 0 0 -33563386.629597425 10871006.358865261 -1015687.6848056209 0 -1015687.6848056209 -99390485.543895721 0 0 0 -30981817.71476078 8869702.5366282463 -899654.68709664047 0 -899654.68709664047 -100251099.9105916 0 0 0 -31983489.080886841 8615905.0977501087 1153921.5789306164 0 1153921.5789306164 -100229709.01026686 0 0 0 -32064831.369380791 9280067.9711978436 1057768.5274899006 0 1057768.5274899006 -99028176.310933888 0 0 0 -31411837.918907642 107802.30610925332 7290691.0293003321 0 7290691.0293003321 -99726714.974557728 0 0 0 -34866619.433956981 -6978715.6336399466 10854572.210549444 0 10854572.210549444 -103819832.03640461 0 0 0 -38779491.684515551 -6846063.220830828 -11168711.688976742 0 -11168711.688976742 -99765374.05658251 0 0 0 -37314003.047094703 -9144916.8938570619 -11214023.648007847 0 -11214023.648007847 -100702006.99265176 0 0 0 -38446423.36027807 3478132.2835888863 12882.281967043877 0 12882.281967043877 -100498506.63321638 0 0 0 -33957131.022369862 -17864516.619664833 25634015.284146734 0 25634015.284146734 -131871053.651685 0 0 0 -52407449.594972417 -20390381.017982244 28685399.605944857 0 28685399.605944857 -106473434.61505511 0 0 0 -44402335.471563071 3197904.9179563522 77125.02120923996 0 77125.02120923996 -99726891.966911793 0 0 0 -33785145.467134476 3284598.6764273643 -62462.195583827794 0 -62462.195583827794 -99671674.520608425 0 0 0 -33735476.545463562 -20491851.992675297 -28626931.90013779 0 -28626931.90013779 -106326707.93851571 0 0 0 -44386495.975916862 -16414608.674276233 -25106370.543279815 0 -25106370.543279815 -131232625.26434964 0 0 0 -51676531.878519058 3453141.827053383 -36905.120853900909 0 -36905.120853900909 -100596884.02863815 0 0 0 -34000309.770554706 4160639.427854538 -1453986.5822467208 0 -1453986.5822467208 -98018119.226096392 0 0 0 -32850117.929384708 15379530.556053281 309817.43104743958 0 309817.43104743958 -99832194.752065659 0 0 0 -29558432.468604207 -24896236.254069909 6755675.9633208066 0 6755675.9633208066 -87279077.1896566 0 0 0 -39261359.70530428 3835917.7830860615 1621706.7126005888 0 1621706.7126005888 -96850533.502705336 0 0 0 -32555115.501866758 14655553.651406437 -985048.03378546238 0 -985048.03378546238 -100574619.40492207 0 0 0 -30071673.013730496 13582920.10674274 1253026.7203432471 0 1253026.7203432471 -100931368.47027636 0 0 0 -30571956.927236795 4932753.7659864426 987833.64549358189 0 987833.64549358189 -101578237.72251749 0 0 0 -33825919.384785891 3284914.0912754536 -2233822.8139808774 0 -2233822.8139808774 -100804373.52397102 0 0 0 -34131810.801443458 906355.30591067625 -604818.89759773016 0 -604818.89759773016 -95272658.756719396 0 0 0 -33028206.207783014 -47574372.436755553 4607110.4345169803 0 4607110.4345169803 -88365716.06787096 0 0 0 -47579030.976619273 14949794.704538584 91372.865913327027 0 91372.865913327027 -100142736.54710913 0 0 0 -29817529.644899607 1614896.3503536577 757330.78995490074 0 757330.78995490074 -90039689.305947915 0 0 0 -30948677.534457982 2769866.5398046076 16931896.458557039 0 16931896.458557039 -109310585.06259039 0 0 0 -37289251.482974991 -41018834.78578905 -38167524.377876058 0 -38167524.377876058 -115948852.22056425 0 0 0 -54938690.452223666 -40644833.359194778 38069360.750031903 0 38069360.750031903 -116136816.28984243 0 0 0 -54873577.377163015 1338337.9698886871 -17155.325027644634 0 -17155.325027644634 -100218839.69652987 0 0 0 -34608175.604324341 3607015.5044226646 -99711.210675239563 0 -99711.210675239563 -99465260.755245686 0 0 0 -33550385.837787867 1334751.6440682411 -3853.2131013870239 0 -3853.2131013870239 -100182055.93312454 0 0 0 -34596556.501169682 2602016.5354048312 -16755788.752712337 0 -16755788.752712337 -109837310.54884571 0 0 0 -37532352.904704303 3574445.1263638139 89348.35131919384 0 89348.35131919384 -99510021.620191634 0 0 0 -33577451.772839963 15193204.620878011 -48494.094875216484 0 -48494.094875216484 -100142577.88686872 0 0 0 -29732280.643096656 927067.8938472271 868056.14976694807 0 868056.14976694807 -97276731.483854771 0 0 0 -33722382.256502628 1624776.0820157528 -550853.16388985515 0 -550853.16388985515 -93736338.555065393 0 0 0 -32239046.865567446 -34897534.580259383 -4341148.213858556 0 -4341148.213858556 -84042483.306780711 0 0 0 -41629006.260464028 -12865261.70452559 16415649.604249544 0 16415649.604249544 -100908702.03973913 0 0 0 -39820887.310492635 -1947690.546855405 -9878438.2569673359 0 -9878438.2569673359 -100280205.27810064 0 0 0 -35779763.53873463 12548793.154315658 -818553.41339087486 0 -818553.41339087486 -99512339.900529355 0 0 0 -30437241.361174636 8517599.7216005325 1404855.2013753168 0 1404855.2013753168 -98792943.696322918 0 0 0 -31596370.391152859 1380912.0496615171 4112334.1406043954 0 4112334.1406043954 -100631700.6426636 0 0 0 -34737776.007550716 -17891772.823433161 -11512024.994346753 0 -11512024.994346753 -100646082.79361789 0 0 0 -41488249.465967894 15879643.962704182 -24470.39034627378 0 -24470.39034627378 -100344535.0576663 0 0 0 -29562711.883236885 6541321.2168619931 2186056.1964908838 0 2186056.1964908838 -97032424.333746195 0 0 0 -31671886.090909451 6541120.4172995239 -1694402.2680149078 0 -1694402.2680149078 -96960853.872024566 0 0 0 -31646906.709153637 -25323413.783107996 269578.90757804085 0 269578.90757804085 -94269860.032933652 0 0 0 -41857645.835614562 2863917.3532092273 -821868.76512891054 0 -821868.76512891054 -98323402.27630797 0 0 0 -33410819.723084599 12581918.169866323 555323.74698609114 0 555323.74698609114 -99923728.022904873 0 0 0 -30569633.448563576 -24819161.626029655 14400359.125517271 0 14400359.125517271 -89314029.826709151 0 0 0 -39946617.00845857 3648062.9634549022 -1047863.7839845419 0 -1047863.7839845419 -99147972.888859451 0 0 0 -33424968.473891795 10343117.16220516 -1655600.8445637822 0 -1655600.8445637822 -99692775.31781888 0 0 0 -31272380.354464591 13105979.900155306 1008755.5083500743 0 1008755.5083500743 -100625038.08530235 0 0 0 -30631670.364801407 -5399559.3049917519 6901168.7652655393 0 6901168.7652655393 -97491053.433619261 0 0 0 -36011714.458513886 4036197.6115716994 -3457893.6830956042 0 -3457893.6830956042 -101059055.54443562 0 0 0 -33958000.276502341 6856162.0636592805 -760883.698985219 0 -760883.698985219 -99990246.765477717 0 0 0 -32596929.64563635 9670929.0113873482 784765.91673356295 0 784765.91673356295 -99431020.398478031 0 0 0 -31416031.985481739 12102211.406398535 -1216770.8950155973 0 -1216770.8950155973 -101328159.77927196 0 0 0 -31229081.930505753 11545609.854705475 -795775.71422314644 0 -795775.71422314644 -100936031.68631925 0 0 0 -31286647.641064741 11288920.147045851 -1533558.9883898199 0 -1533558.9883898199 -99521358.791098595 0 0 0 -30881353.52541852 13574662.661426961 1083308.1664605141 0 1083308.1664605141 -99693277.622147083 0 0 0 -30141515.236251891 -7318809.4906087518 6601533.6329368949 0 6601533.6329368949 -101329524.47345419 0 0 0 -38026916.887422085 629129.65862929821 -3616320.901079908 0 -3616320.901079908 -102109382.35299587 0 0 0 -35518088.443028331 5696164.5484901071 -31905.448234438896 0 -31905.448234438896 -99304235.774715066 0 0 0 -32762824.929178655 3383337.5849385262 167752.31097640842 0 167752.31097640842 -99425136.580920219 0 0 0 -33614629.648593903 -5386678.6934221983 14666524.424852666 0 14666524.424852666 -104718922.86229277 0 0 0 -38536960.544500232 3419340.9263563156 -199038.50496059656 0 -199038.50496059656 -99466922.074386597 0 0 0 -33616653.401810646 -37768123.662962824 32426996.656138428 0 32426996.656138428 -114810062.69031781 0 0 0 -53402365.223648235 -38197728.757301569 -31520244.022998199 0 -31520244.022998199 -115267307.94566482 0 0 0 -53712762.846038237 5775371.6139025688 53205.070254802704 0 53205.070254802704 -99335781.873739719 0 0 0 -32746143.590942621 -5129600.3366869092 -14717020.746627249 0 -14717020.746627249 -105205898.81603581 0 0 0 -38617424.703452945 7463733.0420475602 -42882.544023215771 0 -42882.544023215771 -101614746.54093154 0 0 0 -32952854.724609315 6247148.3687376976 -183130.56586744636 0 -183130.56586744636 -101340490.61220169 0 0 0 -33282669.785212517 13293314.044007927 -1039410.6183766723 0 -1039410.6183766723 -100851587.46304578 0 0 0 -30645395.696663231 16199410.069190338 101586.44708788395 0 101586.44708788395 -100434865.14849637 0 0 0 -29482409.277757332 8262075.5335642099 1618559.829427518 0 1618559.829427518 -99824180.463794947 0 0 0 -32046736.725580931 8579066.654102087 -1866170.5172144398 0 -1866170.5172144398 -99316642.889583588 0 0 0 -31758151.682418585 -11801321.069638379 607487.8902823329 0 607487.8902823329 -95079573.85855791 0 0 0 -37408313.224868722 12066650.882453918 -704804.60062578321 0 -704804.60062578321 -100333684.77940655 0 0 0 -30893461.863933325 5939052.8716442585 1444348.4082073569 0 1444348.4082073569 -99650392.405435443 0 0 0 -32798968.836826921 2591130.4311566204 3081642.2542609274 0 3081642.2542609274 -101015343.12158889 0 0 0 -34448474.44165124 -13552760.933884203 -11553189.253723672 0 -11553189.253723672 -91617022.525753438 0 0 0 -36809424.210873201 12445866.833561182 -1746468.7056307793 0 -1746468.7056307793 -100181280.79348326 0 0 0 -30707394.885972738 14694444.085969925 903194.22965189815 0 903194.22965189815 -100940354.19552541 0 0 0 -30186068.538344383 437272.53721123934 2272715.9136456996 0 2272715.9136456996 -99483973.302575111 0 0 0 -34666345.26787734 7412637.9265918732 -1233655.485755682 0 -1233655.485755682 -101128686.4189831 0 0 0 -32800616.972336888 6582930.2438800335 -1241404.9676440358 0 -1241404.9676440358 -100149364.04551268 0 0 0 -32748251.830571413 -11022830.48274219 12956113.774483368 0 12956113.774483368 -94742323.125368536 0 0 0 -37017803.762838721 11315675.373663902 805840.51927852631 0 805840.51927852631 -100214473.96716738 0 0 0 -31114579.507726192 2290157.722453773 -5244979.9464428574 0 -5244979.9464428574 -101197706.33266079 0 0 0 -34617642.013572454 14251662.022643805 -579491.04524970055 0 -579491.04524970055 -101119011.42001438 0 0 0 -30403572.289079785 13399417.972995877 580663.35825991631 0 580663.35825991631 -101474751.38204098 0 0 0 -30826366.69316566 12824415.028129935 201782.86818683147 0 201782.86818683147 -101725305.79004312 0 0 0 -31115311.766669631 15248114.532703638 618944.93102426827 0 618944.93102426827 -101183164.6510582 0 0 0 -30077267.541424155 15127580.135660887 549950.13347390294 0 549950.13347390294 -101057618.67445683 0 0 0 -30075513.488578558 -1100896.4425780177 6614805.3967042565 0 6614805.3967042565 -102166460.20345271 0 0 0 -36143574.82611078 -27583497.638674587 -15936845.171454042 0 -15936845.171454042 -100880066.71908146 0 0 0 -44962247.525214598 11845318.509642124 256714.67272721231 0 256714.67272721231 -101571617.4769218 0 0 0 -31404204.638547897 11078182.880866289 -227543.39426231384 0 -227543.39426231384 -99897888.85145092 0 0 0 -31086897.089704752 1195426.4416264296 319776.94055169821 0 319776.94055169821 -99570663.341609716 0 0 0 -34431332.914994121 -227254.69190239906 -266654.37581129372 0 -266654.37581129372 -95365531.088780284 0 0 0 -33457475.023238897 -32265909.997649275 -18450581.749783311 0 -18450581.749783311 -84508596.509030208 0 0 0 -40871077.277337819 3153915.4797924757 -1600291.8972240388 0 -1600291.8972240388 -96831643.159041882 0 0 0 -32787204.687737107 -35298265.571902297 4332321.3652478121 0 4332321.3652478121 -90268386.394176573 0 0 0 -43948328.1881276 15001650.704384327 184968.1938804388 0 184968.1938804388 -100322127.56197655 0 0 0 -29862166.900157452 3816421.1056969166 914991.7239580676 0 914991.7239580676 -93397763.323554993 0 0 0 -31353469.776250362 14572171.131850168 491615.64977902174 0 491615.64977902174 -101253910.01950891 0 0 0 -30338608.610680416 3804430.1431147456 -1125765.155164212 0 -1125765.155164212 -100305145.22518459 0 0 0 -33775250.278724551 -81591.574440121651 -237304.98296895623 0 -237304.98296895623 -100872855.19561106 0 0 0 -35334056.369517922 14092796.990093708 -95121.37803882813 0 -95121.37803882813 -99917415.272072315 0 0 0 -30038616.398692369 1255638.7062665566 418286.22104525566 0 418286.22104525566 -96322956.312372133 0 0 0 -33273561.162136998 1276652.5697608693 -987994.41623860598 0 -987994.41623860598 -88418491.072838396 0 0 0 -30499643.476077128 -47590398.927510642 -10352455.024653532 0 -10352455.024653532 -88393272.168218747 0 0 0 -47594284.883505277 10815364.063690513 -1260657.3938132524 0 -1260657.3938132524 -100329428.62541813 0 0 0 -31329922.596604615 11124623.896286964 1347875.7221119851 0 1347875.7221119851 -99859569.114930153 0 0 0 -31057230.826525211 -1583758.8796010017 7513167.0928710029 0 7513167.0928710029 -100285357.42208493 0 0 0 -35654190.70559001 -1252373.4780314639 -7022653.9261534512 0 -7022653.9261534512 -100030517.32652858 0 0 0 -35449011.781595953 -10180262.979546919 37364630.917539358 0 37364630.917539358 -151577537.49286875 0 0 0 -56615230.165345475 -42716463.240190268 -37410928.107381009 0 -37410928.107381009 -117177368.42608741 0 0 0 -55962841.083197199 -42807727.121098287 37584085.208604142 0 37584085.208604142 -117487044.74525201 0 0 0 -56103170.153222628 -9960831.1411175728 -37195331.023481928 0 -37195331.023481928 -151370314.41919622 0 0 0 -56465900.946109816 1193272.2672185898 150229.62355703115 0 150229.62355703115 -100352343.74072266 0 0 0 -34705675.015726328 2338567.9394978881 -51793.636268138885 0 -51793.636268138885 -100150817.6808306 0 0 0 -34234287.409466326 2265452.683809638 50070.159297585487 0 50070.159297585487 -100212923.7940464 0 0 0 -34281614.888582826 1217336.112036705 -121075.40602555871 0 -121075.40602555871 -100305777.65775776 0 0 0 -34680954.541002274 3768385.6087734103 -275926.9677927494 0 -275926.9677927494 -100343968.02951288 0 0 0 -33801453.847259104 5693825.8591470718 237335.23253977299 0 237335.23253977299 -100468545.24716187 0 0 0 -33171151.785804987 4455913.3403443098 -450587.14695072174 0 -450587.14695072174 -99192989.573454857 0 0 0 -33157976.681588531 -5819858.247882694 11243525.467746094 0 11243525.467746094 -104252264.44906813 0 0 0 -38525242.943932742 7840517.726965189 339134.96399962902 0 339134.96399962902 -99302542.28876543 0 0 0 -32011708.596630096 -33126209.359704569 -24428529.722218923 0 -24428529.722218923 -106925260.95592532 0 0 0 -49018014.610470444 -5967229.6016485691 15470499.754754052 0 15470499.754754052 -109462276.17389256 0 0 0 -40400327.021439448 -12915045.050735906 -24875263.056062154 0 -24875263.056062154 -96304792.315816849 0 0 0 -38226943.078293487 13813611.543684363 -721530.61051422358 0 -721530.61051422358 -101554594.06545639 0 0 0 -30709343.882620096 7102808.2037736773 1237583.8363022804 0 1237583.8363022804 -100426604.48138869 0 0 0 -32663328.697165191 14632602.425929546 838652.36171837151 0 838652.36171837151 -100308865.69371128 0 0 0 -29986692.143723965 9742165.1802516878 -1791708.3715957403 0 -1791708.3715957403 -99056338.955682158 0 0 0 -31259960.821400672 4304570.8277628422 -1342028.0050306916 0 -1342028.0050306916 -101181259.14994013 0 0 0 -33906840.912762046 -12901273.897997737 5919713.6647700369 0 5919713.6647700369 -98378024.621312141 0 0 0 -38947754.481758416 8602566.3236549795 -158417.72804710269 0 -158417.72804710269 -101778311.06627613 0 0 0 -32611510.659917444 10585242.669967532 -185425.67741253972 0 -185425.67741253972 -100924996.3828913 0 0 0 -31618913.799523294 14667848.88562962 891630.36474454403 0 891630.36474454403 -101281930.36736849 0 0 0 -30314928.518608604 16157629.186936855 -98227.023000359535 0 -98227.023000359535 -100110631.8837018 0 0 0 -29383550.943867683 6249100.7059103251 2012439.0048251152 0 2012439.0048251152 -99301047.582718134 0 0 0 -32568181.406882644 5934438.3108737469 -1953792.3194624782 0 -1953792.3194624782 -99302939.939477205 0 0 0 -32678975.570011139 -15523459.87828818 -1192919.1335554421 0 -1192919.1335554421 -90318151.49962461 0 0 0 -37044563.982269496 14541940.855092287 860976.4840105325 0 860976.4840105325 -100920133.3507185 0 0 0 -30232367.373469114 13399740.946403503 -1365300.4746427238 0 -1365300.4746427238 -100539973.00090122 0 0 0 -30499081.219074249 13988066.016583025 1290704.2540088892 0 1290704.2540088892 -100686727.37523699 0 0 0 -30344531.475528896 4034833.7771162987 2343911.0017959476 0 2343911.0017959476 -99836333.392253339 0 0 0 -33530524.865297943 5644244.0055334568 -2038829.1714635715 0 -2038829.1714635715 -100872396.23957229 0 0 0 -33329853.281913519 12718639.171257496 -985428.90812170506 0 -985428.90812170506 -100220282.26934147 0 0 0 -30625575.084329367 8600153.9188833237 1461918.4114823341 0 1461918.4114823341 -100171837.47246695 0 0 0 -32050089.243754625 2914302.5486574173 3749437.952522248 0 3749437.952522248 -100973887.1489687 0 0 0 -34320854.610108972 -7650086.3434738517 -9812020.1875716746 0 -9812020.1875716746 -96138746.667093992 0 0 0 -36326091.553698719 7173179.9738660529 -371896.39338034391 0 -371896.39338034391 -101147557.46771967 0 0 0 -32891032.122848801 10773251.662496924 -861306.78886193037 0 -861306.78886193037 -100464154.79875231 0 0 0 -31391816.097689271 8204258.5217392445 1252172.4828096628 0 1252172.4828096628 -99352789.15216589 0 0 0 -31901985.720649242 -523698.10917896032 7170710.5773929805 0 7170710.5773929805 -103261493.7690345 0 0 0 -36324817.15737474 -14696781.004471034 -11673685.977111533 0 -11673685.977111533 -98958033.719023436 0 0 0 -39779185.153223068 14638088.088714927 -758732.01400488615 0 -758732.01400488615 -101549129.05675185 0 0 0 -30418864.338812858 8469970.1314152181 -1694579.7269296646 0 -1694579.7269296646 -98382606.15978384 0 0 0 -31469422.609928995 -19728204.179184556 9025058.6380332932 0 9025058.6380332932 -99009334.526189804 0 0 0 -41558138.54688102 14045183.357746124 680588.04626119137 0 680588.04626119137 -99993126.880980492 0 0 0 -30081780.233132124 2768090.6916021258 -1417248.8042798638 0 -1417248.8042798638 -100362368.06562746 0 0 0 -34157997.08090882 10721907.856926441 1197305.5142019987 0 1197305.5142019987 -99095436.289800167 0 0 0 -30930734.95150578 11008639.617801905 -1131865.963118732 0 -1131865.963118732 -99136260.577269554 0 0 0 -30844667.335813522 -9209505.0195226073 -9341787.6806244701 0 -9341787.6806244701 -103412093.94637239 0 0 0 -39417559.638063252 -7911776.0734868944 8658991.6387745291 0 8658991.6387745291 -103704247.05260819 0 0 0 -39065608.094133288 15646386.460326672 102693.12286394835 0 102693.12286394835 -101001432.05826521 0 0 0 -29874265.959278345 9108953.7673723698 633387.67265948653 0 633387.67265948653 -101417509.42252874 0 0 0 -32307994.479304671 9761177.3033405542 147319.14120515436 0 147319.14120515436 -101330938.46623361 0 0 0 -32049416.407012582 12458383.902885914 -1428456.5009137392 0 -1428456.5009137392 -100423529.85001862 0 0 0 -30787801.081496358 13880257.651250362 1180739.9874955118 0 1180739.9874955118 -99775815.370327473 0 0 0 -30063445.201677084 11582832.930553079 -1702135.2648559809 0 -1702135.2648559809 -100255328.79804564 0 0 0 -31035373.553622246 13535580.733314991 1135363.3725408316 0 1135363.3725408316 -100517928.78607798 0 0 0 -30443821.81846714 -1361977.6632296443 4898881.4334246889 0 4898881.4334246889 -101188334.78616059 0 0 0 -35892609.357286572 913230.54742836952 -3066951.7085661292 0 -3066951.7085661292 -101764359.66726464 0 0 0 -35297895.191942692 -616265.09829282761 4751284.2337950021 0 4751284.2337950021 -98293045.314161539 0 0 0 -34618258.644359022 5096330.7206145525 -2963038.4567845464 0 -2963038.4567845464 -100480399.82622707 0 0 0 -33384424.186964363 12298633.702572107 -542281.66462115943 0 -542281.66462115943 -99553283.789910793 0 0 0 -30539127.530568361 6097064.4679569602 1198711.7618514299 0 1198711.7618514299 -97977898.369230628 0 0 0 -32158291.86544615 2066888.1716870368 3287294.9941568077 0 3287294.9941568077 -99174552.841499597 0 0 0 -33987682.634434432 -30787834.715931892 -14771256.678813159 0 -14771256.678813159 -102089427.0566045 0 0 0 -46507041.620387733 15189848.948153973 -827617.32642185781 0 -827617.32642185781 -100342060.45382261 0 0 0 -29803274.026983976 14423150.439069748 -809311.02970331907 0 -809311.02970331907 -100607369.11272907 0 0 0 -30164476.535780907 10630254.274189778 1835163.7652897239 0 1835163.7652897239 -100472820.25860569 0 0 0 -31444898.094545417 11063839.852701128 1862614.0782855749 0 1862614.0782855749 -99229999.202437639 0 0 0 -30858155.77240783 7224763.7461224822 410475.98058664799 0 410475.98058664799 -101061268.47328287 0 0 0 -32842776.654506084 5044249.4957419336 1786227.7399574518 0 1786227.7399574518 -101276346.25197047 0 0 0 -33681233.864679962 -3512568.8844645619 -4235015.0835642675 0 -4235015.0835642675 -97237875.339613199 0 0 0 -35262655.478427231 -8086006.2507534623 -4519490.542813465 0 -4519490.542813465 -99420890.187428117 0 0 0 -37627413.75336355 2838782.228485465 -818572.20574998856 0 -818572.20574998856 -97558108.676169276 0 0 0 -33151764.256689072 -31466439.51483091 10114048.905047081 0 10114048.905047081 -86839790.98777689 0 0 0 -41407180.67591273 14618165.120982885 212851.15580952168 0 212851.15580952168 -99859921.004290104 0 0 0 -29834614.55915761 2615680.7731063366 1328026.0625852942 0 1328026.0625852942 -94953377.744733453 0 0 0 -32318193.940069437 13989307.760304809 -1185761.3893203139 0 -1185761.3893203139 -101004504.96618867 0 0 0 -30455319.022059321 13922050.168759584 1252537.0923215747 0 1252537.0923215747 -100290093.09977818 0 0 0 -30228815.025856495 4524815.0518609285 2554353.5741510391 0 2554353.5741510391 -101185800.92762887 0 0 0 -33831345.056518674 3802109.2629263997 -2213126.6074168086 0 -2213126.6074168086 -100523684.27848363 0 0 0 -33852551.255444944 12263902.094712019 -1298352.81559062 0 -1298352.81559062 -99601212.265026093 0 0 0 -30568058.55960989 10796327.872242451 1498992.6824741364 0 1498992.6824741364 -100336436.93101072 0 0 0 -31339038.170568705 -159618.38889223337 4804662.7987469733 0 4804662.7987469733 -100368036.44588172 0 0 0 -35184679.192170858 -3507403.3773776889 -7283680.1886319518 0 -7283680.1886319518 -101337325.26031768 0 0 0 -36695655.023193419 14325088.7186836 554561.39535355568 0 554561.39535355568 -101665394.55797172 0 0 0 -30569107.043750882 -47685771.263260067 -7137192.5055603581 0 -7137192.5055603581 -88563574.848227262 0 0 0 -47687271.139020562 1668141.4383626902 -1207142.0587565899 0 -1207142.0587565899 -89995275.86568217 0 0 0 -30914497.049561884 1627028.4078013501 359713.06378495693 0 359713.06378495693 -94863094.204182222 0 0 0 -32632623.028733175 14934031.204897881 -71221.153850253075 0 -71221.153850253075 -99965648.093787193 0 0 0 -29761065.911111116 -11007066.832479579 13429291.843250796 0 13429291.843250796 -119871257.39949979 0 0 0 -45807413.481192812 -56627564.085753642 -36069106.689166293 0 -36069106.689166293 -105095906.84947674 0 0 0 -56603214.827330634 3594915.5533270836 -4127.4439505249729 0 -4127.4439505249729 -100409567.21964169 0 0 0 -33885128.08321023 660359.74333715439 -24072.469732046127 0 -24072.469732046127 -99954042.106354237 0 0 0 -34752788.827055931 638302.77304762509 -4040.915652513504 0 -4040.915652513504 -99943371.217576146 0 0 0 -34756773.955585063 -56348064.473897241 36021544.706182458 0 36021544.706182458 -104576239.56577283 0 0 0 -56323506.413884513 3617102.5019052029 8944.0615823909411 0 8944.0615823909411 -100413127.71736002 0 0 0 -33878608.825409174 -10980200.754106848 -13364740.944453821 0 -13364740.944453821 -119943060.54480916 0 0 0 -45823141.45462063 7389075.8789665699 -1392566.8214866668 0 -1392566.8214866668 -98745138.729454517 0 0 0 -31974621.997670889 -21176495.94238802 12705052.763204023 0 12705052.763204023 -100150066.52367009 0 0 0 -42464296.86312034 12812651.286836326 760025.5583319664 0 760025.5583319664 -99460327.552206993 0 0 0 -30326686.692879736 1541087.7208331823 -2676808.9511864707 0 -2676808.9511864707 -100195980.47635055 0 0 0 -34529212.464431047 15936910.677414656 -120790.85528659821 0 -120790.85528659821 -101116674.84314752 0 0 0 -29812917.45800662 10856317.014045 1158138.0581254065 0 1158138.0581254065 -100386928.61978722 0 0 0 -31335714.062009692 10012121.467561841 -849718.82740414143 0 -849718.82740414143 -100504396.64174175 0 0 0 -31672296.310962796 -5284876.8239261806 -717897.35967260599 0 -717897.35967260599 -100333766.27112693 0 0 0 -36966525.083268613 12887437.232881069 -794837.65760063007 0 -794837.65760063007 -101568879.70292306 0 0 0 -31038504.864514828 4732795.9394493699 358177.0181183964 0 358177.0181183964 -100713493.14926183 0 0 0 -33593244.023434341 11649471.518213302 -66683.566981971264 0 -66683.566981971264 -101690515.91923124 0 0 0 -31514365.540356249 14392965.438399911 -720649.06207287312 0 -720649.06207287312 -100379620.76555014 0 0 0 -30095329.364502549 8344816.2479379177 1925001.2047965825 0 1925001.2047965825 -99574552.874630928 0 0 0 -31930407.819342852 5647125.3034917116 668590.38161192834 0 668590.38161192834 -101002783.29301131 0 0 0 -33374480.296331882 -10489595.306715518 -6529061.6178997606 0 -6529061.6178997606 -94501697.278214037 0 0 0 -36746952.404725343 14597464.108873188 -107657.06734251976 0 -107657.06734251976 -100121172.53267193 0 0 0 -29933297.948329628 245461.58738708496 767564.5642631501 0 767564.5642631501 -97937435.328705549 0 0 0 -34192190.809461594 186811.59086704254 -364234.80132955313 0 -364234.80132955313 -93698862.690535307 0 0 0 -32729217.884883881 -33950046.467770457 -7703492.5483025014 0 -7703492.5483025014 -81147599.989547893 0 0 0 -40284176.260061421 14173586.875478983 -998859.41153633595 0 -998859.41153633595 -100685051.51566982 0 0 0 -30279012.62406683 4639771.4875796437 788563.49868175387 0 788563.49868175387 -101565450.05382979 0 0 0 -33923987.498187542 15217563.442546129 -740322.09394580126 0 -740322.09394580126 -101152305.55246544 0 0 0 -30077159.738471746 13059166.774428725 1268255.7469214201 0 1268255.7469214201 -100834846.53924751 0 0 0 -30721487.917686701 9445716.9313694239 300806.54710552096 0 300806.54710552096 -101401146.08676934 0 0 0 -32184400.20438993 3848331.4990004897 -996671.89799450338 0 -996671.89799450338 -100298776.19614184 0 0 0 -33757655.643999457 -38536878.205995381 8562775.7499635946 0 8562775.7499635946 -86064742.780323908 0 0 0 -43610567.345211744 1132554.4133874178 -721733.6325699091 0 -721733.6325699091 -97416719.382535934 0 0 0 -33699457.739201903 2163776.1715347171 537839.26760342717 0 537839.26760342717 -91332844.770026088 0 0 0 -31209174.009471893 14363333.758137465 121225.08894199133 0 121225.08894199133 -100303772.13850737 0 0 0 -30079153.433129549 16192328.857008249 -102634.68903005123 0 -102634.68903005123 -100601707.24472928 0 0 0 -29543282.435702533 9954872.4493770599 1715530.9347297102 0 1715530.9347297102 -100542654.84593368 0 0 0 -31705723.838794827 9739347.065890789 -1191456.8625888675 0 -1191456.8625888675 -100834837.76256943 0 0 0 -31883421.743837476 -3835726.0000555441 45874.392471283674 0 45874.392471283674 -96762074.734668374 0 0 0 -35209230.257153444 15563198.816520095 529342.41876035929 0 529342.41876035929 -100437893.39124799 0 0 0 -29706143.101154685 7106300.2537409067 270154.9660192132 0 270154.9660192132 -100299721.73325634 0 0 0 -32617697.517830372 10402617.932801843 -1795585.3538951874 0 -1795585.3538951874 -99618382.419040442 0 0 0 -31225517.570183516 -9699342.3124943376 3748590.3573760241 0 3748590.3573760241 -98492226.851427019 0 0 0 -37867049.207372487 10900139.530553341 -1524558.4575863481 0 -1524558.4575863481 -100261349.09504652 0 0 0 -31276423.347572803 12123130.106879711 1297895.9031759501 0 1297895.9031759501 -100337811.91871166 0 0 0 -30875138.634141207 -626697.4451290369 6276107.4048041999 0 6276107.4048041999 -98021397.684453964 0 0 0 -34526833.295354009 2391634.2926238775 -4728779.270373702 0 -4728779.270373702 -99813613.517868042 0 0 0 -34097692.728835464 14765390.480227113 7837.896212220192 0 7837.896212220192 -101641175.9965651 0 0 0 -30406524.930718422 12266141.329888225 477419.23170411587 0 477419.23170411587 -101661218.81625056 0 0 0 -31288277.12022686 14703246.300035004 -816701.6898021102 0 -816701.6898021102 -99954030.753718972 0 0 0 -29837774.55878925 9651563.2633277178 1621817.2395999916 0 1621817.2395999916 -99571342.232047319 0 0 0 -31471922.639052033 4543246.5901842713 1112891.923132671 0 1112891.923132671 -100706753.04844964 0 0 0 -33657227.260392904 -10616422.898531916 -7243926.822832033 0 -7243926.822832033 -97904465.502984494 0 0 0 -37982310.940530717 -2179445.6215679646 10040561.596307725 0 10040561.596307725 -100824968.17050511 0 0 0 -36051544.827225566 -12495454.189528391 -16306863.650033109 0 -16306863.650033109 -99876776.381074518 0 0 0 -39330280.69971101 11504827.709223747 -103080.16815653443 0 -103080.16815653443 -101782131.39216828 0 0 0 -31597056.289030552 12384646.100508735 -674959.25992119312 0 -674959.25992119312 -101554068.04420912 0 0 0 -31209297.680295065 15645946.903818816 -208792.31421875954 0 -208792.31421875954 -100428467.94918203 0 0 0 -29673882.365877181 15869072.343414605 -286986.47406065464 0 -286986.47406065464 -100266732.47274256 0 0 0 -29539181.045264661 6935703.1296019554 2250358.5309856385 0 2250358.5309856385 -97782752.993926048 0 0 0 -31796467.452513695 7529006.0627126694 1891887.2907771766 0 1891887.2907771766 -98575369.517128706 0 0 0 -31866227.209045649 6441412.2558003664 -1200449.110238269 0 -1200449.110238269 -97677160.857675314 0 0 0 -31932512.010656238 6416700.5588486195 -1550903.8420170993 0 -1550903.8420170993 -98559191.184248447 0 0 0 -32249871.718889952 -22761676.241542622 -2056590.9052691981 0 -2056590.9052691981 -94496835.922284365 0 0 0 -41040479.257339433 -18240613.274040997 -3855968.2071390897 0 -3855968.2071390897 -94330680.595345944 0 0 0 -39399952.854285419 13492408.910319895 -582526.18506503105 0 -582526.18506503105 -99596225.156372875 0 0 0 -30136335.686118513 6774761.6599385738 1558706.1899993345 0 1558706.1899993345 -98133573.606423855 0 0 0 -31975584.181269884 4027538.4694018364 1477963.5459655672 0 1477963.5459655672 -97646269.184594631 0 0 0 -32766555.750317574 -25593579.209511615 -11458109.422577396 0 -11458109.422577396 -98075599.021432698 0 0 0 -43284212.380830504 9455713.5275344849 -1319203.6291427314 0 -1319203.6291427314 -98636731.634844303 0 0 0 -31213356.33755827 11711069.178861916 891500.53161549568 0 891500.53161549568 -99544026.879011989 0 0 0 -30741535.195052564 -16446523.456269741 11259828.024392992 0 11259828.024392992 -103209962.09351657 0 0 0 -41879769.942425221 -2634687.4675191641 -6988618.9336091205 0 -6988618.9336091205 -102504853.52712238 0 0 0 -36798839.348124564 2283469.188577652 5323211.1281093694 0 5323211.1281093694 -100503507.77677464 0 0 0 -34377013.505868852 -13671705.19650232 -14008592.803818077 0 -14008592.803818077 -93469760.116687 0 0 0 -37499512.859616272 16013778.823286533 120522.19081777334 0 120522.19081777334 -100385018.26796293 0 0 0 -29529933.805636644 7513607.0013638139 1726761.9489816427 0 1726761.9489816427 -98260597.564825177 0 0 0 -31761446.697211564 7905654.796066463 -1850731.9147492647 0 -1850731.9147492647 -98478797.557308078 0 0 0 -31700599.966434777 -18583639.019245207 1664429.5823392347 0 1664429.5823392347 -95586977.627627492 0 0 0 -39959715.826405466 15723039.711939573 128220.04934424162 0 128220.04934424162 -101237079.23662329 0 0 0 -29929913.833639264 11681250.146120667 756490.87366861105 0 756490.87366861105 -101556100.86840367 0 0 0 -31456197.752799153 15177987.057677746 -521413.13377925754 0 -521413.13377925754 -100008926.13658476 0 0 0 -29690828.67761755 6366248.005210042 1853012.9363034964 0 1853012.9363034964 -99633246.422700167 0 0 0 -32643449.446121573 5387398.4998559058 -468219.46845930815 0 -468219.46845930815 -99753992.099360585 0 0 0 -33028307.75982675 -13785469.050594658 -6779062.896682281 0 -6779062.896682281 -90301966.608952045 0 0 0 -36430602.480841368 11185107.111082911 -810769.68091151118 0 -810769.68091151118 -101697968.2738471 0 0 0 -31679501.406967521 13822780.628913403 -362554.73621198535 0 -362554.73621198535 -101729660.67029452 0 0 0 -30767408.014483213 11454285.505304798 -300986.59479337931 0 -300986.59479337931 -101937827.63848054 0 0 0 -31669239.74661161 15081388.095619798 -405318.28821444511 0 -405318.28821444511 -100250270.26822519 0 0 0 -29809108.760411978 7677422.3671091795 2146040.5451768935 0 2146040.5451768935 -97245836.238414526 0 0 0 -31348944.854956985 6118370.4885002375 -556738.59142503142 0 -556738.59142503142 -97056632.874192238 0 0 0 -31828391.83499229 -25403456.211329401 -5212236.4087121263 0 -5212236.4087121263 -96937032.4491162 0 0 0 -42819171.031155974 12874123.190728579 617811.59151339531 0 617811.59151339531 -101322112.73518336 0 0 0 -30956796.34055933 15980247.080189943 284231.9205673933 0 284231.9205673933 -100265507.92508841 0 0 0 -29499841.295714378 7122589.1608871222 1299895.4806079268 0 1299895.4806079268 -99785908.465787649 0 0 0 -32432161.756715059 7646242.088155508 -2076522.8843990564 0 -2076522.8843990564 -99393251.545745373 0 0 0 -32111453.310156345 -12350494.18945387 2444960.9651979208 0 2444960.9651979208 -91893075.200334072 0 0 0 -36485249.286425769 2806404.0867800452 3282609.4395855963 0 3282609.4395855963 -99985808.091925457 0 0 0 -34012791.401800901 -1715916.7131586969 6271380.8851341605 0 6271380.8851341605 -103530253.16490901 0 0 0 -36836159.4573237 -22742952.396886528 -17026894.81974512 0 -17026894.81974512 -91843108.353610292 0 0 0 -40105121.262673885 -29832659.416339606 -18926646.397951741 0 -18926646.397951741 -97009134.589621067 0 0 0 -44394627.902086258 12766265.594044328 73308.625685632229 0 73308.625685632229 -101656765.83930159 0 0 0 -31111675.085840106 -13400646.950707138 -14882649.830874369 0 -14882649.830874369 -108593383.73886502 0 0 0 -42697910.741350234 -19019715.768621936 17567698.618400976 0 17567698.618400976 -105013830.96036914 0 0 0 -43411741.35514687 10556104.658771951 -577826.69325566292 0 -577826.69325566292 -100490409.12110506 0 0 0 -31477006.561816256 11214360.815884233 -767490.16192531586 0 -767490.16192531586 -99392753.136279702 0 0 0 -30862437.312138438 5393561.8508646488 1162542.6625654697 0 1162542.6625654697 -99282583.429461002 0 0 0 -32861157.552508831 6683875.2451472282 1086479.5636738166 0 1086479.5636738166 -99273557.862165928 0 0 0 -32406388.915956736 -27944511.616181992 18415618.411811739 0 18415618.411811739 -96771170.029148981 0 0 0 -43650488.575865828 -1343484.0398518741 -6238162.9363814294 0 -6238162.9363814294 -103204488.90929937 0 0 0 -36591790.53220287 4092774.9145647287 -803547.31567788124 0 -803547.31567788124 -99411365.250600934 0 0 0 -33361506.61761272 9173789.7084906101 321347.48707085848 0 321347.48707085848 -100296775.95290804 0 0 0 -31893045.18554616 -21476408.222044453 16152756.187465087 0 16152756.187465087 -91429420.308677971 0 0 0 -39517039.985752836 2551648.0558322668 -3154629.0444157273 0 -3154629.0444157273 -101720582.53249359 0 0 0 -34709127.06683147 3682481.745074749 -984066.80574309826 0 -984066.80574309826 -99933868.720164776 0 0 0 -33687985.441281319 10762251.917186975 520968.11535906792 0 520968.11535906792 -99702969.44105792 0 0 0 -31129251.133354902 12567823.456642866 -1440488.2880969048 0 -1440488.2880969048 -100224596.68598676 0 0 0 -30679870.630270362 12141344.024961233 -1281991.6757488698 0 -1281991.6757488698 -99866062.950609207 0 0 0 -30703651.623976946 12326301.050675869 1410690.2450274825 0 1410690.2450274825 -100527451.44106627 0 0 0 -30870402.636636734 12674669.040200889 1341919.4250786304 0 1341919.4250786304 -99281708.770251155 0 0 0 -30312463.905517399 1726480.7711850405 4280458.8017612398 0 4280458.8017612398 -99744061.157702446 0 0 0 -34306153.135281026 -3141784.5186537951 5973829.1532088816 0 5973829.1532088816 -102667447.64208722 0 0 0 -37033231.256259367 2338328.3854349852 -4581193.0845544338 0 -4581193.0845544338 -99975974.967491746 0 0 0 -34173176.303719878 -2204362.976159811 -5029686.9259025529 0 -5029686.9259025529 -101789506.13099003 0 0 0 -36397854.187502503 6140768.4665580988 -1494530.619715035 0 -1494530.619715035 -98272795.465685844 0 0 0 -32246209.449694753 12338385.602185488 602572.70763093233 0 602572.70763093233 -100341816.6966939 0 0 0 -30801200.88307786 -25721221.724176958 11538877.496677469 0 11538877.496677469 -95713779.741520971 0 0 0 -42502250.512994274 2767427.2509839535 -2787641.950137645 0 -2787641.950137645 -99920542.073372483 0 0 0 -34003590.187835932 11273498.755217791 92079.725055396557 0 92079.725055396557 -101409321.02669406 0 0 0 -31547537.795016766 9371603.1379896402 -269841.08136597276 0 -269841.08136597276 -101404033.86994982 0 0 0 -32211350.756186128 10156396.358961344 -153388.08376850188 0 -153388.08376850188 -101240072.74630725 0 0 0 -31879286.735571146 9341844.2284867764 -817640.26807081699 0 -817640.26807081699 -99424498.627680063 0 0 0 -31528929.039717436 7039211.2373037338 819458.398999542 0 819458.398999542 -100042690.68455553 0 0 0 -32551217.806538105 -1733471.1730373502 8642214.5557974577 0 8642214.5557974577 -105618761.34375024 0 0 0 -37573281.380875707 -14606773.466067195 -15787199.29548493 0 -15787199.29548493 -94282216.073389858 0 0 0 -38111146.338809937 -19992445.865571186 27341556.299399182 0 27341556.299399182 -98447724.114008218 0 0 0 -41454059.492852777 -6095410.7838592827 -15143699.000135303 0 -15143699.000135303 -108983513.15909132 0 0 0 -40277623.380032748 6862644.0869841576 -1894010.8647142351 0 -1894010.8647142351 -97850124.778189659 0 0 0 -31845618.241921902 -24972380.912461482 7687514.1958616674 0 7687514.1958616674 -95969335.04498677 0 0 0 -42329600.585106872 14288344.326522827 454931.4974398613 0 454931.4974398613 -100263862.27222872 0 0 0 -30091431.280997038 4272730.3162783384 -255727.43959362805 0 -255727.43959362805 -98014480.346535206 0 0 0 -32809612.510589957 -14977285.933025703 18703480.326790273 0 18703480.326790273 -97925951.208486736 0 0 0 -39516132.999529347 -485650.27176690102 -11253338.16386731 0 -11253338.16386731 -102491843.36124349 0 0 0 -36042122.771553606 11475723.560372591 -104096.23151290417 0 -104096.23151290417 -100172289.58133125 0 0 0 -31043798.107335567 1187078.9338730809 253795.09157294035 0 253795.09157294035 -98326223.508109272 0 0 0 -33998700.600982644 1537356.7967674157 -78052.837446808815 0 -78052.837446808815 -86602719.370208129 0 0 0 -29772876.900704261 -49585455.768737122 -16506921.142532293 0 -16506921.142532293 -92094739.097159371 0 0 0 -49588068.203063771 15559460.703633308 -59873.107922911644 0 -59873.107922911644 -99948359.743252277 0 0 0 -29536114.663866997 2128615.7042725086 738127.99973940849 0 738127.99973940849 -95079188.06872201 0 0 0 -32532700.327557445 1318384.6020542383 -1037783.1868656576 0 -1037783.1868656576 -94464770.176296234 0 0 0 -32601234.950984597 -36961220.818514287 -2579925.7899868526 0 -2579925.7899868526 -84826549.80119352 0 0 0 -42625719.716897734 6793534.7177532017 289552.37058836222 0 289552.37058836222 -99854201.172502339 0 0 0 -32571233.259162098 4757295.2008043528 -711147.62788546085 0 -711147.62788546085 -100306732.06283903 0 0 0 -33442302.90171206 7759318.7928490639 413137.55340635777 0 413137.55340635777 -100256999.54817343 0 0 0 -32374188.264363527 12867042.034048319 -218732.02037741244 0 -218732.02037741244 -101739465.64358377 0 0 0 -31105348.263337374 2396967.0720143318 -1526497.4928771257 0 -1526497.4928771257 -96466305.311808348 0 0 0 -32924268.383927822 3603783.2606879473 -1404639.175294444 0 -1404639.175294444 -93503369.725496054 0 0 0 -31464855.262682796 7119410.3705580235 -190760.98601281643 0 -190760.98601281643 -99694626.354997396 0 0 0 -32401325.594553947 1263135.3903172016 309173.96945017576 0 309173.96945017576 -100309364.44841337 0 0 0 -34666180.170333624 7117612.5549556911 168255.42190980911 0 168255.42190980911 -100587232.14671478 0 0 0 -32714366.857115775 2693188.1563925743 -403961.660775166 0 -403961.660775166 -99832833.830691338 0 0 0 -33998875.986004829 -3126500.2973806858 -9313112.2884496842 0 -9313112.2884496842 -107469501.78053385 0 0 0 -38708600.727270097 -35275773.234789073 24037999.429295786 0 24037999.429295786 -96212208.509947762 0 0 0 -46020793.610657886 7521734.8156931996 169492.28966498375 0 169492.28966498375 -99463022.268856883 0 0 0 -32179450.608606994 1478466.2810873985 -249432.12649062276 0 -249432.12649062276 -100018706.91246796 0 0 0 -34489084.220983028 5510254.1971339583 -4026882.3714763224 0 -4026882.3714763224 -97480323.459675193 0 0 0 -32189524.241889417 -37861774.528328255 26727947.722735584 0 26727947.722735584 -94976655.920483321 0 0 0 -46493450.657084048 5347486.0597997308 3965799.0462507755 0 3965799.0462507755 -97152860.192439079 0 0 0 -32131880.946423829 -37486314.082010128 -26640651.394046672 0 -26640651.394046672 -94878266.542313427 0 0 0 -46327603.218513243 -2881990.8762117922 8757815.4090706706 0 8757815.4090706706 -108007704.02048874 0 0 0 -38811393.213845164 -31692528.797642604 -23162576.083230723 0 -23162576.083230723 -94711808.496456146 0 0 0 -44241518.052934542 14894438.68368423 599510.98291033506 0 599510.98291033506 -101451360.93418336 0 0 0 -30294922.787674665 13990213.374156356 -7209.6586624383926 0 -7209.6586624383926 -101808534.7313149 0 0 0 -30736412.475005627 7295105.9758366942 -178162.33157014847 0 -178162.33157014847 -101838368.8064847 0 0 0 -33090141.990726769 8210922.071337685 -836676.41216009855 0 -836676.41216009855 -100845687.18185487 0 0 0 -32422167.788681045 8186992.2027690783 -740973.37277263403 0 -740973.37277263403 -101621558.82609129 0 0 0 -32702098.318162881 3144097.9289270341 683504.57712215185 0 683504.57712215185 -101220426.88925624 0 0 0 -34326715.136115164 6281777.5681159496 -1794101.3275501132 0 -1794101.3275501132 -99447623.901683569 0 0 0 -32608046.216748834 -16029208.838113576 8771162.1417686194 0 8771162.1417686194 -91513486.65661034 0 0 0 -37639943.423153326 13925612.336852551 563996.60259819031 0 563996.60259819031 -100093267.86640882 0 0 0 -30158679.435344696 5150297.5790652633 -781498.10404707491 0 -781498.10404707491 -99511470.066422939 0 0 0 -33026410.37057519 12550833.493185788 756086.18881040812 0 756086.18881040812 -101449467.25463927 0 0 0 -31114521.81650874 15442553.074055672 491843.1557970047 0 491843.1557970047 -100600541.03394747 0 0 0 -29805295.785962105 9196317.1467295885 -2178948.7384082675 0 -2178948.7384082675 -99370392.96803534 0 0 0 -31560926.537456989 7453561.7839763165 406365.46802538633 0 406365.46802538633 -100415770.54557002 0 0 0 -32536773.066557825 -10346812.293569446 2782857.2738682106 0 2782857.2738682106 -95645989.45104897 0 0 0 -37097480.610616446 7013889.0825395584 -143717.68441540003 0 -143717.68441540003 -99966114.054797173 0 0 0 -32533278.740290642 3670867.8322082758 277144.67173719406 0 277144.67173719406 -99071144.13357234 0 0 0 -33390096.705477357 7347073.7726342678 -321136.42314510513 0 -321136.42314510513 -100339322.20335245 0 0 0 -32547286.950751066 2788306.4901643861 542740.95655930042 0 542740.95655930042 -100332996.75576416 0 0 0 -34140641.592959777 9083017.5034003258 -1379912.0766170025 0 -1379912.0766170025 -100113197.06617403 0 0 0 -31860562.846970797 11985226.163616121 1167902.9196629524 0 1167902.9196629524 -100225461.05610323 0 0 0 -30884082.212370574 -5330468.0083780736 9237097.4553437382 0 9237097.4553437382 -96625986.854931504 0 0 0 -35684759.202158347 2669594.450641036 -5250400.1224755049 0 -5250400.1224755049 -100728137.54730392 0 0 0 -34320490.083832026 9216267.4960423708 -277781.59305950999 0 -277781.59305950999 -101811427.07418156 0 0 0 -32408305.852348804 10152430.233983874 -359196.0064560473 0 -359196.0064560473 -101907319.69948673 0 0 0 -32114211.312925816 7959237.6119278669 -536683.70594859123 0 -536683.70594859123 -100163088.95919424 0 0 0 -32271347.971543431 5208388.0112297535 693619.77055197209 0 693619.77055197209 -100091832.86573267 0 0 0 -33209205.699076176 8610600.3023681641 -1263745.1456256509 0 -1263745.1456256509 -100281806.69780731 0 0 0 -32084922.238403797 10178302.576492906 1130904.3510774374 0 1130904.3510774374 -100079709.82768893 0 0 0 -31465492.537918687 -4256490.0762259662 10328536.166970611 0 10328536.166970611 -98063908.316236049 0 0 0 -35812139.437361717 105811.01812571287 -8202424.8707909882 0 -8202424.8707909882 -98984908.220048785 0 0 0 -34607684.020673037 12663581.690350771 -1364477.747638911 0 -1364477.747638911 -101440357.71830273 0 0 0 -31071871.609783173 13305762.704373837 -1233016.1170803308 0 -1233016.1170803308 -100217099.95980334 0 0 0 -30418968.039400339 4192802.9212529659 1341709.9619938135 0 1341709.9619938135 -99579294.744547009 0 0 0 -33385272.138152838 235562.77580213547 1667532.4676982164 0 1667532.4676982164 -101458313.00878733 0 0 0 -35427962.581544816 15269989.206813097 -148209.67301058769 0 -148209.67301058769 -100159207.8602767 0 0 0 -29711226.528712153 15337920.016018867 -249046.38501310349 0 -249046.38501310349 -99949841.445331573 0 0 0 -29614172.50025928 3831976.6591945887 1385492.2922496498 0 1385492.2922496498 -95423957.921573162 0 0 0 -32057193.441832662 2753021.6315846443 1272927.9497691989 0 1272927.9497691989 -98177779.287067413 0 0 0 -33398665.179418802 -37703266.32959497 -5138701.5178688988 0 -5138701.5178688988 -91209354.521739811 0 0 0 -45119417.297967173 -27055994.987676263 -6569267.6792287827 0 -6569267.6792287827 -85182721.88118875 0 0 0 -39283550.90410275 15560329.708926082 -301759.61172753572 0 -301759.61172753572 -101071015.18699718 0 0 0 -29928739.917324901 12846870.017980814 1096187.2156258523 0 1096187.2156258523 -101381242.9962678 0 0 0 -30987030.542400479 15740720.836883008 -317185.64559698105 0 -317185.64559698105 -101152386.83526537 0 0 0 -29894083.099433839 12029991.470484972 1079060.5905922875 0 1079060.5905922875 -101029375.4875617 0 0 0 -31149784.405976772 6020291.1492795944 -306906.9058175087 0 -306906.9058175087 -100183825.63736296 0 0 0 -32957237.070829153 3102800.2466540337 256656.83741462231 0 256656.83741462231 -100339763.41093731 0 0 0 -34032937.107499123 -27168356.680366009 27799558.479028732 0 27799558.479028732 -102049407.15560326 0 0 0 -45226217.342589244 -5101906.6101818681 -10907586.362528652 0 -10907586.362528652 -103940390.94706714 0 0 0 -38164804.145037115 12896669.051218271 -366447.24524861574 0 -366447.24524861574 -99771815.085901499 0 0 0 -30406301.112139225 4120433.5641615391 1133722.7447980642 0 1133722.7447980642 -97700314.569287539 0 0 0 -32752958.351794243 3423389.6390658617 156428.78267708421 0 156428.78267708421 -94151185.717871904 0 0 0 -31754728.627582192 -35508635.892722815 -13870813.980434079 0 -13870813.980434079 -94838950.527824193 0 0 0 -45621655.247191459 15930604.258793116 -452507.66550910473 0 -452507.66550910473 -100433056.97957897 0 0 0 -29575858.452275038 10573049.365510106 1797549.2234283686 0 1797549.2234283686 -100755878.57294607 0 0 0 -31563990.222602606 8569821.8001720905 -639662.48779562116 0 -639662.48779562116 -100702665.45658386 0 0 0 -32246495.279744267 -2739905.2618694901 -2966078.4001103044 0 -2966078.4001103044 -96516047.282821953 0 0 0 -34739583.390642017 14912807.36954689 -355973.48671919107 0 -355973.48671919107 -101186278.37471008 0 0 0 -30195714.851807117 15495426.595905423 -703292.24287390709 0 -703292.24287390709 -100513707.76213765 0 0 0 -29756398.408181071 11672074.916939497 1658667.2283796072 0 1658667.2283796072 -101004290.72722054 0 0 0 -31266275.533598661 8200365.8424457312 -100298.85912981629 0 -100298.85912981629 -101352452.57462025 0 0 0 -32603230.356261134 1563704.0197321773 -2218500.1971671283 0 -2218500.1971671283 -97421830.710481405 0 0 0 -33550344.341762245 16159551.571359634 -112183.3954936862 0 -112183.3954936862 -100497509.73470163 0 0 0 -29518285.357169628 9916918.7096397877 1541454.8700612783 0 1541454.8700612783 -99973632.465373278 0 0 0 -31519849.814506531 9117764.0400770903 -1519373.9543264508 0 -1519373.9543264508 -99767857.802726865 0 0 0 -31727532.816927314 -9194036.0434567928 -1630716.2555933446 0 -1630716.2555933446 -97562876.949872255 0 0 0 -37364919.547665149 15723186.560918093 -323579.52656233311 0 -323579.52656233311 -101175599.66635108 0 0 0 -29908344.586901426 12058816.287236333 1051396.0225228071 0 1051396.0225228071 -100812232.75041413 0 0 0 -31063695.76211226 15559573.275518566 -303916.95480692387 0 -303916.95480692387 -101078620.40292549 0 0 0 -29931666.494592398 12840429.6456635 1076919.0118342414 0 1076919.0118342414 -101199382.09990883 0 0 0 -30925633.358985662 15191505.741306663 -388987.18670034409 0 -388987.18670034409 -100016670.98058629 0 0 0 -29688807.833747745 4859693.0887482166 1697272.5045976639 0 1697272.5045976639 -98955966.039385319 0 0 0 -32933695.53272295 4334619.3389310837 -1323597.1296566725 0 -1323597.1296566725 -98427999.696306467 0 0 0 -32932683.125081301 -20283963.083433747 -6936437.1756246686 0 -6936437.1756246686 -88940927.575646743 0 0 0 -38228711.730678178 -35532325.867640682 1327610.9102770872 0 1327610.9102770872 -85944676.801485762 0 0 0 -42516950.934194244 2720938.0101162195 779419.71747168899 0 779419.71747168899 -93653721.087816238 0 0 0 -31826474.077194929 1973579.2313944101 -1575397.976375401 0 -1575397.976375401 -96133587.721200228 0 0 0 -32956002.97143209 15467198.89980638 48774.151545524597 0 48774.151545524597 -100077757.89107823 0 0 0 -29613695.64694488 15949571.543187857 -291399.64070636034 0 -291399.64070636034 -100429733.85882521 0 0 0 -29568056.810473204 7723458.6217999458 2036340.4940579534 0 2036340.4940579534 -99488948.220374823 0 0 0 -32117921.359501123 6898597.0603425503 -1321231.8924672008 0 -1321231.8924672008 -100118479.60532403 0 0 0 -32626958.890743494 -11827171.450120479 -2467287.881255433 0 -2467287.881255433 -92508072.4900769 0 0 0 -36517335.37906906 13051274.613361418 234932.09537810087 0 234932.09537810087 -101698349.31237102 0 0 0 -31026476.14465332 12720562.812484741 -1001495.5929632932 0 -1001495.5929632932 -100214677.43943262 0 0 0 -30622940.119431973 10829065.85942981 1396869.2304377556 0 1396869.2304377556 -98968003.910033435 0 0 0 -30848628.317710903 552365.52565898933 5272034.6732019484 0 5272034.6732019484 -102348404.63831578 0 0 0 -35628613.689429857 -9910670.3419207931 -8157920.5082537159 0 -8157920.5082537159 -100548676.58676612 0 0 0 -38660771.425040424 15688231.389420509 464300.53344631195 0 464300.53344631195 -100080163.13998723 0 0 0 -29537176.112698078 14929212.392589808 516637.43233680725 0 516637.43233680725 -100474349.75964403 0 0 0 -29940798.078468919 6708934.1151000261 1056256.9453608692 0 1056256.9453608692 -99763647.597399473 0 0 0 -32569149.718804836 8098326.3828685284 -1936918.8832468987 0 -1936918.8832468987 -99451740.11167407 0 0 0 -31973694.805082083 8676623.7101966143 -1929911.2621549666 0 -1929911.2621549666 -98143174.728497982 0 0 0 -31313292.856405497 5394272.9114683867 -122656.44198310375 0 -122656.44198310375 -99487591.549382806 0 0 0 -32932661.52327013 -12618782.965059936 4863110.8248233497 0 4863110.8248233497 -93729712.309015125 0 0 0 -37221973.345926255 -19584952.225857228 5875033.8975144923 0 5875033.8975144923 -97994492.353385776 0 0 0 -41152805.602735028 13193689.431970328 -1408024.7654985189 0 -1408024.7654985189 -101290432.66005388 0 0 0 -30833860.129829198 5902216.0964267254 1803559.3744011689 0 1803559.3744011689 -98971174.152699351 0 0 0 -32574135.319695413 14930045.31037426 934222.28327258676 0 934222.28327258676 -100763681.85012579 0 0 0 -30041772.788913012 6470792.2331860065 -468734.71265435219 0 -468734.71265435219 -98850543.708780766 0 0 0 -32332913.016458273 6270185.6047207117 314277.72931730747 0 314277.72931730747 -99429126.143110514 0 0 0 -32605629.188436508 -19043831.34293329 21085891.55177521 0 21085891.55177521 -111216968.97364987 0 0 0 -45591280.110804133 -23385754.239893198 -20676895.348642021 0 -20676895.348642021 -110619224.9937169 0 0 0 -46901742.731763542 11201727.930074751 688590.5431266129 0 688590.5431266129 -101347506.36755824 0 0 0 -31551022.453119338 4325743.3618651032 -1112999.7008763552 0 -1112999.7008763552 -97676756.115619659 0 0 0 -32672854.463813961 -34246589.748577029 13526307.092448756 0 13526307.092448756 -94334157.901690602 0 0 0 -45003261.677593648 13264908.148694038 377423.73525112867 0 377423.73525112867 -99910471.228173256 0 0 0 -30325947.07781744 2627869.5998305976 295304.86974409223 0 295304.86974409223 -94928525.631154239 0 0 0 -32305229.610963315 13870371.355609357 246875.23467093706 0 246875.23467093706 -101855961.24235296 0 0 0 -30794956.460360229 9798943.5269533396 -327041.52085539699 0 -327041.52085539699 -100901149.69696116 0 0 0 -31885772.159502625 1204654.3399546146 -500333.14973884821 0 -500333.14973884821 -98157461.554279804 0 0 0 -33933482.525014162 -38203831.894269556 14750354.571157586 0 14750354.571157586 -85502493.290249154 0 0 0 -43297213.814581543 12932912.255412102 311380.99065625668 0 311380.99065625668 -99608123.457957983 0 0 0 -30336323.920891047 -130428.40178775787 1289894.0510887131 0 1289894.0510887131 -91746691.136439323 0 0 0 -32156991.838379622 15487356.794101536 -517893.97430288792 0 -517893.97430288792 -100608737.35412931 0 0 0 -29792483.196009815 15462153.030775428 -514031.66686022282 0 -514031.66686022282 -100657466.58814979 0 0 0 -29818359.745081306 10913625.851492643 1732334.9376019537 0 1732334.9376019537 -99443267.450625896 0 0 0 -30985374.559696674 9217138.9721522331 2063147.7109261453 0 2063147.7109261453 -99675533.566055059 0 0 0 -31660438.107866049 6899675.0966645479 -6667.5163781940937 0 -6667.5163781940937 -100469377.54924941 0 0 0 -32749395.858404636 7007752.8753656149 -309310.24904167652 0 -309310.24904167652 -100844652.21668696 0 0 0 -32842914.769462466 -9672441.1036997139 -3980697.5643188357 0 -3980697.5643188357 -100118517.71304256 0 0 0 -38426835.585859805 -8900729.1526630521 -3182839.8709325343 0 -3182839.8709325343 -95514749.187894076 0 0 0 -36545417.419194967 14987850.229898691 -519513.52156925201 0 -519513.52156925201 -100414213.10110807 0 0 0 -29899227.004923105 8880597.3999837041 1954399.1044793725 0 1954399.1044793725 -98362125.769167542 0 0 0 -31318534.929214418 5612576.1689616442 77881.273472547531 0 77881.273472547531 -99091539.332035601 0 0 0 -32717637.10707581 -17978728.511930764 -6187815.374313809 0 -6187815.374313809 -98031533.124884427 0 0 0 -40603591.572885334 15820664.838877439 -239975.35578989983 0 -239975.35578989983 -99979063.830885887 0 0 0 -29455439.64720273 5239641.0029684305 1653428.9257461429 0 1653428.9257461429 -97941763.711655259 0 0 0 -32445742.948040366 5224961.004095912 -1382900.0975618362 0 -1382900.0975618362 -94944835.224380791 0 0 0 -31401955.977099538 -22768458.769809872 -4550622.4614339918 0 -4550622.4614339918 -88865656.757087499 0 0 0 -39071940.434414089 15161766.475031376 -255851.15035638213 0 -255851.15035638213 -100295867.56420326 0 0 0 -29796935.38120985 5813462.1400408447 1804212.2945200205 0 1804212.2945200205 -96317321.772166431 0 0 0 -31676350.871243984 4728839.6741095781 -1998653.6023085713 0 -1998653.6023085713 -97633277.667460322 0 0 0 -32516553.297672868 -32324488.310949966 -5812901.0649932213 0 -5812901.0649932213 -94586314.92460233 0 0 0 -44418781.132443279 15560157.568130732 -466188.66206526756 0 -466188.66206526756 -100247093.21394634 0 0 0 -29640427.476035595 7347826.4132043719 2043485.147505641 0 2043485.147505641 -99251883.424490333 0 0 0 -32166419.953950226 6321276.5326899886 -1005513.8087536693 0 -1005513.8087536693 -99814306.149432778 0 0 0 -32722560.365860045 -14614357.838061064 -4320479.5076474547 0 -4320479.5076474547 -92170754.690681756 0 0 0 -37374789.385060012 11429928.946681559 -1278848.7298083305 0 -1278848.7298083305 -98937144.757881522 0 0 0 -30627525.533919752 12284965.565388203 1143834.380237326 0 1143834.380237326 -99628849.661801338 0 0 0 -30570359.433744431 -9081817.8133850694 8073183.0722616836 0 8073183.0722616836 -102589411.9099673 0 0 0 -39084930.403173387 -3639148.4517325908 -6273150.8818670809 0 -6273150.8818670809 -103345073.96880555 0 0 0 -37444477.847188368 9314644.1023039818 -1813416.8091928288 0 -1813416.8091928288 -99037941.74821949 0 0 0 -31403154.176070452 15978050.340632468 307526.62876272202 0 307526.62876272202 -100343538.96539411 0 0 0 -29527921.018666476 -13878222.927898739 3075918.8529667258 0 3075918.8529667258 -97489055.239103317 0 0 0 -38978547.358450711 7876532.6155070066 1228546.669877369 0 1228546.669877369 -99375661.657092094 0 0 0 -32024695.164554715 2248831.3169207573 -983481.55092695355 0 -983481.55092695355 -98742692.874414921 0 0 0 -33772851.545122862 -33344119.92447494 11854083.953689836 0 11854083.953689836 -87698489.326464579 0 0 0 -42364913.237828828 12901688.366957068 214578.11404919624 0 214578.11404919624 -100294249.29451442 0 0 0 -30587396.324644923 2462521.1408390999 -395557.02718886733 0 -395557.02718886733 -94172473.521218181 0 0 0 -32098483.333132863 15928651.975615263 69593.721984341741 0 69593.721984341741 -101069825.96791792 0 0 0 -29799410.897305965 10561558.529504232 746208.58701229095 0 746208.58701229095 -101208955.3903572 0 0 0 -31726588.901298471 16014923.159763694 -86038.464976072311 0 -86038.464976072311 -100049347.16091228 0 0 0 -29412048.40040195 4528754.1083679199 1659516.6581218839 0 1659516.6581218839 -97918175.470754623 0 0 0 -32686297.47683537 4393082.8177673817 -2092244.3383008093 0 -2092244.3383008093 -97961649.277002096 0 0 0 -32748998.260732174 -22467420.828842908 -1533153.7515036017 0 -1533153.7515036017 -87712716.454765752 0 0 0 -38563048.04926303 14128319.662017345 -96108.54962515831 0 -96108.54962515831 -101592603.29115438 0 0 0 -30612499.270197868 9851350.965493679 -567480.0534889102 0 -567480.0534889102 -99146446.349496365 0 0 0 -31253283.384401321 5702879.2631490231 781150.56724715233 0 781150.56724715233 -99208873.786345005 0 0 0 -32727098.083118677 5800600.8798894882 -391973.68077623844 0 -391973.68077623844 -100497695.05061674 0 0 0 -33143982.959754467 4825373.5746268034 457115.12797987461 0 457115.12797987461 -99631037.187499046 0 0 0 -33181982.264505267 -24347345.219191968 20629679.772831917 0 20629679.772831917 -103917418.59402889 0 0 0 -44892667.334627301 -8470368.6155876815 -13675544.517629445 0 -13675544.517629445 -107147242.15098083 0 0 0 -40466163.768298894 15680286.581651926 -512805.30130594969 0 -512805.30130594969 -100125377.01271439 0 0 0 -29555781.650871992 8876691.3230011463 1701289.3824336529 0 1701289.3824336529 -99255378.552873969 0 0 0 -31632540.53045547 6998428.3759352565 -1075358.7341643572 0 -1075358.7341643572 -99682636.756308913 0 0 0 -32439472.933130682 -13250954.056214333 -5966865.0680915266 0 -5966865.0680915266 -95812737.481472135 0 0 0 -38172292.038190246 -1418173.4194571972 10932518.321506929 0 10932518.321506929 -105133590.72085375 0 0 0 -37293117.449108899 -13347854.237441503 -19478831.888360023 0 -19478831.888360023 -96351796.579346493 0 0 0 -38394877.78587576 11708006.528712511 271004.42129424214 0 271004.42129424214 -101655738.97005868 0 0 0 -31481706.354471207 10700460.965682864 -306555.53612168133 0 -306555.53612168133 -101636414.74422884 0 0 0 -31827583.822491288 13191317.02025342 -1303060.4591351151 0 -1303060.4591351151 -100807109.83373737 0 0 0 -30665527.484719396 13279865.492707372 1330262.8854012489 0 1330262.8854012489 -99974283.7183249 0 0 0 -30343046.378965974 4043863.6609379649 3088280.4364965856 0 3088280.4364965856 -100584736.30610538 0 0 0 -33789305.425808728 2759594.0381724238 -3567166.4019573629 0 -3567166.4019573629 -99434086.698437214 0 0 0 -33836072.431092739 4941141.9821782112 -1547411.4138535261 0 -1547411.4138535261 -101404029.50016725 0 0 0 -33762010.631296158 15745896.324876092 -15916.909871220589 0 -15916.909871220589 -100168198.8496217 0 0 0 -29547805.883660771 4487124.482206583 2054162.9987267666 0 2054162.9987267666 -96164363.661549568 0 0 0 -32087033.712769985 5071985.8699626923 -1454188.7958594235 0 -1454188.7958594235 -95420293.979423523 0 0 0 -31621907.838311195 -31556826.410208106 825433.78694295883 0 825433.78694295883 -91590334.498953611 0 0 0 -43101506.318206608 15418510.463169456 598275.59610819817 0 598275.59610819817 -100868596.81054533 0 0 0 -29907530.221581578 15145786.603392363 701397.02955049276 0 701397.02955049276 -101139094.13694286 0 0 0 -30097657.636742473 12944092.347731471 -523232.74649876356 0 -523232.74649876356 -101595790.29137743 0 0 0 -31028094.280276179 7606685.524002552 9964.557025551796 0 9964.557025551796 -99931724.826053619 0 0 0 -32313763.755717993 1312152.3595938683 178872.93975150585 0 178872.93975150585 -99325414.240140915 0 0 0 -34304641.658191442 1001760.898468713 2936086.7162805498 0 2936086.7162805498 -89189909.521204859 0 0 0 -30865852.017957646 -52955448.469145417 -25260782.227512568 0 -25260782.227512568 -98333599.841929451 0 0 0 -52951166.908876196 1305083.4362770417 -220229.4881362915 0 -220229.4881362915 -99258138.34000656 0 0 0 -34283569.216305368 -53295746.655501083 25297612.657175466 0 25297612.657175466 -98966450.768338248 0 0 0 -53291769.098343767 7418978.7781400681 -14925.294760291106 0 -14925.294760291106 -100103943.64444351 0 0 0 -32439737.703206062 1275269.0033815766 -2923210.5673232973 0 -2923210.5673232973 -88601622.525335982 0 0 0 -30564223.73268405 14288246.58154583 -1148972.6579834223 0 -1148972.6579834223 -100210443.01060247 0 0 0 -30072768.750169992 12736533.412325144 1432356.4983276725 0 1432356.4983276725 -100973258.78987408 0 0 0 -30882853.882142305 3872208.8641707301 2349881.3950587809 0 2349881.3950587809 -100958278.18622839 0 0 0 -33980124.262720168 987347.65184509754 -3625311.4484254271 0 -3625311.4484254271 -100390494.11172187 0 0 0 -34791101.260956824 16065168.523645461 86397.941177129745 0 86397.941177129745 -100180453.34180307 0 0 0 -29440349.686355054 5838117.9556262493 1715203.6241640449 0 1715203.6241640449 -98991933.8987782 0 0 0 -32603835.580103159 5823465.3524563313 -2203237.941156432 0 -2203237.941156432 -98995818.097922564 0 0 0 -32610323.460913181 -16818531.388205819 874391.85636480153 0 874391.85636480153 -89556523.135478392 0 0 0 -37231269.083289467 13373520.164647818 -1444275.1579368114 0 -1444275.1579368114 -99994068.169287682 0 0 0 -30317191.80162406 13362681.653252006 1227888.606761992 0 1227888.606761992 -100781461.78664017 0 0 0 -30596573.046686053 712594.1267414093 2543766.2677574158 0 2543766.2677574158 -101122075.32610166 0 0 0 -35143318.419776142 2772157.9947119355 -3339688.1321803033 0 -3339688.1321803033 -101099825.78007519 0 0 0 -34414683.724877059 2856253.5867738724 -870195.83901238441 0 -870195.83901238441 -97159531.903648376 0 0 0 -33006147.410906076 -40291162.639227845 11201643.900621824 0 11201643.900621824 -91581330.905067548 0 0 0 -46155372.740503386 2686224.5776473284 768285.87156307697 0 768285.87156307697 -91025764.311688185 0 0 0 -30918838.906914234 13729852.042116642 143795.74256145954 0 143795.74256145954 -99988685.647214413 0 0 0 -30190591.761783838 629898.13512706757 -459389.51974892616 0 -459389.51974892616 -97372815.659974337 0 0 0 -33860021.133696556 -47287997.592030726 13386282.852446161 0 13386282.852446161 -87818350.013415575 0 0 0 -47287221.661906205 12751008.101664066 169951.18405598024 0 169951.18405598024 -100213735.1465106 0 0 0 -30611954.465696335 842149.75058133819 499731.21829140186 0 499731.21829140186 -85721640.663128108 0 0 0 -29707821.819391295 1007077.8771475358 1036056.5717474818 0 1036056.5717474818 -88082076.67317909 0 0 0 -30476249.578611035 14064812.929829121 132615.59218525887 0 132615.59218525887 -99881137.830882072 0 0 0 -30035713.715368748 -46896134.233960137 10280557.981718786 0 10280557.981718786 -87096473.454558641 0 0 0 -46897412.690981567 1181059.2041973723 -440255.10533964634 0 -440255.10533964634 -95979828.720809773 0 0 0 -33179569.330814276 7855612.1840150356 -418054.50396680832 0 -418054.50396680832 -99391397.564858437 0 0 0 -32037524.883295059 5150954.9857831001 570323.93105995655 0 570323.93105995655 -99061394.778119087 0 0 0 -32868653.927317619 -16308530.279894799 20595528.935413569 0 20595528.935413569 -100134095.50896364 0 0 0 -40754919.026100457 -6583530.2420007586 -17524556.681506604 0 -17524556.681506604 -110831139.05558068 0 0 0 -41095134.25415343 14910169.999676526 -782360.42957031727 0 -782360.42957031727 -100865418.02497447 0 0 0 -30084336.808854163 15086752.639006153 -923486.13692200184 0 -923486.13692200184 -100280215.24046949 0 0 0 -29817711.910512432 12322724.843957901 1724897.3006906509 0 1724897.3006906509 -99556688.879844427 0 0 0 -30531887.412560344 12107814.285788774 1563941.5262502655 0 1563941.5262502655 -100864291.06974697 0 0 0 -31064766.874385357 7146455.136277914 1280039.7642015293 0 1280039.7642015293 -101142783.5367316 0 0 0 -32898714.940158725 5639456.8020056486 913238.19110095873 0 913238.19110095873 -101636028.3208549 0 0 0 -33598800.031597257 -5525098.5381118655 -2507518.9863193035 0 -2507518.9863193035 -101121758.61284366 0 0 0 -37326400.002834439 493925.15467578173 -3447307.7691633403 0 -3447307.7691633403 -99203647.392599791 0 0 0 -34548402.783273399 8308678.3346629143 -506919.10601425171 0 -506919.10601425171 -99412663.140950918 0 0 0 -31886394.682200909 7635874.78363204 738024.36656504869 0 738024.36656504869 -98853887.561789036 0 0 0 -31926304.472354889 7931627.5225336552 -2046519.0013850331 0 -2046519.0013850331 -97727795.580849409 0 0 0 -31428658.820410371 15519312.404062986 355383.05989527702 0 355383.05989527702 -100514185.09426451 0 0 0 -29748205.44157052 -21779603.599736512 3572239.4370983541 0 3572239.4370983541 -96093822.665407389 0 0 0 -41255699.192800343 6464716.0690499544 992435.61601042747 0 992435.61601042747 -98380803.42514205 0 0 0 -32170630.574632168 6566654.4371272326 -330174.10691908002 0 -330174.10691908002 -100595841.06423318 0 0 0 -32910215.319487154 5175722.6703829765 -125063.04375590384 0 -125063.04375590384 -101225668.31305277 0 0 0 -33617480.974934578 15234343.313494205 486227.79560382664 0 486227.79560382664 -99918047.435304165 0 0 0 -29639296.442633629 6105381.493002072 -1949605.4676248431 0 -1949605.4676248431 -99508710.800678462 0 0 0 -32691165.257686839 5214905.9581459016 801999.39016091824 0 801999.39016091824 -99239696.232589602 0 0 0 -32908676.596055344 -15670320.237698019 6316173.6869589044 0 6316173.6869589044 -90274349.967533231 0 0 0 -37080634.571830958 12541308.432565272 -611972.58285915852 0 -611972.58285915852 -101352973.70074129 0 0 0 -31084082.84386158 14660626.226684809 -956981.65778198838 0 -956981.65778198838 -101088599.20460892 0 0 0 -30249790.542273283 13101684.264450967 1443412.0289473534 0 1443412.0289473534 -100278840.98223662 0 0 0 -30512004.85122472 7557972.7413674295 1344131.0217210054 0 1344131.0217210054 -101019016.23410326 0 0 0 -32711365.222457558 1390969.3638687134 -1812565.9162321538 0 -1812565.9162321538 -99942625.717072606 0 0 0 -34493079.723621428 14936479.202073514 806761.28584134579 0 806761.28584134579 -100648551.05546087 0 0 0 -29999225.148685396 10454425.336088419 -1827711.4265149981 0 -1827711.4265149981 -99545798.341918945 0 0 0 -31181980.552040577 7237534.5301985741 -1058238.7039535418 0 -1058238.7039535418 -101129181.49328804 0 0 0 -32862076.437081337 -6480784.1511220261 4405427.4075708091 0 4405427.4075708091 -96522445.994296104 0 0 0 -36051130.550896339 10679158.904972263 284659.35306602716 0 284659.35306602716 -101670250.78453188 0 0 0 -31846882.157845907 -707271.67751467228 1477916.5975639224 0 1477916.5975639224 -101515569.539253 0 0 0 -35777994.42586875 11693846.511508465 -471634.69691258669 0 -471634.69691258669 -101966518.00036216 0 0 0 -31595435.021098852 14015891.529878139 1258991.6599459052 0 1258991.6599459052 -100860783.72533035 0 0 0 -30395712.268408298 12675120.960612148 -188191.36759787798 0 -188191.36759787798 -101666867.6319319 0 0 0 -31147111.334961921 15367178.723417997 -15124.487246092045 0 -15124.487246092045 -100069471.11770296 0 0 0 -29645802.337999821 810194.50588577054 689598.79184442759 0 689598.79184442759 -93427281.986002341 0 0 0 -32415980.618040871 1418889.0060722288 -669593.01291435957 0 -669593.01291435957 -91483948.265432954 0 0 0 -31522770.740776237 -46911629.106843941 -991783.11962581682 0 -991783.11962581682 -87130072.621866673 0 0 0 -46914595.605048709 9579486.5835011601 -1998959.7631483078 0 -1998959.7631483078 -99873673.357263565 0 0 0 -31602965.370816886 16026468.85120368 310804.50201380253 0 310804.50201380253 -100582104.12966728 0 0 0 -29594472.347461939 -8031883.3233708143 1582334.3514165133 0 1582334.3514165133 -96438447.047042847 0 0 0 -36564615.629644752 8568374.4874394536 1002890.7580336928 0 1002890.7580336928 -100488094.5834893 0 0 0 -32171902.033617318 4577007.1352692246 488978.20420288667 0 488978.20420288667 -98586175.295689821 0 0 0 -32903208.85614723 14144150.526224852 318650.35845524073 0 318650.35845524073 -101371532.52759457 0 0 0 -30529583.700479746 12693134.80093801 -104998.4155369103 0 -104998.4155369103 -101824268.97753191 0 0 0 -31195896.961807847 -40177768.822479799 -47204964.866449937 0 -47204964.866449937 -186999494.44418383 0 0 0 -79512042.143332243 -79348934.723027185 47406707.923464239 0 47406707.923464239 -147593479.40851462 0 0 0 -79429844.946039647 -40296970.578540839 47361777.257446423 0 47361777.257446423 -186944981.32711357 0 0 0 -79534683.166979045 -79238229.881825849 -47287845.763501443 0 -47287845.763501443 -147386494.07204193 0 0 0 -79318653.383853719 1109062.4775371552 -606.72685330697038 0 -606.72685330697038 -100402569.51721764 0 0 0 -34752727.463887691 925428.8048593998 -71958.971195340157 0 -71958.971195340157 -99743254.21559 0 0 0 -34586238.893755674 1097863.7019667625 21707.567569971085 0 21707.567569971085 -100330623.08313847 0 0 0 -34731465.783410311 822794.96810113324 71717.834614872932 0 71717.834614872932 -99722152.568974257 0 0 0 -34614775.160305627 13685809.954017639 818130.1310955286 0 818130.1310955286 -101550869.34559965 0 0 0 -30752770.787053823 11073838.077110171 370502.71759048104 0 370502.71759048104 -101523149.02211165 0 0 0 -31657258.830750585 10657727.705745578 -363588.52379360795 0 -363588.52379360795 -101296127.38706303 0 0 0 -31723439.888461053 14543025.031175137 -185515.58044326305 0 -185515.58044326305 -100191790.26167321 0 0 0 -29977067.830674171 3425287.0728924274 1331422.1031227112 0 1331422.1031227112 -96356730.814886093 0 0 0 -32526005.309697866 3499631.7569291592 -905965.91143158078 0 -905965.91143158078 -91811384.444028616 0 0 0 -30909113.440484762 -39513286.25164596 -7523695.5262081306 0 -7523695.5262081306 -91617326.603083163 0 0 0 -45895714.499155201 13491561.272295058 -1129665.4629285336 0 -1129665.4629285336 -100519561.84488368 0 0 0 -30459800.200406015 11509896.145637274 1653004.0079129189 0 1653004.0079129189 -99784851.121829987 0 0 0 -30896234.241667509 3382490.5071545243 3268594.1005648375 0 3268594.1005648375 -101747890.67799771 0 0 0 -34427890.059795082 -2818794.4104100615 -5198089.9716525078 0 -5198089.9716525078 -98816139.692424297 0 0 0 -35572226.935992017 10843719.136406127 312336.10121649504 0 312336.10121649504 -101479308.74438083 0 0 0 -31722456.362791236 5923671.5470536351 -887491.39995975792 0 -887491.39995975792 -100919396.59428549 0 0 0 -33248503.766531169 12736269.079909086 -236037.84845888615 0 -236037.84845888615 -99785295.857313633 0 0 0 -30467159.372091532 880161.27473473549 419207.59603685141 0 419207.59603685141 -98567608.590686321 0 0 0 -34190606.560582995 12477526.981236696 -244318.66834253073 0 -244318.66834253073 -100377964.56603956 0 0 0 -30765153.154680967 2085806.0258135796 929214.6401604414 0 929214.6401604414 -98738542.670775652 0 0 0 -33828457.825736761 -148771.36422777176 -932379.31376062334 0 -932379.31376062334 -92320839.230990648 0 0 0 -32364363.708326399 -36520027.004072182 -14794491.549476199 0 -14794491.549476199 -84285811.303151071 0 0 0 -42282043.40752814 1643020.1877040863 630343.51628500223 0 630343.51628500223 -94046052.941791892 0 0 0 -32341061.463930964 -34873177.796982482 -12751099.753569728 0 -12751099.753569728 -88229076.245144635 0 0 0 -43085788.914744481 5440826.2022676468 -691819.73521238565 0 -691819.73521238565 -98951657.376980782 0 0 0 -32728790.911149502 9865745.7102767825 475433.28587186337 0 475433.28587186337 -99139976.266712666 0 0 0 -31245980.694752514 10054537.858523071 -1680945.5397555232 0 -1680945.5397555232 -100221793.42515457 0 0 0 -31558539.448321164 14447491.255011559 884318.65408787131 0 884318.65408787131 -99868045.665615082 0 0 0 -29897194.043711185 -6833220.1736630797 6788640.6736813113 0 6788640.6736813113 -98197221.78443855 0 0 0 -36760654.685335577 5267829.3162154555 -1638375.0038851202 0 -1638375.0038851202 -100165313.00068897 0 0 0 -33214119.289565802 -28668692.75748428 20016010.997516111 0 20016010.997516111 -103757117.93719372 0 0 0 -46349033.743137307 -2666361.1351000071 -7786678.9461969361 0 -7786678.9461969361 -101658169.57089996 0 0 0 -36513585.747099936 7415977.028686285 -638873.25926196575 0 -638873.25926196575 -101083721.17267001 0 0 0 -32783710.450394273 15751057.165902972 146830.36012673378 0 146830.36012673378 -100293057.62574768 0 0 0 -29589700.160945773 5816354.1629579067 2057000.5105119944 0 2057000.5105119944 -96377849.718690395 0 0 0 -31696523.444506526 6342476.4186779261 -1795219.90296413 0 -1795219.90296413 -96567657.561357737 0 0 0 -31578813.399937987 -27651537.013491973 3098676.8375518471 0 3098676.8375518471 -94273742.852187216 0 0 0 -42673847.952987701 16153347.951515317 64450.998965084553 0 64450.998965084553 -100648270.89100194 0 0 0 -29573223.028820276 15889814.0331738 200775.03716659546 0 200775.03716659546 -101029196.06919837 0 0 0 -29798783.712608576 10713130.395682573 1139306.0398125648 0 1139306.0398125648 -101204838.07927465 0 0 0 -31672097.689257145 9735914.183175087 712436.61135017872 0 712436.61135017872 -100735460.18088889 0 0 0 -31849841.099199772 10890702.103095531 -1345883.8419366777 0 -1345883.8419366777 -101370740.29199243 0 0 0 -31668013.366113901 11232273.067960739 -1309831.4594603479 0 -1309831.4594603479 -100424352.17923665 0 0 0 -31217227.688946724 13979109.19703269 -384932.80928474665 0 -384932.80928474665 -99838167.043778419 0 0 0 -30050670.246361017 5248511.2160013914 1418856.7927154303 0 1418856.7927154303 -97479644.800646782 0 0 0 -32280896.754626036 4102011.7653294802 -565086.75762349367 0 -565086.75762349367 -95609342.116420567 0 0 0 -32027565.62288177 -31287867.988785714 -10851891.210249584 0 -10851891.210249584 -94773419.228991508 0 0 0 -44121450.52622205 14257268.5535326 -528337.81304490566 0 -528337.81304490566 -100357565.01953173 0 0 0 -30135103.76309967 6986446.9889576435 1875681.6449094415 0 1875681.6449094415 -97841728.887368679 0 0 0 -31799348.66444397 4383849.078098774 470035.3144607842 0 470035.3144607842 -98353186.492152214 0 0 0 -32889268.094918728 -24355158.552989587 -7673191.1411859244 0 -7673191.1411859244 -95615541.26654157 0 0 0 -41989744.9368359 9977376.0642820597 287078.35621911287 0 287078.35621911287 -101514101.24930549 0 0 0 -32037853.814758182 6142200.4763957262 -1559511.4244472384 0 -1559511.4244472384 -98260211.132076263 0 0 0 -32241303.729488134 13794007.234975576 541028.43192398548 0 541028.43192398548 -99553701.294180393 0 0 0 -30015892.920721769 -24543957.680508882 10874574.840876423 0 10874574.840876423 -95022401.565191567 0 0 0 -41848225.735995173 3922504.3654279113 -607739.62587305903 0 -607739.62587305903 -98127820.794341683 0 0 0 -32971860.750119805 9342999.9978334904 -673257.28010773659 0 -673257.28010773659 -100381425.21654129 0 0 0 -31863448.826547623 6729595.6728682518 891132.68640351295 0 891132.68640351295 -99247428.492003679 0 0 0 -32381241.486697435 14442812.310716987 -1001189.5390350819 0 -1001189.5390350819 -99960862.297623158 0 0 0 -29931317.495416999 11023779.348931432 1830577.9067999125 0 1830577.9067999125 -100557717.6751895 0 0 0 -31336878.414190531 4689716.5030745268 1689302.386464864 0 1689302.386464864 -100744608.13093519 0 0 0 -33619212.069751143 -3509074.0206062794 -4731109.5636153519 0 -4731109.5636153519 -98942979.303397954 0 0 0 -35858218.663401425 15509189.107982159 260735.30273044109 0 260735.30273044109 -101408324.9302237 0 0 0 -30064697.537784457 12853398.503430367 -156042.29376852512 0 -156042.29376852512 -100030529.70984745 0 0 0 -30511995.922245979 925440.10739174404 423345.97928059101 0 423345.97928059101 -97064461.235748217 0 0 0 -33648657.394924849 880708.14212910843 -660136.05484718084 0 -660136.05484718084 -85224212.150575548 0 0 0 -29520226.402956322 -47731830.020156577 -13479064.885464789 0 -13479064.885464789 -88639132.498039052 0 0 0 -47729836.881368473 2948441.3055222631 171643.25896841288 0 171643.25896841288 -101537560.36826599 0 0 0 -34506191.671960294 15305581.570157528 34202.343495845795 0 34202.343495845795 -100062975.35746574 0 0 0 -29665087.825557232 819940.28101503849 732511.08023583889 0 732511.08023583889 -91076561.053735971 0 0 0 -31589817.27045238 647202.82296102168 -695030.71087133884 0 -695030.71087133884 -93139821.802819863 0 0 0 -32372416.642950486 -46447902.367998548 2098772.1921822424 0 2098772.1921822424 -86256390.346160263 0 0 0 -46446502.449955575 -1079734.1274927855 7296409.6813572347 0 7296409.6813572347 -100817096.82342738 0 0 0 -35663890.832822084 -28423338.934043676 -19915656.491061866 0 -19915656.491061866 -103937532.07177556 0 0 0 -46326304.852036715 3981059.3629880548 -312338.95080256462 0 -312338.95080256462 -98949148.512819886 0 0 0 -33238831.202441156 11184491.530776694 -356617.11950975657 0 -356617.11950975657 -101567407.18103895 0 0 0 -31634020.477591798 9576232.0684452653 120994.8209438324 0 120994.8209438324 -101661656.31420946 0 0 0 -32229898.486017525 -193912.4029481411 1193816.5918705761 0 1193816.5918705761 -94282589.04368782 0 0 0 -33066775.506322622 15492522.308309436 92076.776805639267 0 92076.776805639267 -99871595.69654882 0 0 0 -29532675.685883641 -37256468.857188843 3622415.7180158496 0 3622415.7180158496 -82491019.951941654 0 0 0 -41911621.083195664 914911.17417597771 -610576.59853875637 0 -610576.59853875637 -95247266.804805279 0 0 0 -33016324.470720053 15388361.279867172 -675094.84401977062 0 -675094.84401977062 -100687642.72601557 0 0 0 -29854748.506152153 12844842.99828589 1235633.6760268807 0 1235633.6760268807 -100737288.84787488 0 0 0 -30762356.047356009 7363990.9505624175 419935.72155660391 0 419935.72155660391 -101390747.79158556 0 0 0 -32909364.894358218 -152734.89735841751 -2171443.3442342281 0 -2171443.3442342281 -100785386.60061657 0 0 0 -35328342.524291277 13734147.902357399 1065016.1611391306 0 1065016.1611391306 -101319120.70170581 0 0 0 -30654740.479772031 13721980.936705112 405782.90444624424 0 405782.90444624424 -101383153.54273915 0 0 0 -30681410.412111998 13727061.602586508 -1086816.9461156726 0 -1086816.9461156726 -99801308.237421989 0 0 0 -30125986.32219243 10268149.265612602 1572531.5863199234 0 1572531.5863199234 -99811632.274773836 0 0 0 -31340219.053206444 3148894.3877511621 2982997.2850717604 0 2982997.2850717604 -101087308.96456647 0 0 0 -34278445.101885378 -7785497.7570610642 -7224042.6127619147 0 -7224042.6127619147 -98709392.313714385 0 0 0 -37273211.524771392 6393356.5601303577 -1247222.4333538711 0 -1247222.4333538711 -101606077.76784086 0 0 0 -33324452.422698736 13044795.213847637 -455390.87118256092 0 -455390.87118256092 -100286788.63867664 0 0 0 -30534697.698689938 4199654.9639987946 1284590.0296100676 0 1284590.0296100676 -99367823.381925106 0 0 0 -33308858.946274042 2725577.6611166 696109.69522044063 0 696109.69522044063 -99511216.085372448 0 0 0 -33874973.448489547 -22399614.24231464 -11748705.135160193 0 -11748705.135160193 -89700002.569245398 0 0 0 -39234865.884045988 15566319.496692896 -159152.16881263256 0 -159152.16881263256 -100330220.12905121 0 0 0 -29667365.221325397 4837633.5954972506 2052485.165646553 0 2052485.165646553 -96563485.852379084 0 0 0 -32104048.289908648 -31145550.519269526 -2025331.3571371026 0 -2025331.3571371026 -92335822.939838648 0 0 0 -43218480.710687876 8838045.5117166042 -204277.75765527785 0 -204277.75765527785 -101357316.16648245 0 0 0 -32381744.729167938 220194.01076519489 -946289.46502369642 0 -946289.46502369642 -95306000.065672159 0 0 0 -33280032.119217277 -36076513.863487341 165739.9166108612 0 165739.9166108612 -81094790.114069432 0 0 0 -41009956.392144866 2687210.1545556784 -1269598.8115597367 0 -1269598.8115597367 -93846894.430424929 0 0 0 -31905889.496554375 -39431951.322698191 737775.71566448733 0 737775.71566448733 -88360367.277741134 0 0 0 -44727311.51015377 706329.3416403532 474366.56008976698 0 474366.56008976698 -94392531.865178108 0 0 0 -32790170.883238077 15606601.828455687 -10000.922709107399 0 -10000.922709107399 -99963980.93798542 0 0 0 -29525082.688335657 15574030.973713875 18233.589695692062 0 18233.589695692062 -100061949.43516874 0 0 0 -29570771.461509228 1852250.1157342196 1303152.3208163381 0 1303152.3208163381 -94319441.996132851 0 0 0 -32363517.158139467 15741145.690998793 -155055.70452487469 0 -155055.70452487469 -99984891.950325966 0 0 0 -29485311.190764427 3138167.8606705666 1449451.0764622688 0 1449451.0764622688 -96955275.368043423 0 0 0 -32835987.627580523 -28560232.364619806 -3398438.6365042403 0 -3398438.6365042403 -85061612.780823603 0 0 0 -39767645.800905198 13766329.865290403 -835918.23549252748 0 -835918.23549252748 -99676706.234437943 0 0 0 -30068631.729201317 9114565.6097313166 1599949.2856196165 0 1599949.2856196165 -99247392.031475544 0 0 0 -31546489.24761045 3184514.4233964682 2156316.7237642109 0 2156316.7237642109 -100088844.90775931 0 0 0 -33916515.669526994 -14377799.734092623 -9385338.6226741821 0 -9385338.6226741821 -99807965.538755774 0 0 0 -39965017.845496953 9991751.825409174 30454.605595350266 0 30454.605595350266 -101663861.19823098 0 0 0 -32085238.280487418 15925888.827938914 300043.22052609921 0 300043.22052609921 -100785508.67870474 0 0 0 -29700866.947768092 10753317.589459538 -1603472.7373730838 0 -1603472.7373730838 -99840669.052910328 0 0 0 -31180573.012207866 8731322.1271606684 745680.5333288908 0 745680.5333288908 -100092610.76498032 0 0 0 -31976451.023236871 -9125799.6511437297 2124668.9508073181 0 2124668.9508073181 -100282858.30168498 0 0 0 -38293030.283490062 13468826.072539687 -155641.11163413525 0 -155641.11163413525 -100161806.40554452 0 0 0 -30342543.11655128 367199.29336690903 647585.78623953462 0 647585.78623953462 -98608841.547956467 0 0 0 -34384574.789106369 93211.098986744881 -133666.81165851653 0 -133666.81165851653 -92507777.172693729 0 0 0 -32345098.125797391 -35156196.205213293 -11112015.605297484 0 -11112015.605297484 -81742464.065942898 0 0 0 -40914531.094904661 13796569.169568785 -253700.56916201115 0 -253700.56916201115 -99669140.594790518 0 0 0 -30055399.998827688 2889409.5257666111 812313.39945167303 0 812313.39945167303 -97262522.712473869 0 0 0 -33030589.615347624 2769537.0164045095 -1268056.9338373113 0 -1268056.9338373113 -92310930.32395339 0 0 0 -31339487.657642126 -38013415.366973013 -12155568.969776297 0 -12155568.969776297 -89857055.889059842 0 0 0 -44754664.939611495 2876878.5880801678 -1667092.613997817 0 -1667092.613997817 -96210944.321374059 0 0 0 -32666923.006652713 4846816.3156028986 -1306058.4338254333 0 -1306058.4338254333 -95573289.901567221 0 0 0 -31754265.755087495 14930130.762465596 172585.27197927237 0 172585.27197927237 -101282580.31772804 0 0 0 -30223357.344341874 15798395.524470568 -381245.49861395359 0 -381245.49861395359 -100795464.66754675 0 0 0 -29748974.20007658 9968306.4643845558 1902705.7886385918 0 1902705.7886385918 -99603897.766258001 0 0 0 -31372456.955655694 8248178.5215806961 -698532.18894192576 0 -698532.18894192576 -100796654.38839829 0 0 0 -32391966.553386152 -8668313.9140728116 -1863179.4566355199 0 -1863179.4566355199 -97379787.263590276 0 0 0 -37116835.412182063 13591516.703620672 -446519.0264146328 0 -446519.0264146328 -101537822.19970059 0 0 0 -30781206.923628211 14407791.811037183 -453207.75273478031 0 -453207.75273478031 -100054397.4869864 0 0 0 -29976311.98658216 4804982.2535614967 1557921.5153540373 0 1557921.5153540373 -99063405.328023195 0 0 0 -32990448.076061487 4135433.7469111681 -469801.51659324765 0 -469801.51659324765 -98633398.795420408 0 0 0 -33074287.766978383 -20810763.349374503 -9183689.4061654881 0 -9183689.4061654881 -89463669.052682683 0 0 0 -38596051.340720013 14679506.549185514 271944.07283422351 0 271944.07283422351 -101678150.2346952 0 0 0 -30449525.289928198 4608491.194286108 -1470629.2376630306 0 -1470629.2376630306 -98872252.329239607 0 0 0 -32992316.397233605 -24204296.142326713 10470919.876466237 0 10470919.876466237 -90896905.532206386 0 0 0 -40285420.586086601 13235554.259045601 392272.67615175247 0 392272.67615175247 -100468009.13340235 0 0 0 -30531359.206024885 3681602.2347410917 -647956.29068809748 0 -647956.29068809748 -98113912.031826138 0 0 0 -33051308.428979814 14711673.911475182 -317682.2909168303 0 -317682.2909168303 -99756710.747374058 0 0 0 -29765762.892564535 3364100.6632490307 1289695.5121250749 0 1289695.5121250749 -98111004.772953391 0 0 0 -33161416.438396439 3045372.1977221966 -1132006.3939344883 0 -1132006.3939344883 -95867909.430692792 0 0 0 -32487888.031539679 -28702743.001444697 -8786369.3376732469 0 -8786369.3376732469 -87872684.165052116 0 0 0 -40801399.50827387 13626846.182832241 -272662.65840494633 0 -272662.65840494633 -100297917.81822586 0 0 0 -30334875.072387695 3222991.6645245552 1303019.0729386806 0 1303019.0729386806 -98369602.927799463 0 0 0 -33301313.942146063 3027389.6793824434 -107817.05474388599 0 -107817.05474388599 -95036466.801048636 0 0 0 -32203176.992583156 -31863997.513877988 -9578496.3542219512 0 -9578496.3542219512 -89914139.563639253 0 0 0 -42622347.977131039 16070165.79364419 -317990.53048497438 0 -317990.53048497438 -100184883.12167168 0 0 0 -29440151.064810038 9467990.3650850058 1815034.7345507741 0 1815034.7345507741 -99493006.140419483 0 0 0 -31508755.521366954 8247479.9941776395 -1219956.3788629174 0 -1219956.3788629174 -99548159.459568977 0 0 0 -31955237.812886894 -11598773.274248838 -3128470.7153530419 0 -3128470.7153530419 -96852414.046426356 0 0 0 -37957915.562236309 15727399.895289898 381798.40783929825 0 381798.40783929825 -101118105.29700398 0 0 0 -29886746.890599966 15998688.47449398 399811.08173346519 0 399811.08173346519 -100615717.8354001 0 0 0 -29615960.27631712 12525056.422093391 -1072868.9346775413 0 -1072868.9346775413 -100666061.98725605 0 0 0 -30849351.947806954 9131741.4314348698 84146.061126589775 0 84146.061126589775 -101455968.99562359 0 0 0 -32313479.647466063 11566668.984741092 -1527554.9476670921 0 -1527554.9476670921 -101083984.53282118 0 0 0 -31331060.441828012 9851059.837767601 568535.73844921589 0 568535.73844921589 -101217749.70969081 0 0 0 -31978341.455173016 8451390.8799832389 -420595.66072034836 0 -420595.66072034836 -101461973.62378979 0 0 0 -32553703.960332341 7510384.8080212921 230693.74294805527 0 230693.74294805527 -100908616.10198575 0 0 0 -32689380.952887431 1443983.6664480865 1322770.8690603673 0 1322770.8690603673 -97550788.803458273 0 0 0 -33637381.797953576 -469787.88151812553 460842.35881422507 0 460842.35881422507 -100714660.49678707 0 0 0 -35414556.932406664 9901385.9901804924 -400056.51882895827 0 -400056.51882895827 -101315635.06632757 0 0 0 -31994987.176651359 9021856.0217078924 -53183.40732653439 0 -53183.40732653439 -101622267.84494209 0 0 0 -32410144.138131976 3378037.8329808712 -1083574.8240682483 0 -1083574.8240682483 -93531209.056720138 0 0 0 -31553609.928308725 -37113087.011393666 -1243908.3514729347 0 -1243908.3514729347 -89166656.478815034 0 0 0 -44197910.22157304 2431687.4404096603 -1708286.4902680516 0 -1708286.4902680516 -96306964.881457925 0 0 0 -32856347.104366899 -31003587.537835717 -979766.92917674128 0 -979766.92917674128 -85917933.004200011 0 0 0 -40922532.189712495 15436683.560431242 -71635.41416311264 0 -71635.41416311264 -100201098.18065071 0 0 0 -29667545.117077112 2671961.6712992191 1610250.7279193401 0 1610250.7279193401 -95956837.34970808 0 0 0 -32649706.48744297 15811693.59645772 -31380.373927414417 0 -31380.373927414417 -99984358.746423721 0 0 0 -29460432.802488089 3001876.6555199027 1201370.7973299026 0 1201370.7973299026 -95886490.65542829 0 0 0 -32509614.899967968 13587673.006846189 -1133313.8739840984 0 -1133313.8739840984 -99890337.573664904 0 0 0 -30205932.598386526 12502622.306241274 1445638.8219373673 0 1445638.8219373673 -100224176.09785366 0 0 0 -30702543.827064514 495154.44617950916 3581097.2025526091 0 3581097.2025526091 -101319496.09366322 0 0 0 -35288519.576619267 -3463876.677032128 -5150388.0587480664 0 -5150388.0587480664 -102595397.79435626 0 0 0 -37120746.064986005 1356415.1795013547 76862.220250248909 0 76862.220250248909 -97286277.070857108 0 0 0 -33575451.66197449 16036594.875436783 144256.36606559157 0 144256.36606559157 -100849318.62405157 0 0 0 -29684453.312015295 16141964.816672802 224051.53049210878 0 224051.53049210878 -100560711.16044664 0 0 0 -29546561.22032094 10494058.240235034 -1636128.5400307178 0 -1636128.5400307178 -100835631.51159379 0 0 0 -31619550.644975599 10035960.746981502 -1623416.5809937716 0 -1623416.5809937716 -99833164.509160638 0 0 0 -31429021.316762805 9695251.6344860792 1084379.8872140646 0 1084379.8872140646 -100199177.49964225 0 0 0 -31676374.052804589 9559514.647157535 1149295.0170638561 0 1149295.0170638561 -100828654.2779036 0 0 0 -31944198.870761171 -2660185.6195015907 1240632.6192214873 0 1240632.6192214873 -96994928.416282773 0 0 0 -34879289.912524462 -8587042.5206772089 283374.94923980534 0 283374.94923980534 -99344970.311056256 0 0 0 -37776204.491106749 10894778.821585834 -530314.75003910065 0 -530314.75003910065 -101294812.96533155 0 0 0 -31640011.950311124 16240517.02573657 110572.50388902426 0 110572.50388902426 -100473121.17698479 0 0 0 -29481411.452937126 8867191.3596340418 1610142.0376057029 0 1610142.0376057029 -99897897.701923609 0 0 0 -31860747.219801307 9392920.5695627928 -1678196.4271128178 0 -1678196.4271128178 -100178852.83911133 0 0 0 -31775076.294341922 -8714715.4362618923 1329919.6883539408 0 1329919.6883539408 -96833197.396711707 0 0 0 -36941769.49154073 -4286078.718298763 749135.31492087245 0 749135.31492087245 -99997729.815900147 0 0 0 -36499332.98696956 14087630.125215054 -1024757.6200581193 0 -1024757.6200581193 -100835891.5191257 0 0 0 -30361891.487868786 12754636.378140926 1635589.9244883657 0 1635589.9244883657 -99629020.081584692 0 0 0 -30406034.296205282 5257234.9811798334 2438469.3244312406 0 2438469.3244312406 -101763205.95610404 0 0 0 -33777089.841223478 -1585329.1581709385 -3258177.868993789 0 -3258177.868993789 -100277692.0555073 0 0 0 -35652057.424787283 10656244.535618663 -150959.30871880054 0 -150959.30871880054 -101654850.85593784 0 0 0 -31849512.212111592 245599.19246006012 -538743.44973278046 0 -538743.44973278046 -98599686.462074757 0 0 0 -34423930.544365406 -34338779.059827387 11319405.200450042 0 11319405.200450042 -80532358.635087445 0 0 0 -40204898.193220183 13720466.897160292 144034.2926223278 0 144034.2926223278 -100006194.53097343 0 0 0 -30200004.671834707 -92331.689126253128 526076.61242648959 0 526076.61242648959 -92492761.873133898 0 0 0 -32404782.746791124 13295231.544724703 -975990.85815018415 0 -975990.85815018415 -100699545.13497972 0 0 0 -30591509.756589413 9664419.2893079519 1715009.1086649299 0 1715009.1086649299 -99560544.072380781 0 0 0 -31463643.674075723 4163508.187477529 2693309.0006783903 0 2693309.0006783903 -101634640.78096855 0 0 0 -34114896.407721758 -7542568.2121659219 -7151490.3298612833 0 -7151490.3298612833 -96257619.669185996 0 0 0 -36330065.758473068 15790640.796498775 309438.008313559 0 309438.008313559 -100898696.92445374 0 0 0 -29787819.644784212 10727324.830111649 559814.35105139017 0 559814.35105139017 -101291437.70394439 0 0 0 -31697439.505841348 8428964.3198791742 -33570.94131988287 0 -33570.94131988287 -101355733.66466749 0 0 0 -32524369.270675838 13945521.178299189 841032.26426070929 0 841032.26426070929 -101008310.59804153 0 0 0 -30471976.296909809 14432462.150646567 -335999.82611501217 0 -335999.82611501217 -100272021.52333689 0 0 0 -30043845.78044188 5686932.8291187286 1694297.6874136627 0 1694297.6874136627 -97021306.589948177 0 0 0 -31967030.816290379 4794876.8882734776 -632164.53487721086 0 -632164.53487721086 -95237225.315559864 0 0 0 -31654821.949550152 -32377557.340652309 -7937957.104246065 0 -7937957.104246065 -95368177.613502428 0 0 0 -44711007.233954154 14264167.208673716 876045.28910419345 0 876045.28910419345 -101474936.98060298 0 0 0 -30523769.420175314 
</DataArray>
</CellData>
</Piece>
</UnstructuredGrid>
</VTKFile>
