<?xml version="1.0"?>
<VTKFile type="UnstructuredGrid" version="0.1" byte_order="LittleEndian">
<UnstructuredGrid>
<Piece NumberOfPoints="3162" NumberOfCells="1054">
<Points>
<DataArray type="Float64" NumberOfComponents="3" format="ascii">
0.39507969989512881 0.74417394063201048 0 0.42715538333808079 0.70077759375307946 0 0.44764943295894188 0.73752415265401661 0 0.74417394063200648 0.6049203001048884 0 0.70087539567735502 0.57165914616526226 0 0.73752415265401194 0.55235056704108476 0 0.25582605936799319 0.39507969989513358 0 0.2963043386970643 0.4298320229681446 0 0.26247584734598628 0.44764943295894732 0 0.60492030010488373 0.25582605936799729 0 0.57188338999077359 0.29874123486230147 0 0.55175647814720108 0.26104505532086641 0 0.56566515596461675 0.63670464971409091 0 0.61233489393901674 0.60846740003560018 0 0.60879112811253555 0.66592422311595834 0 0.6519524273377173 0.64249931920594539 0 0.60879112811253555 0.66592422311595834 0 0.61233489393901674 0.60846740003560018 0 0.640156794425081 0.43301393728221721 0 0.60122390529523662 0.39097801071820221 0 0.66346942254826746 0.391530810754116 0 0.6424993192059415 0.3480475726622802 0 0.66346942254826746 0.391530810754116 0 0.60122390529523662 0.39097801071820221 0 0.74198804864688339 0.90892718720327403 0 0.77688977118331393 0.94706199857866258 0 0.71789175274016548 0.95136708251202151 0 0.091072812796719582 0.74198804864687795 0 0.052938001421335763 0.77688977118331159 0 0.04863291748797445 0.71789175274016204 0 0.89586000931544074 0.25714619498770419 0 0.94465622530468663 0.23167460333446291 0 0.94915666091748963 0.28320804985299752 0 0.25714619498771307 0.1041399906845497 0 0.23167460333446299 0.05534377469531044 0 0.28320804985300141 0.050843339082505573 0 0.89999999999958358 1 0 0.84999999999965292 1 0 0.90554214442080472 0.95994154153067524 0 0 0.89999999999958358 0 0 0.84999999999965292 0 0.040058458469322648 0.90554214442079806 0 0.040058458469319477 0.094457855579157729 0 0 0.15000000000062411 0 0 0.10000000000041601 0 0.094457855579188163 0.95994154153068711 0 0.15000000000062411 1 0 0.10000000000041601 1 0 0.90554214442081604 0.040058458469347469 0 0.84999999999960507 0 0 0.89999999999973679 0 0 0.95994154153065969 0.90554214442078618 0 1 0.84999999999960507 0 1 0.89999999999973679 0 1 0.099999999999814668 0 1 0.14999999999970359 0 0.95994154153057998 0.094457855579277675 0 0.099999999999814668 0 0 0.14999999999970359 0 0 0.094457855579284614 0.040058458469418363 0 1 0.19999999999955789 0 0.94465622530468663 0.23167460333446291 0 0.96080966346491015 0.18035159017841959 0 0.19999999999955789 0 0 0.23167460333446299 0.05534377469531044 0 0.18035159017842109 0.039190336535090492 0 0.79999999999999982 1 0 0.77688977118331393 0.94706199857866258 0 0.82675923981951416 0.95611053755456221 0 0 0.79999999999999982 0 0.052938001421335763 0.77688977118331159 0 0.043889462445437968 0.82675923981951283 0 1 0.79999999999947335 0 0.96071093996985157 0.81954008780615684 0 0.9442075111696665 0.76777356182390766 0 0.79999999999947335 0 0 0.82050174006822896 0.038839999600956771 0 0.76543419162344684 0.056452228708420968 0 0.20000000000083221 1 0 0.18045991219397989 0.960710939969875 0 0.23222643817617661 0.94420751116970569 0 0 0.20000000000083221 0 0.038839999600931263 0.17949825993190149 0 0.056452228708379938 0.23456580837661581 0 0.50000000000002642 0.7803135888501761 0 0.53770425635794761 0.80104587463999666 0 0.49771727055908782 0.83998685797641781 0 0.2196864111498267 0.50000000000003153 0 0.1989632851005598 0.53769147668950479 0 0.16001314202358469 0.49771727055909287 0 0.78031358885017377 0.49999999999997569 0 0.80106707846564795 0.46230714888029367 0 0.83998574657308889 0.50228528270184081 0 0.49999999999997108 0.21968641114982909 0 0.46229330881044273 0.19890916456654811 0 0.50228272944093777 0.16001314202359701 0 0.79999999999999982 1 0 0.75000000000034661 1 0 0.77688977118331393 0.94706199857866258 0 0 0.79999999999999982 0 0 0.75000000000034661 0 0.052938001421335763 0.77688977118331159 0 1 0.19999999999955789 0 1 0.24999999999941211 0 0.94465622530468663 0.23167460333446291 0 0.19999999999955789 0 0 0.24999999999941211 0 0 0.23167460333446299 0.05534377469531044 0 1 0.74999999999934175 0 1 0.79999999999947335 0 0.9442075111696665 0.76777356182390766 0 0.74999999999934175 0 0 0.79999999999947335 0 0 0.76543419162344684 0.056452228708420968 0 0.25000000000104028 1 0 0.20000000000083221 1 0 0.23222643817617661 0.94420751116970569 0 0 0.25000000000104028 0 0 0.20000000000083221 0 0.056452228708379938 0.23456580837661581 0 1 0.74999999999934175 0 0.9442075111696665 0.76777356182390766 0 0.94635952848698612 0.71209247961721311 0 0.74999999999934175 0 0 0.76543419162344684 0.056452228708420968 0 0.71174922810186925 0.053730171687687178 0 0.25000000000104028 1 0 0.23222643817617661 0.94420751116970569 0 0.28790752038294382 0.94635952848702642 0 0 0.25000000000104028 0 0.056452228708379938 0.23456580837661581 0 0.053730171687646627 0.28825077189828552 0 0.8289812646369813 0.82898126463698818 0 0.87660297360393757 0.8104127896505644 0 0.88962265630811221 0.85311725681459705 0 0.17101873536300011 0.82898126463696109 0 0.18958721034944021 0.87660297360394568 0 0.14688274318541941 0.88962265630811932 0 0.39507969989512881 0.74417394063201048 0 0.44764943295894188 0.73752415265401661 0 0.43306783640023289 0.78031198216144404 0 0.74417394063200648 0.6049203001048884 0 0.73752415265401194 0.55235056704108476 0 0.78031198216143516 0.56693216359979737 0 0.25582605936799319 0.39507969989513358 0 0.26247584734598628 0.44764943295894732 0 0.21968801783855879 0.43306783640023788 0 0.60492030010488373 0.25582605936799729 0 0.55175647814720108 0.26104505532086641 0 0.56683314878414581 0.21944955250104689 0 0.90554214442080472 0.95994154153067524 0 0.84999999999965292 1 0 0.86696410734367158 0.94753096683315619 0 0.040058458469322648 0.90554214442079806 0 0 0.84999999999965292 0 0.052469033166843738 0.86696410734366991 0 0.054872692726595548 0.13410685639845171 0 0 0.15000000000062411 0 0.040058458469319477 0.094457855579157729 0 0.13834721989462789 0.94095916274077984 0 0.15000000000062411 1 0 0.094457855579188163 0.95994154153068711 0 0.86589314360155567 0.054872692726639853 0 0.84999999999960507 0 0 0.90554214442081604 0.040058458469347469 0 0.94095916274074942 0.86165278010542579 0 1 0.84999999999960507 0 0.95994154153065969 0.90554214442078618 0 0.95994154153057998 0.094457855579277675 0 1 0.14999999999970359 0 0.94100406608115506 0.1383574446607955 0 0.094457855579284614 0.040058458469418363 0 0.14999999999970359 0 0 0.1383574446607988 0.058995933918849157 0 0.1104775404132264 0.2631175359816938 0 0.099694771212264055 0.22074048840547039 0 0.15899695163321451 0.22783674912227669 0 0.73688246401832591 0.11047754041323141 0 0.77925951159456153 0.09969477121230251 0 0.77216325087772952 0.15899695163319821 0 0.88949062093135778 0.73694585442531257 0 0.9041449437197947 0.7786886066890556 0 0.839908789927305 0.77106070975262608 0 0.26305414557470391 0.88949062093136155 0 0.22131139331094829 0.9041449437198319 0 0.22893929024737289 0.83990878992727813 0 0.74198804864688339 0.90892718720327403 0 0.71789175274016548 0.95136708251202151 0 0.70475631558365914 0.90098127745102974 0 0.091072812796719582 0.74198804864687795 0 0.04863291748797445 0.71789175274016204 0 0.099018722548963364 0.70475631558365193 0 0.89586000931544074 0.25714619498770419 0 0.94915666091748963 0.28320804985299752 0 0.89886191075654698 0.29506339503703172 0 0.25714619498771307 0.1041399906845497 0 0.28320804985300141 0.050843339082505573 0 0.29506339503703888 0.1011380892434444 0 0.65773042910151891 0.073296788161472337 0 0.62160809078275991 0.1093532031139005 0 0.6048537357103756 0.060530514380187868 0 0.92670321183853355 0.65773042910151081 0 0.89064679688610338 0.6216080907827598 0 0.93946948561981514 0.60485373571037115 0 0.073296788161418117 0.34226957089850552 0 0.10935320311385981 0.37839190921727089 0 0.06053051438015096 0.39514626428972788 0 0.3422695708985129 0.92670321183858773 0 0.37839190921727062 0.89064679688614412 0 0.39514626428973221 0.93946948561985189 0 0.49771727055908782 0.83998685797641781 0 0.53770425635794761 0.80104587463999666 0 0.54047998161173716 0.84333512669480526 0 0.16001314202358469 0.49771727055909287 0 0.1989632851005598 0.53769147668950479 0 0.1566648733051971 0.54047998161174216 0 0.83998574657308889 0.50228528270184081 0 0.80106707846564795 0.46230714888029367 0 0.84333218736938698 0.4595365182652234 0 0.50228272944093777 0.16001314202359701 0 0.46229330881044273 0.19890916456654811 0 0.45952001838826873 0.15666487330524251 0 0.8289812646369813 0.82898126463698818 0 0.88962265630811221 0.85311725681459705 0 0.85174853583809862 0.87705234031428159 0 0.17101873536300011 0.82898126463696109 0 0.14688274318541941 0.88962265630811932 0 0.1229476596857173 0.85174853583809695 0 0.83199780613337848 0.1690131600686714 0 0.8517485358380722 0.12294765968568611 0 0.88777909259956078 0.1484760565886154 0 0.16901316006868169 0.16800219386663079 0 0.12294765968567151 0.14825146416195439 0 0.1484760565886207 0.1122209074004519 0 0.15899695163321451 0.22783674912227669 0 0.099694771212264055 0.22074048840547039 0 0.12587517708284679 0.1889683322666954 0 0.77216325087772952 0.15899695163319821 0 0.77925951159456153 0.09969477121230251 0 0.8110316677333288 0.125875177082863 0 0.83199780613337848 0.1690131600686714 0 0.88777909259956078 0.1484760565886154 0 0.87355793346388477 0.18922011052113649 0 0.16901316006868169 0.16800219386663079 0 0.1484760565886207 0.1122209074004519 0 0.18922011052115781 0.12644206653611201 0 0.32191828326940508 0.76395804595204586 0 0.34270280102445921 0.71672416762035873 0 0.35837423432538362 0.77730446904312345 0 0.76395804595204597 0.67808171673060369 0 0.71518943060973483 0.65679402931717101 0 0.77730446904309636 0.64162576567462737 0 0.2360419540479583 0.32191828326940741 0 0.28473805236128291 0.34355768118673757 0 0.22269553095687891 0.35837423432538801 0 0.67808171673060202 0.23604195404795861 0 0.65679402931716913 0.28481056939027388 0 0.64162576567462404 0.22269553095690481 0 0.26305414557470391 0.88949062093136155 0 0.28790752038294382 0.94635952848702642 0 0.23222643817617661 0.94420751116970569 0 0.1104775404132264 0.2631175359816938 0 0.053730171687646627 0.28825077189828552 0 0.056452228708379938 0.23456580837661581 0 0.88949062093135778 0.73694585442531257 0 0.94635952848698612 0.71209247961721311 0 0.9442075111696665 0.76777356182390766 0 0.73688246401832591 0.11047754041323141 0 0.71174922810186925 0.053730171687687178 0 0.76543419162344684 0.056452228708420968 0 0.22893929024737289 0.83990878992727813 0 0.22131139331094829 0.9041449437198319 0 0.18958721034944021 0.87660297360394568 0 0.839908789927305 0.77106070975262608 0 0.9041449437197947 0.7786886066890556 0 0.87660297360393757 0.8104127896505644 0 0.35837423432538362 0.77730446904312345 0 0.34270280102445921 0.71672416762035873 0 0.39507969989512881 0.74417394063201048 0 0.77730446904309636 0.64162576567462737 0 0.71518943060973483 0.65679402931717101 0 0.74417394063200648 0.6049203001048884 0 0.22269553095687891 0.35837423432538801 0 0.28473805236128291 0.34355768118673757 0 0.25582605936799319 0.39507969989513358 0 0.64162576567462404 0.22269553095690481 0 0.65679402931716913 0.28481056939027388 0 0.60492030010488373 0.25582605936799729 0 0.57484409313590223 0.58437321637184114 0 0.53542397956703913 0.60119875982347493 0 0.53087311892591971 0.55299263141448529 0 1 0.59999999999894682 0 0.93946948561981514 0.60485373571037115 0 0.95638719633882641 0.5599388881718611 0 0.59999999999894682 0 0 0.6048537357103756 0.060530514380187868 0 0.55993888817186677 0.043612803661174412 0 0.40000000000166441 1 0 0.39514626428973221 0.93946948561985189 0 0.44006111182840962 0.9563871963389079 0 0 0.40000000000166441 0 0.06053051438015096 0.39514626428972788 0 0.043612803661092707 0.44006111182840391 0 0.43590673999053309 0.90289902042279657 0 0.48669777060454272 0.93510666819646593 0 0.44006111182840962 0.9563871963389079 0 0.097100979577207341 0.43590673999053198 0 0.064893331803534807 0.48669777060454478 0 0.043612803661092707 0.44006111182840391 0 0.90289902042272274 0.56409326000946114 0 0.93510666819640953 0.51330222939551939 0 0.95638719633882641 0.5599388881718611 0 0.56409326000946236 0.097100979577281268 0 0.5133022293955174 0.064893331803591428 0 0.55993888817186677 0.043612803661174412 0 0.57387636360620708 0.54318431390135336 0 0.57484409313590223 0.58437321637184114 0 0.53087311892591971 0.55299263141448529 0 1 0.69999999999921003 0 1 0.74999999999934175 0 0.94635952848698612 0.71209247961721311 0 0.69999999999921003 0 0 0.74999999999934175 0 0 0.71174922810186925 0.053730171687687178 0 0.30000000000124832 1 0 0.25000000000104028 1 0 0.28790752038294382 0.94635952848702642 0 0 0.30000000000124832 0 0 0.25000000000104028 0 0.053730171687646627 0.28825077189828552 0 0.90289902042272274 0.56409326000946114 0 0.85130417396420255 0.59518556406638579 0 0.85551478316835361 0.54646211938695222 0 0.43590673999053309 0.90289902042279657 0 0.40481452396081791 0.85130421228141606 0 0.45353891581270822 0.85551523377818905 0 0.56409326000946236 0.097100979577281268 0 0.59518547603920147 0.14869578771864489 0 0.54646108418729233 0.1444847662218687 0 0.097100979577207341 0.43590673999053198 0 0.14869578771858949 0.40481452396082068 0 0.1444847662218138 0.45353891581271188 0 0.90289902042272274 0.56409326000946114 0 0.89064679688610338 0.6216080907827598 0 0.85130417396420255 0.59518556406638579 0 0.56409326000946236 0.097100979577281268 0 0.62160809078275991 0.1093532031139005 0 0.59518547603920147 0.14869578771864489 0 0.43590673999053309 0.90289902042279657 0 0.37839190921727062 0.89064679688614412 0 0.40481452396081791 0.85130421228141606 0 0.097100979577207341 0.43590673999053198 0 0.10935320311385981 0.37839190921727089 0 0.14869578771858949 0.40481452396082068 0 0.74417394063200648 0.6049203001048884 0 0.69288637798153729 0.61204665218001397 0 0.70087539567735502 0.57165914616526226 0 0.39507969989512881 0.74417394063201048 0 0.38642358467307758 0.69286258923597266 0 0.42715538333808079 0.70077759375307946 0 0.60492030010488373 0.25582605936799729 0 0.61204665218000809 0.30711362201846659 0 0.57188338999077359 0.29874123486230147 0 0.25582605936799319 0.39507969989513358 0 0.30597655500381687 0.3934681685211931 0 0.2963043386970643 0.4298320229681446 0 0.51484304721220842 0.69707233951836334 0 0.57051182622447827 0.69668652018496713 0 0.54465502325161819 0.74717983044080061 0 0.30292766048163949 0.51484304721221474 0 0.30429740679959738 0.56913905146460098 0 0.25287139441262568 0.54458355434492378 0 0.70015119067225129 0.48481914991727459 0 0.69595787604187809 0.43071000156707989 0 0.74730218607442667 0.45539100053644521 0 0.48378871228000903 0.29745177826977359 0 0.43059486795334201 0.30395973419063538 0 0.45533136021725079 0.2525687312087147 0 0.91838802593870927 0.18172590289757809 0 0.96080966346491015 0.18035159017841959 0 0.94465622530468663 0.23167460333446291 0 0.18172590289758209 0.08161197406129285 0 0.18035159017842109 0.039190336535090492 0 0.23167460333446299 0.05534377469531044 0 0.81709574086843206 0.91318696080656769 0 0.82675923981951416 0.95611053755456221 0 0.77688977118331393 0.94706199857866258 0 0.086813039193431391 0.81709574086842884 0 0.043889462445437968 0.82675923981951283 0 0.052938001421335763 0.77688977118331159 0 0.91838802593884228 0.81827409710237209 0 0.9442075111696665 0.76777356182390766 0 0.96071093996985157 0.81954008780615684 0 0.82118136511706341 0.082875076569723011 0 0.76543419162344684 0.056452228708420968 0 0.82050174006822896 0.038839999600956771 0 0.1817259028976386 0.91838802593888857 0 0.23222643817617661 0.94420751116970569 0 0.18045991219397989 0.960710939969875 0 0.08287507656968085 0.1788186348829835 0 0.056452228708379938 0.23456580837661581 0 0.038839999600931263 0.17949825993190149 0 0.59819537371016407 0.74380966024143391 0 0.54465502325161819 0.74717983044080061 0 0.57051182622447827 0.69668652018496713 0 0.25619033975856881 0.59819537371016862 0 0.25287139441262568 0.54458355434492378 0 0.30429740679959738 0.56913905146460098 0 0.74380966024142703 0.40180462628984132 0 0.74730218607442667 0.45539100053644521 0 0.69595787604187809 0.43071000156707989 0 0.40180462628983732 0.2561903397585753 0 0.45533136021725079 0.2525687312087147 0 0.43059486795334201 0.30395973419063538 0 0.8312019486901514 0.72745002167959472 0 0.77998481823117694 0.71397317153691997 0 0.80847852346122429 0.67208120229789559 0 0.27254997832041528 0.8312019486901443 0 0.28602682846308641 0.77998481823117594 0 0.32791879770213411 0.80847852346120164 0 0.72767516840721058 0.16853767177393791 0 0.71397317153692708 0.22001518176882201 0 0.67208120229787616 0.1915214765387884 0 0.1685376717739448 0.27232483159280108 0 0.22001518176882229 0.28602682846307981 0 0.19152147653881049 0.32791879770215432 0 0.85607519768343354 0.69380468830529196 0 0.8312019486901514 0.72745002167959472 0 0.80847852346122429 0.67208120229789559 0 0.69379929796456197 0.14392209494791061 0 0.72767516840721058 0.16853767177393791 0 0.67208120229787616 0.1915214765387884 0 0.30619531169472608 0.85607519768342955 0 0.27254997832041528 0.8312019486901443 0 0.32791879770213411 0.80847852346120164 0 0.14392209494791439 0.30620070203545702 0 0.1685376717739448 0.27232483159280108 0 0.19152147653881049 0.32791879770215432 0 0.6519524273377173 0.64249931920594539 0 0.69288637798153729 0.61204665218001397 0 0.71518943060973483 0.65679402931717101 0 0.35944937237716967 0.65164789808436319 0 0.38642358467307758 0.69286258923597266 0 0.34270280102445921 0.71672416762035873 0 0.6424993192059415 0.3480475726622802 0 0.61204665218000809 0.30711362201846659 0 0.65679402931716913 0.28481056939027388 0 0.34804757266227387 0.35750068079406011 0 0.30597655500381687 0.3934681685211931 0 0.28473805236128291 0.34355768118673757 0 0.66919832404887702 0.81820888699730587 0 0.66923299355723143 0.8804077449518628 0 0.63969251517836323 0.84598529912890386 0 0.70085728320704077 0.84350379029875056 0 0.66923299355723143 0.8804077449518628 0 0.66919832404887702 0.81820888699730587 0 0.1817911130026923 0.66919832404888702 0 0.1195922550481313 0.66923299355722787 0 0.1540147008710982 0.63969251517836956 0 0.1564962097012354 0.70085728320703999 0 0.1195922550481313 0.66923299355722787 0 0.1817911130026923 0.66919832404888702 0 0.8182088869973061 0.33080167595111531 0 0.88040774495187946 0.33076700644278889 0 0.84598529912889664 0.36030748482164038 0 0.84350379029877964 0.29914271679296989 0 0.88040774495187946 0.33076700644278889 0 0.8182088869973061 0.33080167595111531 0 0.33080167595110582 0.18179111300269291 0 0.33076700644279272 0.1195922550481146 0 0.3603074848216346 0.15401470087110539 0 0.29914271679297122 0.15649620970120659 0 0.33076700644279272 0.1195922550481146 0 0.33080167595110582 0.18179111300269291 0 0.49189101320880302 0.59024331187324797 0 0.51172471858873747 0.64015771271794875 0 0.45517457031814612 0.62743100079604397 0 0.54901591374940373 0.42306523525165751 0 0.5047849391802508 0.40719950955717021 0 0.54715635490880632 0.37829016026862072 0 0.43590673999053309 0.90289902042279657 0 0.48758069708049379 0.89080072540186539 0 0.48669777060454272 0.93510666819646593 0 0.097100979577207341 0.43590673999053198 0 0.1091992745981364 0.48758069708049778 0 0.064893331803534807 0.48669777060454478 0 0.90289902042272274 0.56409326000946114 0 0.89079805168298443 0.51242544533572376 0 0.93510666819640953 0.51330222939551939 0 0.56409326000946236 0.097100979577281268 0 0.51241930291950477 0.1091992745981813 0 0.5133022293955174 0.064893331803591428 0 0.49189101320880302 0.59024331187324797 0 0.53542397956703913 0.60119875982347493 0 0.51172471858873747 0.64015771271794875 0 0.56566515596461675 0.63670464971409091 0 0.51172471858873747 0.64015771271794875 0 0.53542397956703913 0.60119875982347493 0 0.65773042910151891 0.073296788161472337 0 0.66251865414987876 0.1160340021949529 0 0.62160809078275991 0.1093532031139005 0 0.92670321183853355 0.65773042910151081 0 0.88396545633132484 0.6625197322180193 0 0.89064679688610338 0.6216080907827598 0 0.3422695708985129 0.92670321183858773 0 0.33748026778199908 0.88396545633134682 0 0.37839190921727062 0.89064679688614412 0 0.073296788161418117 0.34226957089850552 0 0.11603400219493119 0.33748134585014028 0 0.10935320311385981 0.37839190921727089 0 0.8289812646369813 0.82898126463698818 0 0.79422489417873421 0.79640925234634441 0 0.839908789927305 0.77106070975262608 0 0.17101873536300011 0.82898126463696109 0 0.20359074765364421 0.79422489417871855 0 0.22893929024737289 0.83990878992727813 0 0.83199780613337848 0.1690131600686714 0 0.80027482104603809 0.20596721135052129 0 0.77216325087772952 0.15899695163319821 0 0.16901316006868169 0.16800219386663079 0 0.20596721135052939 0.19972517895396219 0 0.15899695163321451 0.22783674912227669 0 0.84598529912884157 0.63969251517827153 0 0.80847852346122429 0.67208120229789559 0 0.8028306815476034 0.61296984760642026 0 0.36030748482174152 0.84598529912882459 0 0.32791879770213411 0.80847852346120164 0 0.38703015239361932 0.80283068154761972 0 0.63969251517826664 0.15401470087115929 0 0.67208120229787616 0.1915214765387884 0 0.61296984760641449 0.19716931845240021 0 0.15401470087117619 0.36030748482174652 0 0.19152147653881049 0.32791879770215432 0 0.197169318452384 0.38703015239362498 0 0.61233489393901674 0.60846740003560018 0 0.61866949026800744 0.55492322767366287 0 0.65501639383771026 0.594528181397324 0 0.74198804864688339 0.90892718720327403 0 0.78020430794084783 0.88768307197553598 0 0.77688977118331393 0.94706199857866258 0 0.091072812796719582 0.74198804864687795 0 0.11231692802445629 0.78020430794084028 0 0.052938001421335763 0.77688977118331159 0 0.81709574086843206 0.91318696080656769 0 0.77688977118331393 0.94706199857866258 0 0.78020430794084783 0.88768307197553598 0 0.086813039193431391 0.81709574086842884 0 0.052938001421335763 0.77688977118331159 0 0.11231692802445629 0.78020430794084028 0 0.73982803480991577 0.79629608696991705 0 0.79422489417873421 0.79640925234634441 0 0.78284912262770068 0.83746308049763585 0 0.8289812646369813 0.82898126463698818 0 0.78284912262770068 0.83746308049763585 0 0.79422489417873421 0.79640925234634441 0 0.20370391303007401 0.73982803480989479 0 0.20359074765364421 0.79422489417871855 0 0.16253691950235041 0.78284912262768558 0 0.17101873536300011 0.82898126463696109 0 0.16253691950235041 0.78284912262768558 0 0.20359074765364421 0.79422489417871855 0 0.79629608696994103 0.26017196519011448 0 0.80027482104603809 0.20596721135052129 0 0.84534053180161173 0.2262639405833009 0 0.83199780613337848 0.1690131600686714 0 0.84534053180161173 0.2262639405833009 0 0.80027482104603809 0.20596721135052129 0 0.26017196519013502 0.20370391303005 0 0.20596721135052939 0.19972517895396219 0 0.22626394058331961 0.15465946819838111 0 0.16901316006868169 0.16800219386663079 0 0.22626394058331961 0.15465946819838111 0 0.20596721135052939 0.19972517895396219 0 0.90045039720880915 0.9020090423547924 0 0.94156647488775558 0.94156647488774259 0 0.90554214442080472 0.95994154153067524 0 0.90082758526900886 0.098076845682916511 0 0.94156647488778256 0.058433525112256718 0 0.95994154153057998 0.094457855579277675 0 0.90082758526900886 0.098076845682916511 0 0.90554214442081604 0.040058458469347469 0 0.94156647488778256 0.058433525112256718 0 0.097990957645208238 0.90045039720880915 0 0.058433525112254137 0.94156647488774581 0 0.040058458469322648 0.90554214442079806 0 0.90045039720880915 0.9020090423547924 0 0.95994154153065969 0.90554214442078618 0 0.94156647488775558 0.94156647488774259 0 0.098076845682915317 0.099172414730993488 0 0.058433525112266523 0.058433525112214509 0 0.094457855579284614 0.040058458469418363 0 0.098076845682915317 0.099172414730993488 0 0.040058458469319477 0.094457855579157729 0 0.058433525112266523 0.058433525112214509 0 0.097990957645208238 0.90045039720880915 0 0.094457855579188163 0.95994154153068711 0 0.058433525112254137 0.94156647488774581 0 0.90289902042272274 0.56409326000946114 0 0.93946948561981514 0.60485373571037115 0 0.89064679688610338 0.6216080907827598 0 0.43590673999053309 0.90289902042279657 0 0.39514626428973221 0.93946948561985189 0 0.37839190921727062 0.89064679688614412 0 0.56409326000946236 0.097100979577281268 0 0.6048537357103756 0.060530514380187868 0 0.62160809078275991 0.1093532031139005 0 0.097100979577207341 0.43590673999053198 0 0.06053051438015096 0.39514626428972788 0 0.10935320311385981 0.37839190921727089 0 0.6519524273377173 0.64249931920594539 0 0.64518564541690571 0.69601563325001548 0 0.60879112811253555 0.66592422311595834 0 0.35944937237716967 0.65164789808436319 0 0.30421635384321521 0.64514939193436716 0 0.33231497408081678 0.60779218732873663 0 0.6424993192059415 0.3480475726622802 0 0.69601563325001248 0.35481435458309712 0 0.66346942254826746 0.391530810754116 0 0.34804757266227387 0.35750068079406011 0 0.35481435458309307 0.30398436674998969 0 0.39120887188745579 0.33407577688404289 0 1 0.5499999999988151 0 1 0.59999999999894682 0 0.95638719633882641 0.5599388881718611 0 0.5499999999988151 0 0 0.59999999999894682 0 0 0.55993888817186677 0.043612803661174412 0 0.45000000000187229 1 0 0.40000000000166441 1 0 0.44006111182840962 0.9563871963389079 0 0 0.45000000000187229 0 0 0.40000000000166441 0 0.043612803661092707 0.44006111182840391 0 1 0.049999999999899652 0 0.95994154153057998 0.094457855579277675 0 0.94156647488778256 0.058433525112256718 0 0.049999999999899652 0 0 0.094457855579284614 0.040058458469418363 0 0.058433525112266523 0.058433525112214509 0 0.94999999999986839 0 0 0.94156647488778256 0.058433525112256718 0 0.90554214442081604 0.040058458469347469 0 1 0.94999999999986839 0 0.94156647488775558 0.94156647488774259 0 0.95994154153065969 0.90554214442078618 0 0.94999999999979179 1 0 0.90554214442080472 0.95994154153067524 0 0.94156647488775558 0.94156647488774259 0 0 0.94999999999979179 0 0.040058458469322648 0.90554214442079806 0 0.058433525112254137 0.94156647488774581 0 0 0.050000000000207989 0 0.058433525112266523 0.058433525112214509 0 0.040058458469319477 0.094457855579157729 0 0.050000000000207989 1 0 0.058433525112254137 0.94156647488774581 0 0.094457855579188163 0.95994154153068711 0 0.55000000000173355 1 0 0.55307204985744796 0.94819812235491685 0 0.5931441817276254 0.95886012268751675 0 0 0.55000000000173355 0 0.051801877645083663 0.55307204985745195 0 0.041139877312483641 0.59314418172763017 0 1 0.44999999999882923 0 0.94812782820415209 0.44708943904932719 0 0.95886012268748921 0.4068558182724159 0 0.44999999999882923 0 0 0.44692795014265252 0.051801877645060238 0 0.40685581827241191 0.041139877312511682 0 0.83199780613337848 0.1690131600686714 0 0.77216325087772952 0.15899695163319821 0 0.8110316677333288 0.125875177082863 0 0.16901316006868169 0.16800219386663079 0 0.15899695163321451 0.22783674912227669 0 0.12587517708284679 0.1889683322666954 0 0.73982803480991577 0.79629608696991705 0 0.74154628962857594 0.86274820500026039 0 0.70085728320704077 0.84350379029875056 0 0.20370391303007401 0.73982803480989479 0 0.13725179499972981 0.74154628962856628 0 0.1564962097012354 0.70085728320703999 0 0.79629608696994103 0.26017196519011448 0 0.85389826602741015 0.26318949769600392 0 0.84350379029877964 0.29914271679296989 0 0.26017196519013502 0.20370391303005 0 0.26318949769601319 0.14610173397257309 0 0.29914271679297122 0.15649620970120659 0 0.53432142347292233 0.88563193847251998 0 0.48758069708049379 0.89080072540186539 0 0.49771727055908782 0.83998685797641781 0 0.1143680615274819 0.53432142347292733 0 0.1091992745981364 0.48758069708049778 0 0.16001314202358469 0.49771727055909287 0 0.88561059063756964 0.46572761956237563 0 0.89079805168298443 0.51242544533572376 0 0.83998574657308889 0.50228528270184081 0 0.46567857652706018 0.1143680615275231 0 0.51241930291950477 0.1091992745981813 0 0.50228272944093777 0.16001314202359701 0 0.1104775404132264 0.2631175359816938 0 0.099492119481027347 0.30746398533281638 0 0.053730171687646627 0.28825077189828552 0 0.26305414557470391 0.88949062093136155 0 0.30738136326657722 0.90051880305435028 0 0.28790752038294382 0.94635952848702642 0 0.73688246401832591 0.11047754041323141 0 0.69253601466723103 0.09949211948105087 0 0.71174922810186925 0.053730171687687178 0 0.88949062093135778 0.73694585442531257 0 0.90051880305432697 0.69261863673346957 0 0.94635952848698612 0.71209247961721311 0 0.77998481823117694 0.71397317153691997 0 0.76395804595204597 0.67808171673060369 0 0.80847852346122429 0.67208120229789559 0 0.28602682846308641 0.77998481823117594 0 0.32191828326940508 0.76395804595204586 0 0.32791879770213411 0.80847852346120164 0 0.71397317153692708 0.22001518176882201 0 0.67808171673060202 0.23604195404795861 0 0.67208120229787616 0.1915214765387884 0 0.22001518176882229 0.28602682846307981 0 0.2360419540479583 0.32191828326940741 0 0.19152147653881049 0.32791879770215432 0 0.8289812646369813 0.82898126463698818 0 0.839908789927305 0.77106070975262608 0 0.87660297360393757 0.8104127896505644 0 0.17101873536300011 0.82898126463696109 0 0.22893929024737289 0.83990878992727813 0 0.18958721034944021 0.87660297360394568 0 0.66548584431530877 0.55616712808283064 0 0.64455163611866495 0.50369301794551069 0 0.69798396601998558 0.5289734597937793 0 0.70015119067225129 0.48481914991727459 0 0.69798396601998558 0.5289734597937793 0 0.64455163611866495 0.50369301794551069 0 0.77998481823117694 0.71397317153691997 0 0.73984939806388494 0.70740600291923139 0 0.76395804595204597 0.67808171673060369 0 0.28602682846308641 0.77998481823117594 0 0.2925512105451914 0.73997990291173188 0 0.32191828326940508 0.76395804595204586 0 0.71397317153692708 0.22001518176882201 0 0.70740600291923772 0.26015060193611528 0 0.67808171673060202 0.23604195404795861 0 0.22001518176882229 0.28602682846307981 0 0.26014443552207939 0.29262390443653519 0 0.2360419540479583 0.32191828326940741 0 0.90045039720880915 0.9020090423547924 0 0.90554214442080472 0.95994154153067524 0 0.86696410734367158 0.94753096683315619 0 0.097990957645208238 0.90045039720880915 0 0.040058458469322648 0.90554214442079806 0 0.052469033166843738 0.86696410734366991 0 0.90082758526900886 0.098076845682916511 0 0.95994154153057998 0.094457855579277675 0 0.94100406608115506 0.1383574446607955 0 0.90045039720880915 0.9020090423547924 0 0.94095916274074942 0.86165278010542579 0 0.95994154153065969 0.90554214442078618 0 0.90082758526900886 0.098076845682916511 0 0.86589314360155567 0.054872692726639853 0 0.90554214442081604 0.040058458469347469 0 0.098076845682915317 0.099172414730993488 0 0.094457855579284614 0.040058458469418363 0 0.1383574446607988 0.058995933918849157 0 0.097990957645208238 0.90045039720880915 0 0.13834721989462789 0.94095916274077984 0 0.094457855579188163 0.95994154153068711 0 0.098076845682915317 0.099172414730993488 0 0.054872692726595548 0.13410685639845171 0 0.040058458469319477 0.094457855579157729 0 0.54901591374940373 0.42306523525165751 0 0.54715635490880632 0.37829016026862072 0 0.60122390529523662 0.39097801071820221 0 0.49854341599767982 0.37075914768127122 0 0.54715635490880632 0.37829016026862072 0 0.5047849391802508 0.40719950955717021 0 0.66548584431530877 0.55616712808283064 0 0.65501639383771026 0.594528181397324 0 0.61866949026800744 0.55492322767366287 0 0.50000000000002642 0.7803135888501761 0 0.49771727055908782 0.83998685797641781 0 0.46593838964869061 0.80781872835503554 0 0.2196864111498267 0.50000000000003153 0 0.16001314202358469 0.49771727055909287 0 0.19218127164496679 0.46593838964869538 0 0.78031358885017377 0.49999999999997569 0 0.83998574657308889 0.50228528270184081 0 0.80781854240107975 0.53406203754901738 0 0.49999999999997108 0.21968641114982909 0 0.50228272944093777 0.16001314202359701 0 0.53404982287327418 0.19215288291432539 0 0.70085728320704077 0.84350379029875056 0 0.74154628962857594 0.86274820500026039 0 0.70475631558365914 0.90098127745102974 0 0.1564962097012354 0.70085728320703999 0 0.13725179499972981 0.74154628962856628 0 0.099018722548963364 0.70475631558365193 0 0.84350379029877964 0.29914271679296989 0 0.85389826602741015 0.26318949769600392 0 0.89886191075654698 0.29506339503703172 0 0.29914271679297122 0.15649620970120659 0 0.26318949769601319 0.14610173397257309 0 0.29506339503703888 0.1011380892434444 0 0.74417394063200648 0.6049203001048884 0 0.71518943060973483 0.65679402931717101 0 0.69288637798153729 0.61204665218001397 0 0.39507969989512881 0.74417394063201048 0 0.34270280102445921 0.71672416762035873 0 0.38642358467307758 0.69286258923597266 0 0.60492030010488373 0.25582605936799729 0 0.65679402931716913 0.28481056939027388 0 0.61204665218000809 0.30711362201846659 0 0.25582605936799319 0.39507969989513358 0 0.28473805236128291 0.34355768118673757 0 0.30597655500381687 0.3934681685211931 0 0.88949062093135778 0.73694585442531257 0 0.839908789927305 0.77106070975262608 0 0.8312019486901514 0.72745002167959472 0 0.73688246401832591 0.11047754041323141 0 0.77216325087772952 0.15899695163319821 0 0.72767516840721058 0.16853767177393791 0 0.26305414557470391 0.88949062093136155 0 0.22893929024737289 0.83990878992727813 0 0.27254997832041528 0.8312019486901443 0 0.1104775404132264 0.2631175359816938 0 0.15899695163321451 0.22783674912227669 0 0.1685376717739448 0.27232483159280108 0 0.61233489393901674 0.60846740003560018 0 0.57484409313590223 0.58437321637184114 0 0.61866949026800744 0.55492322767366287 0 0.43565339604028508 0.55159384357101338 0 0.39982789553993509 0.53462762214740622 0 0.45293656999117771 0.51494832297079129 0 0.41009598069569558 0.49083935749285379 0 0.45293656999117771 0.51494832297079129 0 0.39982789553993509 0.53462762214740622 0 0.4434591735942961 0.66641640622551224 0 0.40564717507982689 0.65626423320524974 0 0.45517457031814612 0.62743100079604397 0 0.40653508887824003 0.61580573377480397 0 0.45517457031814612 0.62743100079604397 0 0.40564717507982689 0.65626423320524974 0 0.89586000931544074 0.25714619498770419 0 0.84534053180161173 0.2262639405833009 0 0.89556054516486661 0.21720615046483649 0 0.25714619498771307 0.1041399906845497 0 0.22626394058331961 0.15465946819838111 0 0.21720615046484709 0.1044394548351292 0 0.41009598069569558 0.49083935749285379 0 0.35815651743779398 0.51113440447909086 0 0.37702386074717259 0.45819417564476811 0 0.75000000000034661 1 0 0.71789175274016548 0.95136708251202151 0 0.77688977118331393 0.94706199857866258 0 0 0.75000000000034661 0 0.04863291748797445 0.71789175274016204 0 0.052938001421335763 0.77688977118331159 0 1 0.24999999999941211 0 0.94915666091748963 0.28320804985299752 0 0.94465622530468663 0.23167460333446291 0 0.24999999999941211 0 0 0.28320804985300141 0.050843339082505573 0 0.23167460333446299 0.05534377469531044 0 0.90289902042272274 0.56409326000946114 0 0.95638719633882641 0.5599388881718611 0 0.93946948561981514 0.60485373571037115 0 0.56409326000946236 0.097100979577281268 0 0.55993888817186677 0.043612803661174412 0 0.6048537357103756 0.060530514380187868 0 0.43590673999053309 0.90289902042279657 0 0.44006111182840962 0.9563871963389079 0 0.39514626428973221 0.93946948561985189 0 0.097100979577207341 0.43590673999053198 0 0.043612803661092707 0.44006111182840391 0 0.06053051438015096 0.39514626428972788 0 0.40653508887824003 0.61580573377480397 0 0.40468198875170619 0.57637931869191572 0 0.45030222762303879 0.58443295115431027 0 0.43301393728221038 0.35984320557492139 0 0.43059486795334201 0.30395973419063538 0 0.47253211736503098 0.34081710830804929 0 0.48378871228000903 0.29745177826977359 0 0.47253211736503098 0.34081710830804929 0 0.43059486795334201 0.30395973419063538 0 0.65000000000104008 1 0 0.60000000000138687 1 0 0.63753756910470316 0.95578163339252209 0 0 0.65000000000104008 0 0 0.60000000000138687 0 0.04421836660747535 0.63753756910470205 0 1 0.34999999999912063 0 1 0.3999999999989749 0 0.95581270756939096 0.36248656652865863 0 0.34999999999912063 0 0 0.3999999999989749 0 0 0.36246243089534252 0.044218366607477223 0 0.73982803480991577 0.79629608696991705 0 0.74917861927654894 0.74229989257760443 0 0.78651189793386345 0.75664155808652755 0 0.20370391303007401 0.73982803480989479 0 0.25770010742238642 0.74917861927655205 0 0.24335844191347281 0.78651189793387466 0 0.79629608696994103 0.26017196519011448 0 0.74229989257762263 0.250821380723454 0 0.7582555232258138 0.2115548431873896 0 0.26017196519013502 0.20370391303005 0 0.25082138072344978 0.25770010742236849 0 0.2115548431873881 0.2417444767741872 0 1 0.049999999999899652 0 0.94156647488778256 0.058433525112256718 0 0.96763014295114425 0.032369857048773903 0 0.049999999999899652 0 0 0.058433525112266523 0.058433525112214509 0 0.032369857048753323 0.032369857048862027 0 0.94999999999986839 0 0 0.96763014295114425 0.032369857048773903 0 0.94156647488778256 0.058433525112256718 0 0 0.050000000000207989 0 0.032369857048753323 0.032369857048862027 0 0.058433525112266523 0.058433525112214509 0 1 0.94999999999986839 0 0.96763014295120153 0.96763014295122851 0 0.94156647488775558 0.94156647488774259 0 0.94999999999979179 1 0 0.94156647488775558 0.94156647488774259 0 0.96763014295120153 0.96763014295122851 0 0.050000000000207989 1 0 0.030452409610489669 0.96954759038951022 0 0.058433525112254137 0.94156647488774581 0 0 0.94999999999979179 0 0.058433525112254137 0.94156647488774581 0 0.030452409610489669 0.96954759038951022 0 0.90045039720880915 0.9020090423547924 0 0.88962265630811221 0.85311725681459705 0 0.94095916274074942 0.86165278010542579 0 0.097990957645208238 0.90045039720880915 0 0.14688274318541941 0.88962265630811932 0 0.13834721989462789 0.94095916274077984 0 0.91838802593884228 0.81827409710237209 0 0.94095916274074942 0.86165278010542579 0 0.88962265630811221 0.85311725681459705 0 0.91838802593870927 0.18172590289757809 0 0.88777909259956078 0.1484760565886154 0 0.94100406608115506 0.1383574446607955 0 0.1817259028976386 0.91838802593888857 0 0.13834721989462789 0.94095916274077984 0 0.14688274318541941 0.88962265630811932 0 0.18172590289758209 0.08161197406129285 0 0.1484760565886207 0.1122209074004519 0 0.1383574446607988 0.058995933918849157 0 0.90082758526900886 0.098076845682916511 0 0.94100406608115506 0.1383574446607955 0 0.88777909259956078 0.1484760565886154 0 0.098076845682915317 0.099172414730993488 0 0.1383574446607988 0.058995933918849157 0 0.1484760565886207 0.1122209074004519 0 0.57387636360620708 0.54318431390135336 0 0.61866949026800744 0.55492322767366287 0 0.57484409313590223 0.58437321637184114 0 0.60122390529523662 0.39097801071820221 0 0.54715635490880632 0.37829016026862072 0 0.59596170682035776 0.34609402305862419 0 0.38703015239361932 0.80283068154761972 0 0.32791879770213411 0.80847852346120164 0 0.35837423432538362 0.77730446904312345 0 0.8028306815476034 0.61296984760642026 0 0.80847852346122429 0.67208120229789559 0 0.77730446904309636 0.64162576567462737 0 0.197169318452384 0.38703015239362498 0 0.19152147653881049 0.32791879770215432 0 0.22269553095687891 0.35837423432538801 0 0.61296984760641449 0.19716931845240021 0 0.67208120229787616 0.1915214765387884 0 0.64162576567462404 0.22269553095690481 0 0.39419886675318527 0.41912225240070788 0 0.37702386074717259 0.45819417564476811 0 0.35481422397128459 0.40312981465069342 0 0.33382663527330159 0.44130125047503482 0 0.35481422397128459 0.40312981465069342 0 0.37702386074717259 0.45819417564476811 0 0.40653508887824003 0.61580573377480397 0 0.40564717507982689 0.65626423320524974 0 0.35944937237716967 0.65164789808436319 0 0.53432142347292233 0.88563193847251998 0 0.49771727055908782 0.83998685797641781 0 0.54047998161173716 0.84333512669480526 0 0.1143680615274819 0.53432142347292733 0 0.16001314202358469 0.49771727055909287 0 0.1566648733051971 0.54047998161174216 0 0.88561059063756964 0.46572761956237563 0 0.83998574657308889 0.50228528270184081 0 0.84333218736938698 0.4595365182652234 0 0.46567857652706018 0.1143680615275231 0 0.50228272944093777 0.16001314202359701 0 0.45952001838826873 0.15666487330524251 0 0.37104651296145419 0.60545170748311072 0 0.40653508887824003 0.61580573377480397 0 0.35944937237716967 0.65164789808436319 0 0.6519524273377173 0.64249931920594539 0 0.71518943060973483 0.65679402931717101 0 0.6768914574865772 0.67861120078714243 0 0.35944937237716967 0.65164789808436319 0 0.34270280102445921 0.71672416762035873 0 0.32259853082073792 0.67670072609835186 0 0.6424993192059415 0.3480475726622802 0 0.65679402931716913 0.28481056939027388 0 0.6786112007871401 0.32310854251343019 0 0.34804757266227387 0.35750068079406011 0 0.28473805236128291 0.34355768118673757 0 0.3231032570156932 0.32141443408924047 0 0.73982803480991577 0.79629608696991705 0 0.70085728320704077 0.84350379029875056 0 0.69892030930712212 0.7971997999085858 0 0.20370391303007401 0.73982803480989479 0 0.1564962097012354 0.70085728320703999 0 0.2028002000914135 0.69892030930711557 0 0.79629608696994103 0.26017196519011448 0 0.84350379029877964 0.29914271679296989 0 0.7971997999085878 0.3010796906928917 0 0.26017196519013502 0.20370391303005 0 0.29914271679297122 0.15649620970120659 0 0.30107969069289831 0.20280020009141189 0 0.43301393728221038 0.35984320557492139 0 0.42930823106401639 0.40626685012722968 0 0.39222057657781068 0.38067796690227418 0 0.73982803480991577 0.79629608696991705 0 0.78284912262770068 0.83746308049763585 0 0.74154628962857594 0.86274820500026039 0 0.20370391303007401 0.73982803480989479 0 0.16253691950235041 0.78284912262768558 0 0.13725179499972981 0.74154628962856628 0 0.79629608696994103 0.26017196519011448 0 0.84534053180161173 0.2262639405833009 0 0.85389826602741015 0.26318949769600392 0 0.26017196519013502 0.20370391303005 0 0.22626394058331961 0.15465946819838111 0 0.26318949769601319 0.14610173397257309 0 0.56566515596461675 0.63670464971409091 0 0.57484409313590223 0.58437321637184114 0 0.61233489393901674 0.60846740003560018 0 0.84598529912884157 0.63969251517827153 0 0.85607519768343354 0.69380468830529196 0 0.80847852346122429 0.67208120229789559 0 0.63969251517826664 0.15401470087115929 0 0.69379929796456197 0.14392209494791061 0 0.67208120229787616 0.1915214765387884 0 0.36030748482174152 0.84598529912882459 0 0.30619531169472608 0.85607519768342955 0 0.32791879770213411 0.80847852346120164 0 0.15401470087117619 0.36030748482174652 0 0.14392209494791439 0.30620070203545702 0 0.19152147653881049 0.32791879770215432 0 0.20370391303007401 0.73982803480989479 0 0.24335844191347281 0.78651189793387466 0 0.20359074765364421 0.79422489417871855 0 0.73982803480991577 0.79629608696991705 0 0.78651189793386345 0.75664155808652755 0 0.79422489417873421 0.79640925234634441 0 0.26017196519013502 0.20370391303005 0 0.2115548431873881 0.2417444767741872 0 0.20596721135052939 0.19972517895396219 0 0.79629608696994103 0.26017196519011448 0 0.7582555232258138 0.2115548431873896 0 0.80027482104603809 0.20596721135052129 0 0.51172471858873747 0.64015771271794875 0 0.47818752133962877 0.66454462905280853 0 0.45517457031814612 0.62743100079604397 0 0.54901591374940373 0.42306523525165751 0 0.60122390529523662 0.39097801071820221 0 0.59313386551587477 0.43977047843653239 0 0.640156794425081 0.43301393728221721 0 0.59313386551587477 0.43977047843653239 0 0.60122390529523662 0.39097801071820221 0 0.70252050881959183 0.70358884261915833 0 0.71518943060973483 0.65679402931717101 0 0.73984939806388494 0.70740600291923139 0 0.29641115738084339 0.70252050881958938 0 0.34270280102445921 0.71672416762035873 0 0.2925512105451914 0.73997990291173188 0 0.76395804595204597 0.67808171673060369 0 0.73984939806388494 0.70740600291923139 0 0.71518943060973483 0.65679402931717101 0 0.32191828326940508 0.76395804595204586 0 0.2925512105451914 0.73997990291173188 0 0.34270280102445921 0.71672416762035873 0 0.70358884261915744 0.29747949118041561 0 0.65679402931716913 0.28481056939027388 0 0.70740600291923772 0.26015060193611528 0 0.29747949118041711 0.2964111573808435 0 0.28473805236128291 0.34355768118673757 0 0.26014443552207939 0.29262390443653519 0 0.67808171673060202 0.23604195404795861 0 0.70740600291923772 0.26015060193611528 0 0.65679402931716913 0.28481056939027388 0 0.2360419540479583 0.32191828326940741 0 0.26014443552207939 0.29262390443653519 0 0.28473805236128291 0.34355768118673757 0 0.74198804864688339 0.90892718720327403 0 0.70475631558365914 0.90098127745102974 0 0.74154628962857594 0.86274820500026039 0 0.091072812796719582 0.74198804864687795 0 0.099018722548963364 0.70475631558365193 0 0.13725179499972981 0.74154628962856628 0 0.89586000931544074 0.25714619498770419 0 0.89886191075654698 0.29506339503703172 0 0.85389826602741015 0.26318949769600392 0 0.25714619498771307 0.1041399906845497 0 0.29506339503703888 0.1011380892434444 0 0.26318949769601319 0.14610173397257309 0 0.59819537371016407 0.74380966024143391 0 0.64203711532612107 0.74316477213290444 0 0.61896574319320252 0.795216048370321 0 0.66820316019503978 0.77769800602796979 0 0.61896574319320252 0.795216048370321 0 0.64203711532612107 0.74316477213290444 0 0.25619033975856881 0.59819537371016862 0 0.25684529255773247 0.64203554247963057 0 0.2047839516296828 0.61896574319320252 0 0.22230199397202771 0.66820316019503168 0 0.2047839516296828 0.61896574319320252 0 0.25684529255773247 0.64203554247963057 0 0.74380966024142703 0.40180462628984132 0 0.74316477213289889 0.35796288467388632 0 0.79521604837030013 0.38103425680679831 0 0.77769800602796679 0.33179683980497482 0 0.79521604837030013 0.38103425680679831 0 0.74316477213289889 0.35796288467388632 0 0.40180462628983732 0.2561903397585753 0 0.3579628846738841 0.25683522786710378 0 0.38103425680679859 0.2047839516297037 0 0.33179683980498331 0.2223019939720311 0 0.38103425680679859 0.2047839516297037 0 0.3579628846738841 0.25683522786710378 0 0.92670321183853355 0.65773042910151081 0 0.93946948561981514 0.60485373571037115 0 0.96654491682122368 0.6363613838740827 0 0.65773042910151891 0.073296788161472337 0 0.6048537357103756 0.060530514380187868 0 0.63635157668793507 0.033457646040912177 0 0.3422695708985129 0.92670321183858773 0 0.39514626428973221 0.93946948561985189 0 0.36363861612613613 0.96654491682121313 0 0.073296788161418117 0.34226957089850552 0 0.06053051438015096 0.39514626428972788 0 0.033457646040922301 0.36364842331228431 0 0.6519524273377173 0.64249931920594539 0 0.6768914574865772 0.67861120078714243 0 0.64518564541690571 0.69601563325001548 0 0.35944937237716967 0.65164789808436319 0 0.32259853082073792 0.67670072609835186 0 0.30421635384321521 0.64514939193436716 0 0.6424993192059415 0.3480475726622802 0 0.6786112007871401 0.32310854251343019 0 0.69601563325001248 0.35481435458309712 0 0.34804757266227387 0.35750068079406011 0 0.3231032570156932 0.32141443408924047 0 0.35481435458309307 0.30398436674998969 0 0.73982803480991577 0.79629608696991705 0 0.71159714897733284 0.75039044679290845 0 0.74917861927654894 0.74229989257760443 0 0.20370391303007401 0.73982803480989479 0 0.249609553207091 0.71159714897732929 0 0.25770010742238642 0.74917861927655205 0 0.79629608696994103 0.26017196519011448 0 0.75039044679291111 0.28840285102267788 0 0.74229989257762263 0.250821380723454 0 0.26017196519013502 0.20370391303005 0 0.28840285102268098 0.24960955320708811 0 0.25082138072344978 0.25770010742236849 0 0.43565339604028508 0.55159384357101338 0 0.45030222762303879 0.58443295115431027 0 0.40468198875170619 0.57637931869191572 0 0.3999999999989749 0 0 0.44999999999882923 0 0 0.40685581827241191 0.041139877312511682 0 1 0.3999999999989749 0 1 0.44999999999882923 0 0.95886012268748921 0.4068558182724159 0 0 0.60000000000138687 0 0 0.55000000000173355 0 0.041139877312483641 0.59314418172763017 0 0.60000000000138687 1 0 0.55000000000173355 1 0 0.5931441817276254 0.95886012268751675 0 1 0.049999999999899652 0 1 0.099999999999814668 0 0.95994154153057998 0.094457855579277675 0 0.049999999999899652 0 0 0.099999999999814668 0 0 0.094457855579284614 0.040058458469418363 0 0.94999999999979179 1 0 0.89999999999958358 1 0 0.90554214442080472 0.95994154153067524 0 0 0.94999999999979179 0 0 0.89999999999958358 0 0.040058458469322648 0.90554214442079806 0 1 0.89999999999973679 0 1 0.94999999999986839 0 0.95994154153065969 0.90554214442078618 0 0.89999999999973679 0 0 0.94999999999986839 0 0 0.90554214442081604 0.040058458469347469 0 0.10000000000041601 1 0 0.050000000000207989 1 0 0.094457855579188163 0.95994154153068711 0 0 0.10000000000041601 0 0 0.050000000000207989 0 0.040058458469319477 0.094457855579157729 0 0.88949062093135778 0.73694585442531257 0 0.8312019486901514 0.72745002167959472 0 0.85607519768343354 0.69380468830529196 0 0.73688246401832591 0.11047754041323141 0 0.72767516840721058 0.16853767177393791 0 0.69379929796456197 0.14392209494791061 0 0.26305414557470391 0.88949062093136155 0 0.27254997832041528 0.8312019486901443 0 0.30619531169472608 0.85607519768342955 0 0.1104775404132264 0.2631175359816938 0 0.1685376717739448 0.27232483159280108 0 0.14392209494791439 0.30620070203545702 0 0.51484304721220842 0.69707233951836334 0 0.54465502325161819 0.74717983044080061 0 0.49073113440598592 0.73759004618730417 0 0.30292766048163949 0.51484304721221474 0 0.25287139441262568 0.54458355434492378 0 0.262418491288269 0.49071922292154141 0 0.70015119067225129 0.48481914991727459 0 0.74730218607442667 0.45539100053644521 0 0.73815142352639962 0.50697050072007344 0 0.48378871228000903 0.29745177826977359 0 0.45533136021725079 0.2525687312087147 0 0.50732841191799194 0.2613117081243182 0 0.66548584431530877 0.55616712808283064 0 0.61866949026800744 0.55492322767366287 0 0.64455163611866495 0.50369301794551069 0 0.5586987495249669 0.33382663527330653 0 0.59596170682035776 0.34609402305862419 0 0.54715635490880632 0.37829016026862072 0 0.41009598069569558 0.49083935749285379 0 0.42340342337193693 0.44762131874855388 0 0.46152714345798918 0.47344359412352599 0 0.63969251517836323 0.84598529912890386 0 0.61896574319320252 0.795216048370321 0 0.66919832404887702 0.81820888699730587 0 0.1540147008710982 0.63969251517836956 0 0.2047839516296828 0.61896574319320252 0 0.1817911130026923 0.66919832404888702 0 0.84598529912889664 0.36030748482164038 0 0.79521604837030013 0.38103425680679831 0 0.8182088869973061 0.33080167595111531 0 0.3603074848216346 0.15401470087110539 0 0.38103425680679859 0.2047839516297037 0 0.33080167595110582 0.18179111300269291 0 0.60000000000138687 1 0 0.5931441817276254 0.95886012268751675 0 0.63753756910470316 0.95578163339252209 0 0 0.60000000000138687 0 0.041139877312483641 0.59314418172763017 0 0.04421836660747535 0.63753756910470205 0 1 0.3999999999989749 0 0.95886012268748921 0.4068558182724159 0 0.95581270756939096 0.36248656652865863 0 0.3999999999989749 0 0 0.40685581827241191 0.041139877312511682 0 0.36246243089534252 0.044218366607477223 0 0.6519524273377173 0.64249931920594539 0 0.61233489393901674 0.60846740003560018 0 0.65501639383771026 0.594528181397324 0 0.6424993192059415 0.3480475726622802 0 0.60122390529523662 0.39097801071820221 0 0.59596170682035776 0.34609402305862419 0 0.56566515596461675 0.63670464971409091 0 0.60879112811253555 0.66592422311595834 0 0.57051182622447827 0.69668652018496713 0 0.35984320557492089 0.56698606271778873 0 0.33231497408081678 0.60779218732873663 0 0.30429740679959738 0.56913905146460098 0 0.640156794425081 0.43301393728221721 0 0.66346942254826746 0.391530810754116 0 0.69595787604187809 0.43071000156707989 0 0.43301393728221038 0.35984320557492139 0 0.39120887188745579 0.33407577688404289 0 0.43059486795334201 0.30395973419063538 0 0.59999999999894682 0 0 0.63635157668793507 0.033457646040912177 0 0.6048537357103756 0.060530514380187868 0 1 0.59999999999894682 0 0.96654491682122368 0.6363613838740827 0 0.93946948561981514 0.60485373571037115 0 0 0.40000000000166441 0 0.033457646040922301 0.36364842331228431 0 0.06053051438015096 0.39514626428972788 0 0.40000000000166441 1 0 0.36363861612613613 0.96654491682121313 0 0.39514626428973221 0.93946948561985189 0 0.50000000000002642 0.7803135888501761 0 0.49073113440598592 0.73759004618730417 0 0.54465502325161819 0.74717983044080061 0 0.2196864111498267 0.50000000000003153 0 0.262418491288269 0.49071922292154141 0 0.25287139441262568 0.54458355434492378 0 0.78031358885017377 0.49999999999997569 0 0.73815142352639962 0.50697050072007344 0 0.74730218607442667 0.45539100053644521 0 0.49999999999997108 0.21968641114982909 0 0.50732841191799194 0.2613117081243182 0 0.45533136021725079 0.2525687312087147 0 0.39507969989512881 0.74417394063201048 0 0.43306783640023289 0.78031198216144404 0 0.38703015239361932 0.80283068154761972 0 0.25582605936799319 0.39507969989513358 0 0.21968801783855879 0.43306783640023788 0 0.197169318452384 0.38703015239362498 0 0.74417394063200648 0.6049203001048884 0 0.78031198216143516 0.56693216359979737 0 0.8028306815476034 0.61296984760642026 0 0.60492030010488373 0.25582605936799729 0 0.56683314878414581 0.21944955250104689 0 0.61296984760641449 0.19716931845240021 0 0.77998481823117694 0.71397317153691997 0 0.74917861927654894 0.74229989257760443 0 0.73984939806388494 0.70740600291923139 0 0.28602682846308641 0.77998481823117594 0 0.25770010742238642 0.74917861927655205 0 0.2925512105451914 0.73997990291173188 0 0.71397317153692708 0.22001518176882201 0 0.74229989257762263 0.250821380723454 0 0.70740600291923772 0.26015060193611528 0 0.22001518176882229 0.28602682846307981 0 0.25082138072344978 0.25770010742236849 0 0.26014443552207939 0.29262390443653519 0 0.49189101320880302 0.59024331187324797 0 0.53087311892591971 0.55299263141448529 0 0.53542397956703913 0.60119875982347493 0 0.41009598069569558 0.49083935749285379 0 0.46152714345798918 0.47344359412352599 0 0.45293656999117771 0.51494832297079129 0 0.66820316019503978 0.77769800602796979 0 0.66919832404887702 0.81820888699730587 0 0.61896574319320252 0.795216048370321 0 0.22230199397202771 0.66820316019503168 0 0.1817911130026923 0.66919832404888702 0 0.2047839516296828 0.61896574319320252 0 0.77769800602796679 0.33179683980497482 0 0.8182088869973061 0.33080167595111531 0 0.79521604837030013 0.38103425680679831 0 0.33179683980498331 0.2223019939720311 0 0.33080167595110582 0.18179111300269291 0 0.38103425680679859 0.2047839516297037 0 0.83199780613337848 0.1690131600686714 0 0.87355793346388477 0.18922011052113649 0 0.84534053180161173 0.2262639405833009 0 0.16901316006868169 0.16800219386663079 0 0.18922011052115781 0.12644206653611201 0 0.22626394058331961 0.15465946819838111 0 0.58981073711177334 0.48140931020849848 0 0.62619054498681193 0.46482944251856079 0 0.64455163611866495 0.50369301794551069 0 0.59621567360238914 0.5184866806641607 0 0.58981073711177334 0.48140931020849848 0 0.64455163611866495 0.50369301794551069 0 0.53432142347292233 0.88563193847251998 0 0.54047998161173716 0.84333512669480526 0 0.58267137064684116 0.87013301365640838 0 0.56759263990989184 0.81794319034601648 0 0.58267137064684116 0.87013301365640838 0 0.54047998161173716 0.84333512669480526 0 0.1143680615274819 0.53432142347292733 0 0.1566648733051971 0.54047998161174216 0 0.12986698634359389 0.58267137064684615 0 0.18205680965398621 0.56759263990989739 0 0.12986698634359389 0.58267137064684615 0 0.1566648733051971 0.54047998161174216 0 0.88561059063756964 0.46572761956237563 0 0.84333218736938698 0.4595365182652234 0 0.87012666750595846 0.41743873185103042 0 0.81794319034597418 0.43240736009009317 0 0.87012666750595846 0.41743873185103042 0 0.84333218736938698 0.4595365182652234 0 0.46567857652706018 0.1143680615275231 0 0.45952001838826873 0.15666487330524251 0 0.41732862935313042 0.12986698634362279 0 0.43240736009008851 0.18205680965402779 0 0.41732862935313042 0.12986698634362279 0 0.45952001838826873 0.15666487330524251 0 0.70085728320704077 0.84350379029875056 0 0.70475631558365914 0.90098127745102974 0 0.66923299355723143 0.8804077449518628 0 0.1564962097012354 0.70085728320703999 0 0.099018722548963364 0.70475631558365193 0 0.1195922550481313 0.66923299355722787 0 0.84350379029877964 0.29914271679296989 0 0.89886191075654698 0.29506339503703172 0 0.88040774495187946 0.33076700644278889 0 0.29914271679297122 0.15649620970120659 0 0.29506339503703888 0.1011380892434444 0 0.33076700644279272 0.1195922550481146 0 0.839908789927305 0.77106070975262608 0 0.78651189793386345 0.75664155808652755 0 0.8312019486901514 0.72745002167959472 0 0.22893929024737289 0.83990878992727813 0 0.24335844191347281 0.78651189793387466 0 0.27254997832041528 0.8312019486901443 0 0.77216325087772952 0.15899695163319821 0 0.7582555232258138 0.2115548431873896 0 0.72767516840721058 0.16853767177393791 0 0.15899695163321451 0.22783674912227669 0 0.2115548431873881 0.2417444767741872 0 0.1685376717739448 0.27232483159280108 0 0.89586000931544074 0.25714619498770419 0 0.85389826602741015 0.26318949769600392 0 0.84534053180161173 0.2262639405833009 0 0.25714619498771307 0.1041399906845497 0 0.26318949769601319 0.14610173397257309 0 0.22626394058331961 0.15465946819838111 0 0.49771727055908782 0.83998685797641781 0 0.45353891581270822 0.85551523377818905 0 0.46593838964869061 0.80781872835503554 0 0.16001314202358469 0.49771727055909287 0 0.1444847662218138 0.45353891581271188 0 0.19218127164496679 0.46593838964869538 0 0.83998574657308889 0.50228528270184081 0 0.85551478316835361 0.54646211938695222 0 0.80781854240107975 0.53406203754901738 0 0.50228272944093777 0.16001314202359701 0 0.54646108418729233 0.1444847662218687 0 0.53404982287327418 0.19215288291432539 0 0.51484304721220842 0.69707233951836334 0 0.47818752133962877 0.66454462905280853 0 0.51172471858873747 0.64015771271794875 0 0.30292766048163949 0.51484304721221474 0 0.33436424489304489 0.47849603121740791 0 0.35815651743779398 0.51113440447909086 0 0.6027107599280892 0.83436006790502326 0 0.63969251517836323 0.84598529912890386 0 0.62483828039315681 0.8780818733396436 0 0.1656399320949789 0.60271075992809464 0 0.1540147008710982 0.63969251517836956 0 0.1219181266603569 0.62483828039315903 0 0.83436006790498052 0.39728924007189959 0 0.84598529912889664 0.36030748482164038 0 0.87815187193233801 0.37523526017134418 0 0.3972892400718947 0.16563993209502181 0 0.3603074848216346 0.15401470087110539 0 0.37516171960683908 0.121918126660369 0 0.70015119067225129 0.48481914991727459 0 0.64455163611866495 0.50369301794551069 0 0.66329969176266512 0.46626046872004567 0 0.57387636360620708 0.54318431390135336 0 0.53087311892591971 0.55299263141448529 0 0.554170140907293 0.50922353359177785 0 0.50333998054938722 0.50119715791968966 0 0.50753758205811061 0.4506562873613274 0 0.54783891860069212 0.46640164214823893 0 0.58267137064684116 0.87013301365640838 0 0.6027107599280892 0.83436006790502326 0 0.62483828039315681 0.8780818733396436 0 0.12986698634359389 0.58267137064684615 0 0.1656399320949789 0.60271075992809464 0 0.1219181266603569 0.62483828039315903 0 0.87012666750595846 0.41743873185103042 0 0.83436006790498052 0.39728924007189959 0 0.87815187193233801 0.37523526017134418 0 0.41732862935313042 0.12986698634362279 0 0.3972892400718947 0.16563993209502181 0 0.37516171960683908 0.121918126660369 0 0.35984320557492089 0.56698606271778873 0 0.35815651743779398 0.51113440447909086 0 0.39982789553993509 0.53462762214740622 0 0.43087117257049001 0.8215422551712771 0 0.46593838964869061 0.80781872835503554 0 0.45353891581270822 0.85551523377818905 0 0.17845774482872559 0.43087117257049429 0 0.19218127164496679 0.46593838964869538 0 0.1444847662218138 0.45353891581271188 0 0.8215422551712277 0.56912882742954496 0 0.80781854240107975 0.53406203754901738 0 0.85551478316835361 0.54646211938695222 0 0.56912882742954041 0.17845774482877461 0 0.53404982287327418 0.19215288291432539 0 0.54646108418729233 0.1444847662218687 0 0.89586000931544074 0.25714619498770419 0 0.89556054516486661 0.21720615046483649 0 0.94465622530468663 0.23167460333446291 0 0.91838802593870927 0.18172590289757809 0 0.94465622530468663 0.23167460333446291 0 0.89556054516486661 0.21720615046483649 0 0.25714619498771307 0.1041399906845497 0 0.21720615046484709 0.1044394548351292 0 0.23167460333446299 0.05534377469531044 0 0.18172590289758209 0.08161197406129285 0 0.23167460333446299 0.05534377469531044 0 0.21720615046484709 0.1044394548351292 0 0.50333998054938722 0.50119715791968966 0 0.54783891860069212 0.46640164214823893 0 0.554170140907293 0.50922353359177785 0 0.16901316006868169 0.16800219386663079 0 0.12587517708284679 0.1889683322666954 0 0.12294765968567151 0.14825146416195439 0 0.83199780613337848 0.1690131600686714 0 0.8110316677333288 0.125875177082863 0 0.8517485358380722 0.12294765968568611 0 0.74198804864688339 0.90892718720327403 0 0.74154628962857594 0.86274820500026039 0 0.78020430794084783 0.88768307197553598 0 0.78284912262770068 0.83746308049763585 0 0.78020430794084783 0.88768307197553598 0 0.74154628962857594 0.86274820500026039 0 0.091072812796719582 0.74198804864687795 0 0.13725179499972981 0.74154628962856628 0 0.11231692802445629 0.78020430794084028 0 0.16253691950235041 0.78284912262768558 0 0.11231692802445629 0.78020430794084028 0 0.13725179499972981 0.74154628962856628 0 0.82118136511706341 0.082875076569723011 0 0.77925951159456153 0.09969477121230251 0 0.76543419162344684 0.056452228708420968 0 0.08287507656968085 0.1788186348829835 0 0.099694771212264055 0.22074048840547039 0 0.056452228708379938 0.23456580837661581 0 0.91838802593884228 0.81827409710237209 0 0.9041449437197947 0.7786886066890556 0 0.9442075111696665 0.76777356182390766 0 0.1817259028976386 0.91838802593888857 0 0.22131139331094829 0.9041449437198319 0 0.23222643817617661 0.94420751116970569 0 0.73688246401832591 0.11047754041323141 0 0.76543419162344684 0.056452228708420968 0 0.77925951159456153 0.09969477121230251 0 0.1104775404132264 0.2631175359816938 0 0.056452228708379938 0.23456580837661581 0 0.099694771212264055 0.22074048840547039 0 0.88949062093135778 0.73694585442531257 0 0.9442075111696665 0.76777356182390766 0 0.9041449437197947 0.7786886066890556 0 0.26305414557470391 0.88949062093136155 0 0.23222643817617661 0.94420751116970569 0 0.22131139331094829 0.9041449437198319 0 0.73984939806388494 0.70740600291923139 0 0.71159714897733284 0.75039044679290845 0 0.70252050881959183 0.70358884261915833 0 0.74917861927654894 0.74229989257760443 0 0.71159714897733284 0.75039044679290845 0 0.73984939806388494 0.70740600291923139 0 0.2925512105451914 0.73997990291173188 0 0.249609553207091 0.71159714897732929 0 0.29641115738084339 0.70252050881958938 0 0.25770010742238642 0.74917861927655205 0 0.249609553207091 0.71159714897732929 0 0.2925512105451914 0.73997990291173188 0 0.70740600291923772 0.26015060193611528 0 0.75039044679291111 0.28840285102267788 0 0.70358884261915744 0.29747949118041561 0 0.74229989257762263 0.250821380723454 0 0.75039044679291111 0.28840285102267788 0 0.70740600291923772 0.26015060193611528 0 0.26014443552207939 0.29262390443653519 0 0.28840285102268098 0.24960955320708811 0 0.29747949118041711 0.2964111573808435 0 0.25082138072344978 0.25770010742236849 0 0.28840285102268098 0.24960955320708811 0 0.26014443552207939 0.29262390443653519 0 0.88949062093135778 0.73694585442531257 0 0.85607519768343354 0.69380468830529196 0 0.90051880305432697 0.69261863673346957 0 0.26305414557470391 0.88949062093136155 0 0.30619531169472608 0.85607519768342955 0 0.30738136326657722 0.90051880305435028 0 0.73688246401832591 0.11047754041323141 0 0.69379929796456197 0.14392209494791061 0 0.69253601466723103 0.09949211948105087 0 0.1104775404132264 0.2631175359816938 0 0.14392209494791439 0.30620070203545702 0 0.099492119481027347 0.30746398533281638 0 0.58981073711177334 0.48140931020849848 0 0.54783891860069212 0.46640164214823893 0 0.59313386551587477 0.43977047843653239 0 0.640156794425081 0.43301393728221721 0 0.69595787604187809 0.43071000156707989 0 0.66329969176266512 0.46626046872004567 0 0.70015119067225129 0.48481914991727459 0 0.66329969176266512 0.46626046872004567 0 0.69595787604187809 0.43071000156707989 0 0.8289812646369813 0.82898126463698818 0 0.81306033001437827 0.8677384967307622 0 0.78284912262770068 0.83746308049763585 0 0.17101873536300011 0.82898126463696109 0 0.1322615032692282 0.8130603300143705 0 0.16253691950235041 0.78284912262768558 0 0.84534053180161173 0.2262639405833009 0 0.87355793346388477 0.18922011052113649 0 0.89556054516486661 0.21720615046483649 0 0.22626394058331961 0.15465946819838111 0 0.18922011052115781 0.12644206653611201 0 0.21720615046484709 0.1044394548351292 0 0.90082758526900886 0.098076845682916511 0 0.86148619541339633 0.089689702191568438 0 0.86589314360155567 0.054872692726639853 0 0.098076845682915317 0.099172414730993488 0 0.089689702191541126 0.13851380458662241 0 0.054872692726595548 0.13410685639845171 0 0.84598529912884157 0.63969251517827153 0 0.89064679688610338 0.6216080907827598 0 0.88396545633132484 0.6625197322180193 0 0.63969251517826664 0.15401470087115929 0 0.62160809078275991 0.1093532031139005 0 0.66251865414987876 0.1160340021949529 0 0.36030748482174152 0.84598529912882459 0 0.37839190921727062 0.89064679688614412 0 0.33748026778199908 0.88396545633134682 0 0.15401470087117619 0.36030748482174652 0 0.10935320311385981 0.37839190921727089 0 0.11603400219493119 0.33748134585014028 0 0.82118136511706341 0.082875076569723011 0 0.8517485358380722 0.12294765968568611 0 0.8110316677333288 0.125875177082863 0 0.08287507656968085 0.1788186348829835 0 0.12294765968567151 0.14825146416195439 0 0.12587517708284679 0.1889683322666954 0 0.75000000000034661 1 0 0.7000000000006934 1 0 0.71789175274016548 0.95136708251202151 0 0 0.75000000000034661 0 0 0.7000000000006934 0 0.04863291748797445 0.71789175274016204 0 1 0.24999999999941211 0 1 0.29999999999926641 0 0.94915666091748963 0.28320804985299752 0 0.24999999999941211 0 0 0.29999999999926641 0 0 0.28320804985300141 0.050843339082505573 0 0.55000000000173355 1 0 0.51507566941747085 0.9626786017237855 0 0.55307204985744796 0.94819812235491685 0 0 0.55000000000173355 0 0.037321398276215258 0.51507566941747263 0 0.051801877645083663 0.55307204985745195 0 1 0.44999999999882923 0 0.96266688603193029 0.48495124540067203 0 0.94812782820415209 0.44708943904932719 0 0.44999999999882923 0 0 0.48492433058289169 0.037321398276272413 0 0.44692795014265252 0.051801877645060238 0 0.49854341599767982 0.37075914768127122 0 0.51491507395299929 0.3326740076510219 0 0.54715635490880632 0.37829016026862072 0 0.91838802593884228 0.81827409710237209 0 0.88962265630811221 0.85311725681459705 0 0.87660297360393757 0.8104127896505644 0 0.1817259028976386 0.91838802593888857 0 0.14688274318541941 0.88962265630811932 0 0.18958721034944021 0.87660297360394568 0 0.50333998054938722 0.50119715791968966 0 0.554170140907293 0.50922353359177785 0 0.53087311892591971 0.55299263141448529 0 0.91890123454466932 0.39094742729597309 0 0.95886012268748921 0.4068558182724159 0 0.90991454156957952 0.4312731559748802 0 0.94812782820415209 0.44708943904932719 0 0.90991454156957952 0.4312731559748802 0 0.95886012268748921 0.4068558182724159 0 0.84999999999965292 1 0 0.82675923981951416 0.95611053755456221 0 0.86696410734367158 0.94753096683315619 0 0 0.84999999999965292 0 0.043889462445437968 0.82675923981951283 0 0.052469033166843738 0.86696410734366991 0 0.1817259028976386 0.91838802593888857 0 0.18045991219397989 0.960710939969875 0 0.13834721989462789 0.94095916274077984 0 0.91838802593884228 0.81827409710237209 0 0.96071093996985157 0.81954008780615684 0 0.94095916274074942 0.86165278010542579 0 0.08287507656968085 0.1788186348829835 0 0.038839999600931263 0.17949825993190149 0 0.054872692726595548 0.13410685639845171 0 0.82118136511706341 0.082875076569723011 0 0.82050174006822896 0.038839999600956771 0 0.86589314360155567 0.054872692726639853 0 0.15000000000062411 1 0 0.13834721989462789 0.94095916274077984 0 0.18045991219397989 0.960710939969875 0 1 0.84999999999960507 0 0.94095916274074942 0.86165278010542579 0 0.96071093996985157 0.81954008780615684 0 0 0.15000000000062411 0 0.054872692726595548 0.13410685639845171 0 0.038839999600931263 0.17949825993190149 0 0.84999999999960507 0 0 0.86589314360155567 0.054872692726639853 0 0.82050174006822896 0.038839999600956771 0 1 0.14999999999970359 0 0.96080966346491015 0.18035159017841959 0 0.94100406608115506 0.1383574446607955 0 0.14999999999970359 0 0 0.18035159017842109 0.039190336535090492 0 0.1383574446607988 0.058995933918849157 0 0.91838802593870927 0.18172590289757809 0 0.94100406608115506 0.1383574446607955 0 0.96080966346491015 0.18035159017841959 0 0.18172590289758209 0.08161197406129285 0 0.1383574446607988 0.058995933918849157 0 0.18035159017842109 0.039190336535090492 0 0.40653508887824003 0.61580573377480397 0 0.45030222762303879 0.58443295115431027 0 0.45517457031814612 0.62743100079604397 0 0.50333998054938722 0.50119715791968966 0 0.53087311892591971 0.55299263141448529 0 0.47974773860103892 0.54872726831320284 0 0.33382663527330159 0.44130125047503482 0 0.30597655500381687 0.3934681685211931 0 0.35481422397128459 0.40312981465069342 0 0.34804757266227387 0.35750068079406011 0 0.35481422397128459 0.40312981465069342 0 0.30597655500381687 0.3934681685211931 0 0.39419886675318527 0.41912225240070788 0 0.39222057657781068 0.38067796690227418 0 0.42930823106401639 0.40626685012722968 0 0.5586987495249669 0.33382663527330653 0 0.54715635490880632 0.37829016026862072 0 0.51491507395299929 0.3326740076510219 0 0.84598529912884157 0.63969251517827153 0 0.88396545633132484 0.6625197322180193 0 0.85607519768343354 0.69380468830529196 0 0.63969251517826664 0.15401470087115929 0 0.66251865414987876 0.1160340021949529 0 0.69379929796456197 0.14392209494791061 0 0.36030748482174152 0.84598529912882459 0 0.33748026778199908 0.88396545633134682 0 0.30619531169472608 0.85607519768342955 0 0.15401470087117619 0.36030748482174652 0 0.11603400219493119 0.33748134585014028 0 0.14392209494791439 0.30620070203545702 0 0.41009598069569558 0.49083935749285379 0 0.39982789553993509 0.53462762214740622 0 0.35815651743779398 0.51113440447909086 0 0.43087117257049001 0.8215422551712771 0 0.38703015239361932 0.80283068154761972 0 0.43306783640023289 0.78031198216144404 0 0.8215422551712277 0.56912882742954496 0 0.8028306815476034 0.61296984760642026 0 0.78031198216143516 0.56693216359979737 0 0.17845774482872559 0.43087117257049429 0 0.197169318452384 0.38703015239362498 0 0.21968801783855879 0.43306783640023788 0 0.56912882742954041 0.17845774482877461 0 0.61296984760641449 0.19716931845240021 0 0.56683314878414581 0.21944955250104689 0 0.86696410734367158 0.94753096683315619 0 0.82675923981951416 0.95611053755456221 0 0.85382799508926477 0.91295829388058414 0 0.052469033166843738 0.86696410734366991 0 0.043889462445437968 0.82675923981951283 0 0.087041706119416085 0.85382799508926188 0 0.81709574086843206 0.91318696080656769 0 0.85382799508926477 0.91295829388058414 0 0.82675923981951416 0.95611053755456221 0 0.086813039193431391 0.81709574086842884 0 0.087041706119416085 0.85382799508926188 0 0.043889462445437968 0.82675923981951283 0 0.77998481823117694 0.71397317153691997 0 0.8312019486901514 0.72745002167959472 0 0.78651189793386345 0.75664155808652755 0 0.28602682846308641 0.77998481823117594 0 0.27254997832041528 0.8312019486901443 0 0.24335844191347281 0.78651189793387466 0 0.71397317153692708 0.22001518176882201 0 0.72767516840721058 0.16853767177393791 0 0.7582555232258138 0.2115548431873896 0 0.22001518176882229 0.28602682846307981 0 0.1685376717739448 0.27232483159280108 0 0.2115548431873881 0.2417444767741872 0 0.54901591374940373 0.42306523525165751 0 0.50753758205811061 0.4506562873613274 0 0.5047849391802508 0.40719950955717021 0 0.54901591374940373 0.42306523525165751 0 0.59313386551587477 0.43977047843653239 0 0.54783891860069212 0.46640164214823893 0 0.81709574086843206 0.91318696080656769 0 0.81306033001437827 0.8677384967307622 0 0.85174853583809862 0.87705234031428159 0 0.086813039193431391 0.81709574086842884 0 0.1322615032692282 0.8130603300143705 0 0.1229476596857173 0.85174853583809695 0 0.839908789927305 0.77106070975262608 0 0.79422489417873421 0.79640925234634441 0 0.78651189793386345 0.75664155808652755 0 0.22893929024737289 0.83990878992727813 0 0.20359074765364421 0.79422489417871855 0 0.24335844191347281 0.78651189793387466 0 0.77216325087772952 0.15899695163319821 0 0.80027482104603809 0.20596721135052129 0 0.7582555232258138 0.2115548431873896 0 0.15899695163321451 0.22783674912227669 0 0.20596721135052939 0.19972517895396219 0 0.2115548431873881 0.2417444767741872 0 0.70087539567735502 0.57165914616526226 0 0.65501639383771026 0.594528181397324 0 0.66548584431530877 0.55616712808283064 0 0.69288637798153729 0.61204665218001397 0 0.65501639383771026 0.594528181397324 0 0.70087539567735502 0.57165914616526226 0 0.57188338999077359 0.29874123486230147 0 0.59596170682035776 0.34609402305862419 0 0.5586987495249669 0.33382663527330653 0 0.61204665218000809 0.30711362201846659 0 0.59596170682035776 0.34609402305862419 0 0.57188338999077359 0.29874123486230147 0 0.55307204985744796 0.94819812235491685 0 0.56877264426066887 0.91182300080710277 0 0.5931441817276254 0.95886012268751675 0 0.60938371359314658 0.91847489683800321 0 0.5931441817276254 0.95886012268751675 0 0.56877264426066887 0.91182300080710277 0 0.051801877645083663 0.55307204985745195 0 0.088176999192898689 0.56877264426067353 0 0.041139877312483641 0.59314418172763017 0 0.081525103161997597 0.6093837135931508 0 0.041139877312483641 0.59314418172763017 0 0.088176999192898689 0.56877264426067353 0 0.44692795014265252 0.051801877645060238 0 0.43122735573933979 0.088176999192917438 0 0.40685581827241191 0.041139877312511682 0 0.39061628640684498 0.081525103161991672 0 0.40685581827241191 0.041139877312511682 0 0.43122735573933979 0.088176999192917438 0 0.56566515596461675 0.63670464971409091 0 0.54058719659441246 0.66889411379075558 0 0.51172471858873747 0.64015771271794875 0 0.35984320557492089 0.56698606271778873 0 0.331306197573488 0.54052564146842386 0 0.35815651743779398 0.51113440447909086 0 0.51484304721220842 0.69707233951836334 0 0.51172471858873747 0.64015771271794875 0 0.54058719659441246 0.66889411379075558 0 0.30292766048163949 0.51484304721221474 0 0.35815651743779398 0.51113440447909086 0 0.331306197573488 0.54052564146842386 0 0.90045039720880915 0.9020090423547924 0 0.86696410734367158 0.94753096683315619 0 0.85382799508926477 0.91295829388058414 0 0.097990957645208238 0.90045039720880915 0 0.052469033166843738 0.86696410734366991 0 0.087041706119416085 0.85382799508926188 0 0.82118136511706341 0.082875076569723011 0 0.86589314360155567 0.054872692726639853 0 0.86148619541339633 0.089689702191568438 0 0.08287507656968085 0.1788186348829835 0 0.054872692726595548 0.13410685639845171 0 0.089689702191541126 0.13851380458662241 0 0.67757268808231397 0.93106206656183088 0 0.70475631558365914 0.90098127745102974 0 0.71789175274016548 0.95136708251202151 0 0.068937933438162791 0.67757268808231053 0 0.099018722548963364 0.70475631558365193 0 0.04863291748797445 0.71789175274016204 0 0.93106206656185309 0.32242731191769503 0 0.89886191075654698 0.29506339503703172 0 0.94915666091748963 0.28320804985299752 0 0.32242731191769902 0.068937933438140794 0 0.29506339503703888 0.1011380892434444 0 0.28320804985300141 0.050843339082505573 0 0.59819537371016407 0.74380966024143391 0 0.57578062281532438 0.77751665353176347 0 0.54465502325161819 0.74717983044080061 0 0.25619033975856881 0.59819537371016862 0 0.2224870800581388 0.57577541371134155 0 0.25287139441262568 0.54458355434492378 0 0.74380966024142703 0.40180462628984132 0 0.77752557158083724 0.42422273168818408 0 0.74730218607442667 0.45539100053644521 0 0.40180462628983732 0.2561903397585753 0 0.42421838472613971 0.22246502005787769 0 0.45533136021725079 0.2525687312087147 0 0.56566515596461675 0.63670464971409091 0 0.53542397956703913 0.60119875982347493 0 0.57484409313590223 0.58437321637184114 0 0.59819537371016407 0.74380966024143391 0 0.57051182622447827 0.69668652018496713 0 0.6083790122881827 0.70496300707145865 0 0.25619033975856881 0.59819537371016862 0 0.30429740679959738 0.56913905146460098 0 0.29503699292854352 0.60837901228818936 0 0.74380966024142703 0.40180462628984132 0 0.69595787604187809 0.43071000156707989 0 0.70496300707145554 0.39162098771181952 0 0.40180462628983732 0.2561903397585753 0 0.43059486795334201 0.30395973419063538 0 0.39162098771181342 0.29503699292854563 0 0.50000000000002642 0.7803135888501761 0 0.54465502325161819 0.74717983044080061 0 0.53770425635794761 0.80104587463999666 0 0.2196864111498267 0.50000000000003153 0 0.25287139441262568 0.54458355434492378 0 0.1989632851005598 0.53769147668950479 0 0.78031358885017377 0.49999999999997569 0 0.74730218607442667 0.45539100053644521 0 0.80106707846564795 0.46230714888029367 0 0.49999999999997108 0.21968641114982909 0 0.45533136021725079 0.2525687312087147 0 0.46229330881044273 0.19890916456654811 0 0.51484304721220842 0.69707233951836334 0 0.54058719659441246 0.66889411379075558 0 0.57051182622447827 0.69668652018496713 0 0.30292766048163949 0.51484304721221474 0 0.331306197573488 0.54052564146842386 0 0.30429740679959738 0.56913905146460098 0 0.56566515596461675 0.63670464971409091 0 0.57051182622447827 0.69668652018496713 0 0.54058719659441246 0.66889411379075558 0 0.35984320557492089 0.56698606271778873 0 0.30429740679959738 0.56913905146460098 0 0.331306197573488 0.54052564146842386 0 0.60938371359314658 0.91847489683800321 0 0.58267137064684116 0.87013301365640838 0 0.62483828039315681 0.8780818733396436 0 0.081525103161997597 0.6093837135931508 0 0.12986698634359389 0.58267137064684615 0 0.1219181266603569 0.62483828039315903 0 0.91890123454466932 0.39094742729597309 0 0.87012666750595846 0.41743873185103042 0 0.87815187193233801 0.37523526017134418 0 0.39061628640684498 0.081525103161991672 0 0.41732862935313042 0.12986698634362279 0 0.37516171960683908 0.121918126660369 0 0.5133022293955174 0.064893331803591428 0 0.52499999999875446 0.029444907164469181 0 0.55993888817186677 0.043612803661174412 0 0.064893331803534807 0.48669777060454478 0 0.029444907164209121 0.47500000000196552 0 0.043612803661092707 0.44006111182840391 0 0.93510666819640953 0.51330222939551939 0 0.97055509283553232 0.52499999999875435 0 0.95638719633882641 0.5599388881718611 0 0.48669777060454272 0.93510666819646593 0 0.47500000000196563 0.970555092835793 0 0.44006111182840962 0.9563871963389079 0 0.56759263990989184 0.81794319034601648 0 0.54047998161173716 0.84333512669480526 0 0.53770425635794761 0.80104587463999666 0 0.18205680965398621 0.56759263990989739 0 0.1566648733051971 0.54047998161174216 0 0.1989632851005598 0.53769147668950479 0 0.81794319034597418 0.43240736009009317 0 0.84333218736938698 0.4595365182652234 0 0.80106707846564795 0.46230714888029367 0 0.43240736009008851 0.18205680965402779 0 0.45952001838826873 0.15666487330524251 0 0.46229330881044273 0.19890916456654811 0 0.50333998054938722 0.50119715791968966 0 0.47974773860103892 0.54872726831320284 0 0.45293656999117771 0.51494832297079129 0 0.73982803480991577 0.79629608696991705 0 0.69892030930712212 0.7971997999085858 0 0.71159714897733284 0.75039044679290845 0 0.20370391303007401 0.73982803480989479 0 0.2028002000914135 0.69892030930711557 0 0.249609553207091 0.71159714897732929 0 0.79629608696994103 0.26017196519011448 0 0.7971997999085878 0.3010796906928917 0 0.75039044679291111 0.28840285102267788 0 0.26017196519013502 0.20370391303005 0 0.30107969069289831 0.20280020009141189 0 0.28840285102268098 0.24960955320708811 0 0.43087117257049001 0.8215422551712771 0 0.40481452396081791 0.85130421228141606 0 0.38703015239361932 0.80283068154761972 0 0.36030748482174152 0.84598529912882459 0 0.38703015239361932 0.80283068154761972 0 0.40481452396081791 0.85130421228141606 0 0.17845774482872559 0.43087117257049429 0 0.14869578771858949 0.40481452396082068 0 0.197169318452384 0.38703015239362498 0 0.8215422551712277 0.56912882742954496 0 0.85130417396420255 0.59518556406638579 0 0.8028306815476034 0.61296984760642026 0 0.84598529912884157 0.63969251517827153 0 0.8028306815476034 0.61296984760642026 0 0.85130417396420255 0.59518556406638579 0 0.15401470087117619 0.36030748482174652 0 0.197169318452384 0.38703015239362498 0 0.14869578771858949 0.40481452396082068 0 0.56912882742954041 0.17845774482877461 0 0.59518547603920147 0.14869578771864489 0 0.61296984760641449 0.19716931845240021 0 0.63969251517826664 0.15401470087115929 0 0.61296984760641449 0.19716931845240021 0 0.59518547603920147 0.14869578771864489 0 0.6519524273377173 0.64249931920594539 0 0.65501639383771026 0.594528181397324 0 0.69288637798153729 0.61204665218001397 0 0.6424993192059415 0.3480475726622802 0 0.59596170682035776 0.34609402305862419 0 0.61204665218000809 0.30711362201846659 0 0.35944937237716967 0.65164789808436319 0 0.40564717507982689 0.65626423320524974 0 0.38642358467307758 0.69286258923597266 0 0.90045039720880915 0.9020090423547924 0 0.85174853583809862 0.87705234031428159 0 0.88962265630811221 0.85311725681459705 0 0.097990957645208238 0.90045039720880915 0 0.1229476596857173 0.85174853583809695 0 0.14688274318541941 0.88962265630811932 0 0.90082758526900886 0.098076845682916511 0 0.88777909259956078 0.1484760565886154 0 0.8517485358380722 0.12294765968568611 0 0.098076845682915317 0.099172414730993488 0 0.1484760565886207 0.1122209074004519 0 0.12294765968567151 0.14825146416195439 0 0.35815651743779398 0.51113440447909086 0 0.33436424489304489 0.47849603121740791 0 0.37702386074717259 0.45819417564476811 0 0.92670321183853355 0.65773042910151081 0 0.94635952848698612 0.71209247961721311 0 0.90051880305432697 0.69261863673346957 0 0.65773042910151891 0.073296788161472337 0 0.71174922810186925 0.053730171687687178 0 0.69253601466723103 0.09949211948105087 0 0.3422695708985129 0.92670321183858773 0 0.28790752038294382 0.94635952848702642 0 0.30738136326657722 0.90051880305435028 0 0.073296788161418117 0.34226957089850552 0 0.053730171687646627 0.28825077189828552 0 0.099492119481027347 0.30746398533281638 0 0.43565339604028508 0.55159384357101338 0 0.45293656999117771 0.51494832297079129 0 0.47974773860103892 0.54872726831320284 0 0.33382663527330159 0.44130125047503482 0 0.2963043386970643 0.4298320229681446 0 0.30597655500381687 0.3934681685211931 0 1 0.69999999999921003 0 0.94635952848698612 0.71209247961721311 0 0.96779701826738695 0.67105375815842694 0 0.69999999999921003 0 0 0.71174922810186925 0.053730171687687178 0 0.67098510785536181 0.032220921767549461 0 0.30000000000124832 1 0 0.28790752038294382 0.94635952848702642 0 0.32894624184180998 0.96779701826738929 0 0 0.30000000000124832 0 0.053730171687646627 0.28825077189828552 0 0.032220921767546963 0.32901489214487523 0 0.56759263990989184 0.81794319034601648 0 0.57578062281532438 0.77751665353176347 0 0.61896574319320252 0.795216048370321 0 0.59819537371016407 0.74380966024143391 0 0.61896574319320252 0.795216048370321 0 0.57578062281532438 0.77751665353176347 0 0.25619033975856881 0.59819537371016862 0 0.2047839516296828 0.61896574319320252 0 0.2224870800581388 0.57577541371134155 0 0.18205680965398621 0.56759263990989739 0 0.2224870800581388 0.57577541371134155 0 0.2047839516296828 0.61896574319320252 0 0.74380966024142703 0.40180462628984132 0 0.79521604837030013 0.38103425680679831 0 0.77752557158083724 0.42422273168818408 0 0.81794319034597418 0.43240736009009317 0 0.77752557158083724 0.42422273168818408 0 0.79521604837030013 0.38103425680679831 0 0.40180462628983732 0.2561903397585753 0 0.38103425680679859 0.2047839516297037 0 0.42421838472613971 0.22246502005787769 0 0.43240736009008851 0.18205680965402779 0 0.42421838472613971 0.22246502005787769 0 0.38103425680679859 0.2047839516297037 0 0.63969251517836323 0.84598529912890386 0 0.6027107599280892 0.83436006790502326 0 0.61896574319320252 0.795216048370321 0 0.1540147008710982 0.63969251517836956 0 0.1656399320949789 0.60271075992809464 0 0.2047839516296828 0.61896574319320252 0 0.84598529912889664 0.36030748482164038 0 0.83436006790498052 0.39728924007189959 0 0.79521604837030013 0.38103425680679831 0 0.3603074848216346 0.15401470087110539 0 0.3972892400718947 0.16563993209502181 0 0.38103425680679859 0.2047839516297037 0 0.53432142347292233 0.88563193847251998 0 0.58267137064684116 0.87013301365640838 0 0.56877264426066887 0.91182300080710277 0 0.1143680615274819 0.53432142347292733 0 0.12986698634359389 0.58267137064684615 0 0.088176999192898689 0.56877264426067353 0 0.91890123454466932 0.39094742729597309 0 0.90991454156957952 0.4312731559748802 0 0.87012666750595846 0.41743873185103042 0 0.46567857652706018 0.1143680615275231 0 0.41732862935313042 0.12986698634362279 0 0.43122735573933979 0.088176999192917438 0 0.60938371359314658 0.91847489683800321 0 0.56877264426066887 0.91182300080710277 0 0.58267137064684116 0.87013301365640838 0 0.081525103161997597 0.6093837135931508 0 0.088176999192898689 0.56877264426067353 0 0.12986698634359389 0.58267137064684615 0 0.88561059063756964 0.46572761956237563 0 0.87012666750595846 0.41743873185103042 0 0.90991454156957952 0.4312731559748802 0 0.39061628640684498 0.081525103161991672 0 0.43122735573933979 0.088176999192917438 0 0.41732862935313042 0.12986698634362279 0 0.56759263990989184 0.81794319034601648 0 0.6027107599280892 0.83436006790502326 0 0.58267137064684116 0.87013301365640838 0 0.18205680965398621 0.56759263990989739 0 0.1656399320949789 0.60271075992809464 0 0.12986698634359389 0.58267137064684615 0 0.81794319034597418 0.43240736009009317 0 0.83436006790498052 0.39728924007189959 0 0.87012666750595846 0.41743873185103042 0 0.43240736009008851 0.18205680965402779 0 0.3972892400718947 0.16563993209502181 0 0.41732862935313042 0.12986698634362279 0 0.77998481823117694 0.71397317153691997 0 0.78651189793386345 0.75664155808652755 0 0.74917861927654894 0.74229989257760443 0 0.28602682846308641 0.77998481823117594 0 0.24335844191347281 0.78651189793387466 0 0.25770010742238642 0.74917861927655205 0 0.71397317153692708 0.22001518176882201 0 0.7582555232258138 0.2115548431873896 0 0.74229989257762263 0.250821380723454 0 0.22001518176882229 0.28602682846307981 0 0.2115548431873881 0.2417444767741872 0 0.25082138072344978 0.25770010742236849 0 0.8215422551712277 0.56912882742954496 0 0.78031198216143516 0.56693216359979737 0 0.80781854240107975 0.53406203754901738 0 0.43087117257049001 0.8215422551712771 0 0.43306783640023289 0.78031198216144404 0 0.46593838964869061 0.80781872835503554 0 0.56912882742954041 0.17845774482877461 0 0.56683314878414581 0.21944955250104689 0 0.53404982287327418 0.19215288291432539 0 0.17845774482872559 0.43087117257049429 0 0.21968801783855879 0.43306783640023788 0 0.19218127164496679 0.46593838964869538 0 0.92670321183853355 0.65773042910151081 0 0.96779701826738695 0.67105375815842694 0 0.94635952848698612 0.71209247961721311 0 0.65773042910151891 0.073296788161472337 0 0.67098510785536181 0.032220921767549461 0 0.71174922810186925 0.053730171687687178 0 0.3422695708985129 0.92670321183858773 0 0.32894624184180998 0.96779701826738929 0 0.28790752038294382 0.94635952848702642 0 0.073296788161418117 0.34226957089850552 0 0.032220921767546963 0.32901489214487523 0 0.053730171687646627 0.28825077189828552 0 0.51484304721220842 0.69707233951836334 0 0.46736891737654429 0.70015537930374983 0 0.47818752133962877 0.66454462905280853 0 0.30292766048163949 0.51484304721221474 0 0.29988655052531688 0.46700727827593119 0 0.33436424489304489 0.47849603121740791 0 0.53432142347292233 0.88563193847251998 0 0.52425337578225772 0.9223731761594427 0 0.48758069708049379 0.89080072540186539 0 0.1143680615274819 0.53432142347292733 0 0.07762682384055844 0.52425337578226128 0 0.1091992745981364 0.48758069708049778 0 0.88561059063756964 0.46572761956237563 0 0.92203742772043751 0.47579485578641628 0 0.89079805168298443 0.51242544533572376 0 0.46567857652706018 0.1143680615275231 0 0.47574662421782782 0.077626823840590969 0 0.51241930291950477 0.1091992745981813 0 0.49189101320880302 0.59024331187324797 0 0.47974773860103892 0.54872726831320284 0 0.53087311892591971 0.55299263141448529 0 0.81709574086843206 0.91318696080656769 0 0.78020430794084783 0.88768307197553598 0 0.81306033001437827 0.8677384967307622 0 0.086813039193431391 0.81709574086842884 0 0.11231692802445629 0.78020430794084028 0 0.1322615032692282 0.8130603300143705 0 0.90045039720880915 0.9020090423547924 0 0.85382799508926477 0.91295829388058414 0 0.85174853583809862 0.87705234031428159 0 0.097990957645208238 0.90045039720880915 0 0.087041706119416085 0.85382799508926188 0 0.1229476596857173 0.85174853583809695 0 0.82118136511706341 0.082875076569723011 0 0.86148619541339633 0.089689702191568438 0 0.8517485358380722 0.12294765968568611 0 0.08287507656968085 0.1788186348829835 0 0.089689702191541126 0.13851380458662241 0 0.12294765968567151 0.14825146416195439 0 0.56759263990989184 0.81794319034601648 0 0.61896574319320252 0.795216048370321 0 0.6027107599280892 0.83436006790502326 0 0.18205680965398621 0.56759263990989739 0 0.2047839516296828 0.61896574319320252 0 0.1656399320949789 0.60271075992809464 0 0.81794319034597418 0.43240736009009317 0 0.79521604837030013 0.38103425680679831 0 0.83436006790498052 0.39728924007189959 0 0.43240736009008851 0.18205680965402779 0 0.38103425680679859 0.2047839516297037 0 0.3972892400718947 0.16563993209502181 0 0.91838802593870927 0.18172590289757809 0 0.87355793346388477 0.18922011052113649 0 0.88777909259956078 0.1484760565886154 0 0.18172590289758209 0.08161197406129285 0 0.18922011052115781 0.12644206653611201 0 0.1484760565886207 0.1122209074004519 0 0.50333998054938722 0.50119715791968966 0 0.46152714345798918 0.47344359412352599 0 0.50753758205811061 0.4506562873613274 0 0.46102425708533701 0.43254199134332588 0 0.50753758205811061 0.4506562873613274 0 0.46152714345798918 0.47344359412352599 0 0.70252050881959183 0.70358884261915833 0 0.67626275269587088 0.72713741921009012 0 0.6768914574865772 0.67861120078714243 0 0.29641115738084339 0.70252050881958938 0 0.27349656744860212 0.67581741996408695 0 0.32259853082073792 0.67670072609835186 0 0.70358884261915744 0.29747949118041561 0 0.72713741921008324 0.32373724730413678 0 0.6786112007871401 0.32310854251343019 0 0.29747949118041711 0.2964111573808435 0 0.32373692627050221 0.27286413781593999 0 0.3231032570156932 0.32141443408924047 0 0.43301393728221038 0.35984320557492139 0 0.39222057657781068 0.38067796690227418 0 0.39120887188745579 0.33407577688404289 0 0.48669777060454272 0.93510666819646593 0 0.48758069708049379 0.89080072540186539 0 0.52425337578225772 0.9223731761594427 0 0.064893331803534807 0.48669777060454478 0 0.1091992745981364 0.48758069708049778 0 0.07762682384055844 0.52425337578226128 0 0.93510666819640953 0.51330222939551939 0 0.89079805168298443 0.51242544533572376 0 0.92203742772043751 0.47579485578641628 0 0.5133022293955174 0.064893331803591428 0 0.51241930291950477 0.1091992745981813 0 0.47574662421782782 0.077626823840590969 0 0.4434591735942961 0.66641640622551224 0 0.42715538333808079 0.70077759375307946 0 0.40564717507982689 0.65626423320524974 0 0.38642358467307758 0.69286258923597266 0 0.40564717507982689 0.65626423320524974 0 0.42715538333808079 0.70077759375307946 0 0.57387636360620708 0.54318431390135336 0 0.554170140907293 0.50922353359177785 0 0.59621567360238914 0.5184866806641607 0 0.84999999999965292 1 0 0.79999999999999982 1 0 0.82675923981951416 0.95611053755456221 0 0 0.84999999999965292 0 0 0.79999999999999982 0 0.043889462445437968 0.82675923981951283 0 1 0.14999999999970359 0 1 0.19999999999955789 0 0.96080966346491015 0.18035159017841959 0 0.14999999999970359 0 0 0.19999999999955789 0 0 0.18035159017842109 0.039190336535090492 0 1 0.79999999999947335 0 1 0.84999999999960507 0 0.96071093996985157 0.81954008780615684 0 0.79999999999947335 0 0 0.84999999999960507 0 0 0.82050174006822896 0.038839999600956771 0 0.20000000000083221 1 0 0.15000000000062411 1 0 0.18045991219397989 0.960710939969875 0 0 0.20000000000083221 0 0 0.15000000000062411 0 0.038839999600931263 0.17949825993190149 0 0.64518564541690571 0.69601563325001548 0 0.6768914574865772 0.67861120078714243 0 0.67626275269587088 0.72713741921009012 0 0.30421635384321521 0.64514939193436716 0 0.32259853082073792 0.67670072609835186 0 0.27349656744860212 0.67581741996408695 0 0.69601563325001248 0.35481435458309712 0 0.6786112007871401 0.32310854251343019 0 0.72713741921008324 0.32373724730413678 0 0.35481435458309307 0.30398436674998969 0 0.3231032570156932 0.32141443408924047 0 0.32373692627050221 0.27286413781593999 0 0.49771727055908782 0.83998685797641781 0 0.48758069708049379 0.89080072540186539 0 0.45353891581270822 0.85551523377818905 0 0.16001314202358469 0.49771727055909287 0 0.1091992745981364 0.48758069708049778 0 0.1444847662218138 0.45353891581271188 0 0.83998574657308889 0.50228528270184081 0 0.89079805168298443 0.51242544533572376 0 0.85551478316835361 0.54646211938695222 0 0.50228272944093777 0.16001314202359701 0 0.51241930291950477 0.1091992745981813 0 0.54646108418729233 0.1444847662218687 0 0.70252050881959183 0.70358884261915833 0 0.6768914574865772 0.67861120078714243 0 0.71518943060973483 0.65679402931717101 0 0.29641115738084339 0.70252050881958938 0 0.32259853082073792 0.67670072609835186 0 0.34270280102445921 0.71672416762035873 0 0.70358884261915744 0.29747949118041561 0 0.6786112007871401 0.32310854251343019 0 0.65679402931716913 0.28481056939027388 0 0.29747949118041711 0.2964111573808435 0 0.3231032570156932 0.32141443408924047 0 0.28473805236128291 0.34355768118673757 0 0.92670321183853355 0.65773042910151081 0 0.96654491682122368 0.6363613838740827 0 0.96779701826738695 0.67105375815842694 0 0.65773042910151891 0.073296788161472337 0 0.63635157668793507 0.033457646040912177 0 0.67098510785536181 0.032220921767549461 0 0.073296788161418117 0.34226957089850552 0 0.033457646040922301 0.36364842331228431 0 0.032220921767546963 0.32901489214487523 0 0.3422695708985129 0.92670321183858773 0 0.36363861612613613 0.96654491682121313 0 0.32894624184180998 0.96779701826738929 0 1 0.64999999999907843 0 1 0.69999999999921003 0 0.96779701826738695 0.67105375815842694 0 0.64999999999907843 0 0 0.69999999999921003 0 0 0.67098510785536181 0.032220921767549461 0 0.35000000000145642 1 0 0.30000000000124832 1 0 0.32894624184180998 0.96779701826738929 0 0 0.35000000000145642 0 0 0.30000000000124832 0 0.032220921767546963 0.32901489214487523 0 0 0.40000000000166441 0 0 0.35000000000145642 0 0.033457646040922301 0.36364842331228431 0 0.40000000000166441 1 0 0.35000000000145642 1 0 0.36363861612613613 0.96654491682121313 0 0.59999999999894682 0 0 0.64999999999907843 0 0 0.63635157668793507 0.033457646040912177 0 1 0.59999999999894682 0 1 0.64999999999907843 0 0.96654491682122368 0.6363613838740827 0 0.81709574086843206 0.91318696080656769 0 0.85174853583809862 0.87705234031428159 0 0.85382799508926477 0.91295829388058414 0 0.086813039193431391 0.81709574086842884 0 0.1229476596857173 0.85174853583809695 0 0.087041706119416085 0.85382799508926188 0 0.90082758526900886 0.098076845682916511 0 0.8517485358380722 0.12294765968568611 0 0.86148619541339633 0.089689702191568438 0 0.098076845682915317 0.099172414730993488 0 0.12294765968567151 0.14825146416195439 0 0.089689702191541126 0.13851380458662241 0 0.59819537371016407 0.74380966024143391 0 0.6083790122881827 0.70496300707145865 0 0.64203711532612107 0.74316477213290444 0 0.64518564541690571 0.69601563325001548 0 0.64203711532612107 0.74316477213290444 0 0.6083790122881827 0.70496300707145865 0 0.25619033975856881 0.59819537371016862 0 0.29503699292854352 0.60837901228818936 0 0.25684529255773247 0.64203554247963057 0 0.30421635384321521 0.64514939193436716 0 0.25684529255773247 0.64203554247963057 0 0.29503699292854352 0.60837901228818936 0 0.74380966024142703 0.40180462628984132 0 0.70496300707145554 0.39162098771181952 0 0.74316477213289889 0.35796288467388632 0 0.69601563325001248 0.35481435458309712 0 0.74316477213289889 0.35796288467388632 0 0.70496300707145554 0.39162098771181952 0 0.40180462628983732 0.2561903397585753 0 0.39162098771181342 0.29503699292854563 0 0.3579628846738841 0.25683522786710378 0 0.35481435458309307 0.30398436674998969 0 0.3579628846738841 0.25683522786710378 0 0.39162098771181342 0.29503699292854563 0 0.8289812646369813 0.82898126463698818 0 0.85174853583809862 0.87705234031428159 0 0.81306033001437827 0.8677384967307622 0 0.17101873536300011 0.82898126463696109 0 0.1229476596857173 0.85174853583809695 0 0.1322615032692282 0.8130603300143705 0 0.8215422551712277 0.56912882742954496 0 0.85551478316835361 0.54646211938695222 0 0.85130417396420255 0.59518556406638579 0 0.43087117257049001 0.8215422551712771 0 0.45353891581270822 0.85551523377818905 0 0.40481452396081791 0.85130421228141606 0 0.56912882742954041 0.17845774482877461 0 0.54646108418729233 0.1444847662218687 0 0.59518547603920147 0.14869578771864489 0 0.17845774482872559 0.43087117257049429 0 0.1444847662218138 0.45353891581271188 0 0.14869578771858949 0.40481452396082068 0 0.49854341599767982 0.37075914768127122 0 0.46543211128216788 0.38788423543681888 0 0.47253211736503098 0.34081710830804929 0 0.43301393728221038 0.35984320557492139 0 0.47253211736503098 0.34081710830804929 0 0.46543211128216788 0.38788423543681888 0 0.36030748482174152 0.84598529912882459 0 0.40481452396081791 0.85130421228141606 0 0.37839190921727062 0.89064679688614412 0 0.84598529912884157 0.63969251517827153 0 0.85130417396420255 0.59518556406638579 0 0.89064679688610338 0.6216080907827598 0 0.15401470087117619 0.36030748482174652 0 0.14869578771858949 0.40481452396082068 0 0.10935320311385981 0.37839190921727089 0 0.63969251517826664 0.15401470087115929 0 0.59518547603920147 0.14869578771864489 0 0.62160809078275991 0.1093532031139005 0 0.64455163611866495 0.50369301794551069 0 0.61866949026800744 0.55492322767366287 0 0.59621567360238914 0.5184866806641607 0 0.64518564541690571 0.69601563325001548 0 0.6083790122881827 0.70496300707145865 0 0.60879112811253555 0.66592422311595834 0 0.30421635384321521 0.64514939193436716 0 0.29503699292854352 0.60837901228818936 0 0.33231497408081678 0.60779218732873663 0 0.69601563325001248 0.35481435458309712 0 0.70496300707145554 0.39162098771181952 0 0.66346942254826746 0.391530810754116 0 0.35481435458309307 0.30398436674998969 0 0.39162098771181342 0.29503699292854563 0 0.39120887188745579 0.33407577688404289 0 0.39507969989512881 0.74417394063201048 0 0.38703015239361932 0.80283068154761972 0 0.35837423432538362 0.77730446904312345 0 0.74417394063200648 0.6049203001048884 0 0.8028306815476034 0.61296984760642026 0 0.77730446904309636 0.64162576567462737 0 0.25582605936799319 0.39507969989513358 0 0.197169318452384 0.38703015239362498 0 0.22269553095687891 0.35837423432538801 0 0.60492030010488373 0.25582605936799729 0 0.61296984760641449 0.19716931845240021 0 0.64162576567462404 0.22269553095690481 0 0.46102425708533701 0.43254199134332588 0 0.46152714345798918 0.47344359412352599 0 0.42340342337193693 0.44762131874855388 0 0.5586987495249669 0.33382663527330653 0 0.52929435216580312 0.29671213472503383 0 0.57188338999077359 0.29874123486230147 0 0.58981073711177334 0.48140931020849848 0 0.554170140907293 0.50922353359177785 0 0.54783891860069212 0.46640164214823893 0 0.35944937237716967 0.65164789808436319 0 0.33231497408081678 0.60779218732873663 0 0.37104651296145419 0.60545170748311072 0 0.58981073711177334 0.48140931020849848 0 0.59621567360238914 0.5184866806641607 0 0.554170140907293 0.50922353359177785 0 0.55000000000173355 1 0 0.50000000000205869 1 0 0.51507566941747085 0.9626786017237855 0 0 0.55000000000173355 0 0 0.50000000000205869 0 0.037321398276215258 0.51507566941747263 0 1 0.44999999999882923 0 1 0.49999999999869432 0 0.96266688603193029 0.48495124540067203 0 0.44999999999882923 0 0 0.49999999999869432 0 0 0.48492433058289169 0.037321398276272413 0 0.78031198216143516 0.56693216359979737 0 0.76797069865873757 0.53315993670164308 0 0.80781854240107975 0.53406203754901738 0 0.43306783640023289 0.78031198216144404 0 0.46634612187967051 0.76767585524061377 0 0.46593838964869061 0.80781872835503554 0 0.56683314878414581 0.21944955250104689 0 0.53265327255359129 0.23135454206919101 0 0.53404982287327418 0.19215288291432539 0 0.21968801783855879 0.43306783640023788 0 0.23232476702437141 0.46634525369567709 0 0.19218127164496679 0.46593838964869538 0 0.5586987495249669 0.33382663527330653 0 0.51491507395299929 0.3326740076510219 0 0.52929435216580312 0.29671213472503383 0 0.43565339604028508 0.55159384357101338 0 0.47974773860103892 0.54872726831320284 0 0.45030222762303879 0.58443295115431027 0 0.50333998054938722 0.50119715791968966 0 0.45293656999117771 0.51494832297079129 0 0.46152714345798918 0.47344359412352599 0 0 0 0 0.032369857048753323 0.032369857048862027 0 0 0.050000000000207989 0 1 0 0 0.96763014295114425 0.032369857048773903 0 0.94999999999986839 0 0 1 0 0 1 0.049999999999899652 0 0.96763014295114425 0.032369857048773903 0 0 0 0 0.049999999999899652 0 0 0.032369857048753323 0.032369857048862027 0 1 1 0 0.94999999999979179 1 0 0.96763014295120153 0.96763014295122851 0 1 1 0 0.96763014295120153 0.96763014295122851 0 1 0.94999999999986839 0 0 1 0 0.030452409610489669 0.96954759038951022 0 0.050000000000207989 1 0 0 1 0 0 0.94999999999979179 0 0.030452409610489669 0.96954759038951022 0 0.35984320557492089 0.56698606271778873 0 0.39982789553993509 0.53462762214740622 0 0.40468198875170619 0.57637931869191572 0 0.41009598069569558 0.49083935749285379 0 0.37702386074717259 0.45819417564476811 0 0.42340342337193693 0.44762131874855388 0 0.39419886675318527 0.41912225240070788 0 0.42340342337193693 0.44762131874855388 0 0.37702386074717259 0.45819417564476811 0 0.60938371359314658 0.91847489683800321 0 0.63753756910470316 0.95578163339252209 0 0.5931441817276254 0.95886012268751675 0 0.081525103161997597 0.6093837135931508 0 0.04421836660747535 0.63753756910470205 0 0.041139877312483641 0.59314418172763017 0 0.91890123454466932 0.39094742729597309 0 0.95581270756939096 0.36248656652865863 0 0.95886012268748921 0.4068558182724159 0 0.39061628640684498 0.081525103161991672 0 0.36246243089534252 0.044218366607477223 0 0.40685581827241191 0.041139877312511682 0 0.66820316019503978 0.77769800602796979 0 0.67626275269587088 0.72713741921009012 0 0.71159714897733284 0.75039044679290845 0 0.22230199397202771 0.66820316019503168 0 0.27349656744860212 0.67581741996408695 0 0.249609553207091 0.71159714897732929 0 0.77769800602796679 0.33179683980497482 0 0.72713741921008324 0.32373724730413678 0 0.75039044679291111 0.28840285102267788 0 0.33179683980498331 0.2223019939720311 0 0.32373692627050221 0.27286413781593999 0 0.28840285102268098 0.24960955320708811 0 0.54901591374940373 0.42306523525165751 0 0.54783891860069212 0.46640164214823893 0 0.50753758205811061 0.4506562873613274 0 0.34804757266227387 0.35750068079406011 0 0.39120887188745579 0.33407577688404289 0 0.39222057657781068 0.38067796690227418 0 0.7000000000006934 1 0 0.6766004019857832 0.9676421564932749 0 0.71789175274016548 0.95136708251202151 0 0 0.7000000000006934 0 0.032357843506722522 0.67660040198578164 0 0.04863291748797445 0.71789175274016204 0 0.67757268808231397 0.93106206656183088 0 0.71789175274016548 0.95136708251202151 0 0.6766004019857832 0.9676421564932749 0 0.068937933438162791 0.67757268808231053 0 0.04863291748797445 0.71789175274016204 0 0.032357843506722522 0.67660040198578164 0 1 0.29999999999926641 0 0.96720628700974665 0.32362438565954771 0 0.94915666091748963 0.28320804985299752 0 0.29999999999926641 0 0 0.32361955853288599 0.032799927825624707 0 0.28320804985300141 0.050843339082505573 0 0.93106206656185309 0.32242731191769503 0 0.94915666091748963 0.28320804985299752 0 0.96720628700974665 0.32362438565954771 0 0.32242731191769902 0.068937933438140794 0 0.28320804985300141 0.050843339082505573 0 0.32361955853288599 0.032799927825624707 0 0.91838802593884228 0.81827409710237209 0 0.87660297360393757 0.8104127896505644 0 0.9041449437197947 0.7786886066890556 0 0.1817259028976386 0.91838802593888857 0 0.18958721034944021 0.87660297360394568 0 0.22131139331094829 0.9041449437198319 0 0.76395804595204597 0.67808171673060369 0 0.77730446904309636 0.64162576567462737 0 0.80847852346122429 0.67208120229789559 0 0.32191828326940508 0.76395804595204586 0 0.35837423432538362 0.77730446904312345 0 0.32791879770213411 0.80847852346120164 0 0.67808171673060202 0.23604195404795861 0 0.64162576567462404 0.22269553095690481 0 0.67208120229787616 0.1915214765387884 0 0.2360419540479583 0.32191828326940741 0 0.22269553095687891 0.35837423432538801 0 0.19152147653881049 0.32791879770215432 0 0.82118136511706341 0.082875076569723011 0 0.8110316677333288 0.125875177082863 0 0.77925951159456153 0.09969477121230251 0 0.08287507656968085 0.1788186348829835 0 0.12587517708284679 0.1889683322666954 0 0.099694771212264055 0.22074048840547039 0 0.43301393728221038 0.35984320557492139 0 0.46543211128216788 0.38788423543681888 0 0.42930823106401639 0.40626685012722968 0 0.43590673999053309 0.90289902042279657 0 0.45353891581270822 0.85551523377818905 0 0.48758069708049379 0.89080072540186539 0 0.097100979577207341 0.43590673999053198 0 0.1444847662218138 0.45353891581271188 0 0.1091992745981364 0.48758069708049778 0 0.90289902042272274 0.56409326000946114 0 0.85551478316835361 0.54646211938695222 0 0.89079805168298443 0.51242544533572376 0 0.56409326000946236 0.097100979577281268 0 0.54646108418729233 0.1444847662218687 0 0.51241930291950477 0.1091992745981813 0 0.51484304721220842 0.69707233951836334 0 0.49073113440598592 0.73759004618730417 0 0.46736891737654429 0.70015537930374983 0 0.44764943295894188 0.73752415265401661 0 0.46736891737654429 0.70015537930374983 0 0.49073113440598592 0.73759004618730417 0 0.30292766048163949 0.51484304721221474 0 0.262418491288269 0.49071922292154141 0 0.29988655052531688 0.46700727827593119 0 0.26247584734598628 0.44764943295894732 0 0.29988655052531688 0.46700727827593119 0 0.262418491288269 0.49071922292154141 0 0.70015119067225129 0.48481914991727459 0 0.73815142352639962 0.50697050072007344 0 0.69798396601998558 0.5289734597937793 0 0.73752415265401194 0.55235056704108476 0 0.69798396601998558 0.5289734597937793 0 0.73815142352639962 0.50697050072007344 0 0.67757268808231397 0.93106206656183088 0 0.6441774148058701 0.91458123574274031 0 0.66923299355723143 0.8804077449518628 0 0.068937933438162791 0.67757268808231053 0 0.085418764257258195 0.64417741480586865 0 0.1195922550481313 0.66923299355722787 0 0.93106206656185309 0.32242731191769503 0 0.91286712511202617 0.35637271447129198 0 0.88040774495187946 0.33076700644278889 0 0.32242731191769902 0.068937933438140794 0 0.35582258519414178 0.085418764257258431 0 0.33076700644279272 0.1195922550481146 0 0.63969251517836323 0.84598529912890386 0 0.66923299355723143 0.8804077449518628 0 0.62483828039315681 0.8780818733396436 0 0.1540147008710982 0.63969251517836956 0 0.1195922550481313 0.66923299355722787 0 0.1219181266603569 0.62483828039315903 0 0.84598529912889664 0.36030748482164038 0 0.88040774495187946 0.33076700644278889 0 0.87815187193233801 0.37523526017134418 0 0.3603074848216346 0.15401470087110539 0 0.33076700644279272 0.1195922550481146 0 0.37516171960683908 0.121918126660369 0 0.46102425708533701 0.43254199134332588 0 0.5047849391802508 0.40719950955717021 0 0.50753758205811061 0.4506562873613274 0 0.85607519768343354 0.69380468830529196 0 0.88396545633132484 0.6625197322180193 0 0.90051880305432697 0.69261863673346957 0 0.30619531169472608 0.85607519768342955 0 0.33748026778199908 0.88396545633134682 0 0.30738136326657722 0.90051880305435028 0 0.69379929796456197 0.14392209494791061 0 0.66251865414987876 0.1160340021949529 0 0.69253601466723103 0.09949211948105087 0 0.14392209494791439 0.30620070203545702 0 0.11603400219493119 0.33748134585014028 0 0.099492119481027347 0.30746398533281638 0 0.78284912262770068 0.83746308049763585 0 0.81306033001437827 0.8677384967307622 0 0.78020430794084783 0.88768307197553598 0 0.16253691950235041 0.78284912262768558 0 0.1322615032692282 0.8130603300143705 0 0.11231692802445629 0.78020430794084028 0 0.66820316019503978 0.77769800602796979 0 0.64203711532612107 0.74316477213290444 0 0.67626275269587088 0.72713741921009012 0 0.22230199397202771 0.66820316019503168 0 0.25684529255773247 0.64203554247963057 0 0.27349656744860212 0.67581741996408695 0 0.77769800602796679 0.33179683980497482 0 0.74316477213289889 0.35796288467388632 0 0.72713741921008324 0.32373724730413678 0 0.33179683980498331 0.2223019939720311 0 0.3579628846738841 0.25683522786710378 0 0.32373692627050221 0.27286413781593999 0 0.4434591735942961 0.66641640622551224 0 0.45517457031814612 0.62743100079604397 0 0.47818752133962877 0.66454462905280853 0 0.7000000000006934 1 0 0.65000000000104008 1 0 0.6766004019857832 0.9676421564932749 0 0 0.7000000000006934 0 0 0.65000000000104008 0 0.032357843506722522 0.67660040198578164 0 1 0.29999999999926641 0 1 0.34999999999912063 0 0.96720628700974665 0.32362438565954771 0 0.29999999999926641 0 0 0.34999999999912063 0 0 0.32361955853288599 0.032799927825624707 0 0.49854341599767982 0.37075914768127122 0 0.47253211736503098 0.34081710830804929 0 0.51491507395299929 0.3326740076510219 0 0.50000000000205869 1 0 0.45000000000187229 1 0 0.47500000000196563 0.970555092835793 0 0 0.50000000000205869 0 0 0.45000000000187229 0 0.029444907164209121 0.47500000000196552 0 1 0.49999999999869432 0 1 0.5499999999988151 0 0.97055509283553232 0.52499999999875435 0 0.49999999999869432 0 0 0.5499999999988151 0 0 0.52499999999875446 0.029444907164469181 0 0.91838802593870927 0.18172590289757809 0 0.89556054516486661 0.21720615046483649 0 0.87355793346388477 0.18922011052113649 0 0.18172590289758209 0.08161197406129285 0 0.21720615046484709 0.1044394548351292 0 0.18922011052115781 0.12644206653611201 0 0.48378871228000903 0.29745177826977359 0 0.51491507395299929 0.3326740076510219 0 0.47253211736503098 0.34081710830804929 0 0.58981073711177334 0.48140931020849848 0 0.59313386551587477 0.43977047843653239 0 0.62619054498681193 0.46482944251856079 0 0.640156794425081 0.43301393728221721 0 0.62619054498681193 0.46482944251856079 0 0.59313386551587477 0.43977047843653239 0 0 0.45000000000187229 0 0.043612803661092707 0.44006111182840391 0 0.029444907164209121 0.47500000000196552 0 0.45000000000187229 1 0 0.44006111182840962 0.9563871963389079 0 0.47500000000196563 0.970555092835793 0 0.5499999999988151 0 0 0.55993888817186677 0.043612803661174412 0 0.52499999999875446 0.029444907164469181 0 1 0.5499999999988151 0 0.95638719633882641 0.5599388881718611 0 0.97055509283553232 0.52499999999875435 0 0.57051182622447827 0.69668652018496713 0 0.60879112811253555 0.66592422311595834 0 0.6083790122881827 0.70496300707145865 0 0.30429740679959738 0.56913905146460098 0 0.33231497408081678 0.60779218732873663 0 0.29503699292854352 0.60837901228818936 0 0.69595787604187809 0.43071000156707989 0 0.66346942254826746 0.391530810754116 0 0.70496300707145554 0.39162098771181952 0 0.43059486795334201 0.30395973419063538 0 0.39120887188745579 0.33407577688404289 0 0.39162098771181342 0.29503699292854563 0 0.35984320557492089 0.56698606271778873 0 0.37104651296145419 0.60545170748311072 0 0.33231497408081678 0.60779218732873663 0 0.43565339604028508 0.55159384357101338 0 0.40468198875170619 0.57637931869191572 0 0.39982789553993509 0.53462762214740622 0 0.66820316019503978 0.77769800602796979 0 0.71159714897733284 0.75039044679290845 0 0.69892030930712212 0.7971997999085858 0 0.22230199397202771 0.66820316019503168 0 0.249609553207091 0.71159714897732929 0 0.2028002000914135 0.69892030930711557 0 0.77769800602796679 0.33179683980497482 0 0.75039044679291111 0.28840285102267788 0 0.7971997999085878 0.3010796906928917 0 0.33179683980498331 0.2223019939720311 0 0.28840285102268098 0.24960955320708811 0 0.30107969069289831 0.20280020009141189 0 0.34804757266227387 0.35750068079406011 0 0.39222057657781068 0.38067796690227418 0 0.35481422397128459 0.40312981465069342 0 0.67757268808231397 0.93106206656183088 0 0.66923299355723143 0.8804077449518628 0 0.70475631558365914 0.90098127745102974 0 0.068937933438162791 0.67757268808231053 0 0.1195922550481313 0.66923299355722787 0 0.099018722548963364 0.70475631558365193 0 0.93106206656185309 0.32242731191769503 0 0.88040774495187946 0.33076700644278889 0 0.89886191075654698 0.29506339503703172 0 0.32242731191769902 0.068937933438140794 0 0.33076700644279272 0.1195922550481146 0 0.29506339503703888 0.1011380892434444 0 0.53432142347292233 0.88563193847251998 0 0.56877264426066887 0.91182300080710277 0 0.52425337578225772 0.9223731761594427 0 0.1143680615274819 0.53432142347292733 0 0.088176999192898689 0.56877264426067353 0 0.07762682384055844 0.52425337578226128 0 0.46567857652706018 0.1143680615275231 0 0.43122735573933979 0.088176999192917438 0 0.47574662421782782 0.077626823840590969 0 0.39419886675318527 0.41912225240070788 0 0.35481422397128459 0.40312981465069342 0 0.39222057657781068 0.38067796690227418 0 1 0.49999999999869432 0 0.97055509283553232 0.52499999999875435 0 0.96266688603193029 0.48495124540067203 0 0.49999999999869432 0 0 0.52499999999875446 0.029444907164469181 0 0.48492433058289169 0.037321398276272413 0 0.93510666819640953 0.51330222939551939 0 0.96266688603193029 0.48495124540067203 0 0.97055509283553232 0.52499999999875435 0 0.5133022293955174 0.064893331803591428 0 0.48492433058289169 0.037321398276272413 0 0.52499999999875446 0.029444907164469181 0 0 0.50000000000205869 0 0.029444907164209121 0.47500000000196552 0 0.037321398276215258 0.51507566941747263 0 0.50000000000205869 1 0 0.47500000000196563 0.970555092835793 0 0.51507566941747085 0.9626786017237855 0 0.48669777060454272 0.93510666819646593 0 0.51507566941747085 0.9626786017237855 0 0.47500000000196563 0.970555092835793 0 0.064893331803534807 0.48669777060454478 0 0.037321398276215258 0.51507566941747263 0 0.029444907164209121 0.47500000000196552 0 0.55307204985744796 0.94819812235491685 0 0.52425337578225772 0.9223731761594427 0 0.56877264426066887 0.91182300080710277 0 0.051801877645083663 0.55307204985745195 0 0.07762682384055844 0.52425337578226128 0 0.088176999192898689 0.56877264426067353 0 0.44692795014265252 0.051801877645060238 0 0.47574662421782782 0.077626823840590969 0 0.43122735573933979 0.088176999192917438 0 0.70085728320704077 0.84350379029875056 0 0.66919832404887702 0.81820888699730587 0 0.69892030930712212 0.7971997999085858 0 0.1564962097012354 0.70085728320703999 0 0.1817911130026923 0.66919832404888702 0 0.2028002000914135 0.69892030930711557 0 0.84350379029877964 0.29914271679296989 0 0.8182088869973061 0.33080167595111531 0 0.7971997999085878 0.3010796906928917 0 0.29914271679297122 0.15649620970120659 0 0.33080167595110582 0.18179111300269291 0 0.30107969069289831 0.20280020009141189 0 0.33382663527330159 0.44130125047503482 0 0.37702386074717259 0.45819417564476811 0 0.33436424489304489 0.47849603121740791 0 0.44764943295894188 0.73752415265401661 0 0.46634612187967051 0.76767585524061377 0 0.43306783640023289 0.78031198216144404 0 0.73752415265401194 0.55235056704108476 0 0.76797069865873757 0.53315993670164308 0 0.78031198216143516 0.56693216359979737 0 0.26247584734598628 0.44764943295894732 0 0.23232476702437141 0.46634525369567709 0 0.21968801783855879 0.43306783640023788 0 0.55175647814720108 0.26104505532086641 0 0.53265327255359129 0.23135454206919101 0 0.56683314878414581 0.21944955250104689 0 0.65000000000104008 1 0 0.63753756910470316 0.95578163339252209 0 0.6766004019857832 0.9676421564932749 0 0 0.65000000000104008 0 0.04421836660747535 0.63753756910470205 0 0.032357843506722522 0.67660040198578164 0 1 0.34999999999912063 0 0.95581270756939096 0.36248656652865863 0 0.96720628700974665 0.32362438565954771 0 0.34999999999912063 0 0 0.36246243089534252 0.044218366607477223 0 0.32361955853288599 0.032799927825624707 0 0.67757268808231397 0.93106206656183088 0 0.6766004019857832 0.9676421564932749 0 0.63753756910470316 0.95578163339252209 0 0.068937933438162791 0.67757268808231053 0 0.032357843506722522 0.67660040198578164 0 0.04421836660747535 0.63753756910470205 0 0.93106206656185309 0.32242731191769503 0 0.96720628700974665 0.32362438565954771 0 0.95581270756939096 0.36248656652865863 0 0.32242731191769902 0.068937933438140794 0 0.32361955853288599 0.032799927825624707 0 0.36246243089534252 0.044218366607477223 0 0.94812782820415209 0.44708943904932719 0 0.92203742772043751 0.47579485578641628 0 0.90991454156957952 0.4312731559748802 0 0.88561059063756964 0.46572761956237563 0 0.90991454156957952 0.4312731559748802 0 0.92203742772043751 0.47579485578641628 0 0.49189101320880302 0.59024331187324797 0 0.45517457031814612 0.62743100079604397 0 0.45030222762303879 0.58443295115431027 0 0.54465502325161819 0.74717983044080061 0 0.57578062281532438 0.77751665353176347 0 0.53770425635794761 0.80104587463999666 0 0.25287139441262568 0.54458355434492378 0 0.2224870800581388 0.57577541371134155 0 0.1989632851005598 0.53769147668950479 0 0.74730218607442667 0.45539100053644521 0 0.77752557158083724 0.42422273168818408 0 0.80106707846564795 0.46230714888029367 0 0.45533136021725079 0.2525687312087147 0 0.42421838472613971 0.22246502005787769 0 0.46229330881044273 0.19890916456654811 0 0.57387636360620708 0.54318431390135336 0 0.59621567360238914 0.5184866806641607 0 0.61866949026800744 0.55492322767366287 0 0.66923299355723143 0.8804077449518628 0 0.6441774148058701 0.91458123574274031 0 0.62483828039315681 0.8780818733396436 0 0.1195922550481313 0.66923299355722787 0 0.085418764257258195 0.64417741480586865 0 0.1219181266603569 0.62483828039315903 0 0.88040774495187946 0.33076700644278889 0 0.91286712511202617 0.35637271447129198 0 0.87815187193233801 0.37523526017134418 0 0.33076700644279272 0.1195922550481146 0 0.35582258519414178 0.085418764257258431 0 0.37516171960683908 0.121918126660369 0 0.49189101320880302 0.59024331187324797 0 0.45030222762303879 0.58443295115431027 0 0.47974773860103892 0.54872726831320284 0 0.92670321183853355 0.65773042910151081 0 0.90051880305432697 0.69261863673346957 0 0.88396545633132484 0.6625197322180193 0 0.65773042910151891 0.073296788161472337 0 0.69253601466723103 0.09949211948105087 0 0.66251865414987876 0.1160340021949529 0 0.3422695708985129 0.92670321183858773 0 0.30738136326657722 0.90051880305435028 0 0.33748026778199908 0.88396545633134682 0 0.073296788161418117 0.34226957089850552 0 0.099492119481027347 0.30746398533281638 0 0.11603400219493119 0.33748134585014028 0 0.60938371359314658 0.91847489683800321 0 0.6441774148058701 0.91458123574274031 0 0.63753756910470316 0.95578163339252209 0 0.081525103161997597 0.6093837135931508 0 0.085418764257258195 0.64417741480586865 0 0.04421836660747535 0.63753756910470205 0 0.91890123454466932 0.39094742729597309 0 0.91286712511202617 0.35637271447129198 0 0.95581270756939096 0.36248656652865863 0 0.39061628640684498 0.081525103161991672 0 0.35582258519414178 0.085418764257258431 0 0.36246243089534252 0.044218366607477223 0 0.67757268808231397 0.93106206656183088 0 0.63753756910470316 0.95578163339252209 0 0.6441774148058701 0.91458123574274031 0 0.068937933438162791 0.67757268808231053 0 0.04421836660747535 0.63753756910470205 0 0.085418764257258195 0.64417741480586865 0 0.93106206656185309 0.32242731191769503 0 0.95581270756939096 0.36248656652865863 0 0.91286712511202617 0.35637271447129198 0 0.32242731191769902 0.068937933438140794 0 0.36246243089534252 0.044218366607477223 0 0.35582258519414178 0.085418764257258431 0 0.56759263990989184 0.81794319034601648 0 0.53770425635794761 0.80104587463999666 0 0.57578062281532438 0.77751665353176347 0 0.18205680965398621 0.56759263990989739 0 0.1989632851005598 0.53769147668950479 0 0.2224870800581388 0.57577541371134155 0 0.81794319034597418 0.43240736009009317 0 0.80106707846564795 0.46230714888029367 0 0.77752557158083724 0.42422273168818408 0 0.43240736009008851 0.18205680965402779 0 0.46229330881044273 0.19890916456654811 0 0.42421838472613971 0.22246502005787769 0 0.4434591735942961 0.66641640622551224 0 0.46736891737654429 0.70015537930374983 0 0.42715538333808079 0.70077759375307946 0 0.44764943295894188 0.73752415265401661 0 0.42715538333808079 0.70077759375307946 0 0.46736891737654429 0.70015537930374983 0 0.66548584431530877 0.55616712808283064 0 0.69798396601998558 0.5289734597937793 0 0.70087539567735502 0.57165914616526226 0 0.33382663527330159 0.44130125047503482 0 0.29988655052531688 0.46700727827593119 0 0.2963043386970643 0.4298320229681446 0 0.73752415265401194 0.55235056704108476 0 0.70087539567735502 0.57165914616526226 0 0.69798396601998558 0.5289734597937793 0 0.26247584734598628 0.44764943295894732 0 0.2963043386970643 0.4298320229681446 0 0.29988655052531688 0.46700727827593119 0 0.46102425708533701 0.43254199134332588 0 0.46543211128216788 0.38788423543681888 0 0.5047849391802508 0.40719950955717021 0 0.49854341599767982 0.37075914768127122 0 0.5047849391802508 0.40719950955717021 0 0.46543211128216788 0.38788423543681888 0 0.55175647814720108 0.26104505532086641 0 0.57188338999077359 0.29874123486230147 0 0.52929435216580312 0.29671213472503383 0 0.48378871228000903 0.29745177826977359 0 0.52929435216580312 0.29671213472503383 0 0.51491507395299929 0.3326740076510219 0 0.46102425708533701 0.43254199134332588 0 0.42340342337193693 0.44762131874855388 0 0.42930823106401639 0.40626685012722968 0 0.39419886675318527 0.41912225240070788 0 0.42930823106401639 0.40626685012722968 0 0.42340342337193693 0.44762131874855388 0 0.94812782820415209 0.44708943904932719 0 0.96266688603193029 0.48495124540067203 0 0.92203742772043751 0.47579485578641628 0 0.44692795014265252 0.051801877645060238 0 0.48492433058289169 0.037321398276272413 0 0.47574662421782782 0.077626823840590969 0 0.93510666819640953 0.51330222939551939 0 0.92203742772043751 0.47579485578641628 0 0.96266688603193029 0.48495124540067203 0 0.5133022293955174 0.064893331803591428 0 0.47574662421782782 0.077626823840590969 0 0.48492433058289169 0.037321398276272413 0 0.55307204985744796 0.94819812235491685 0 0.51507566941747085 0.9626786017237855 0 0.52425337578225772 0.9223731761594427 0 0.051801877645083663 0.55307204985745195 0 0.037321398276215258 0.51507566941747263 0 0.07762682384055844 0.52425337578226128 0 0.48669777060454272 0.93510666819646593 0 0.52425337578225772 0.9223731761594427 0 0.51507566941747085 0.9626786017237855 0 0.064893331803534807 0.48669777060454478 0 0.07762682384055844 0.52425337578226128 0 0.037321398276215258 0.51507566941747263 0 0.70252050881959183 0.70358884261915833 0 0.71159714897733284 0.75039044679290845 0 0.67626275269587088 0.72713741921009012 0 0.29641115738084339 0.70252050881958938 0 0.249609553207091 0.71159714897732929 0 0.27349656744860212 0.67581741996408695 0 0.70358884261915744 0.29747949118041561 0 0.75039044679291111 0.28840285102267788 0 0.72713741921008324 0.32373724730413678 0 0.29747949118041711 0.2964111573808435 0 0.28840285102268098 0.24960955320708811 0 0.32373692627050221 0.27286413781593999 0 0.48378871228000903 0.29745177826977359 0 0.50732841191799194 0.2613117081243182 0 0.52929435216580312 0.29671213472503383 0 0.50000000000002642 0.7803135888501761 0 0.46634612187967051 0.76767585524061377 0 0.49073113440598592 0.73759004618730417 0 0.44764943295894188 0.73752415265401661 0 0.49073113440598592 0.73759004618730417 0 0.46634612187967051 0.76767585524061377 0 0.73752415265401194 0.55235056704108476 0 0.73815142352639962 0.50697050072007344 0 0.76797069865873757 0.53315993670164308 0 0.78031358885017377 0.49999999999997569 0 0.76797069865873757 0.53315993670164308 0 0.73815142352639962 0.50697050072007344 0 0.2196864111498267 0.50000000000003153 0 0.23232476702437141 0.46634525369567709 0 0.262418491288269 0.49071922292154141 0 0.26247584734598628 0.44764943295894732 0 0.262418491288269 0.49071922292154141 0 0.23232476702437141 0.46634525369567709 0 0.55175647814720108 0.26104505532086641 0 0.50732841191799194 0.2613117081243182 0 0.53265327255359129 0.23135454206919101 0 0.49999999999997108 0.21968641114982909 0 0.53265327255359129 0.23135454206919101 0 0.50732841191799194 0.2613117081243182 0 0.64455163611866495 0.50369301794551069 0 0.62619054498681193 0.46482944251856079 0 0.66329969176266512 0.46626046872004567 0 0.50000000000002642 0.7803135888501761 0 0.46593838964869061 0.80781872835503554 0 0.46634612187967051 0.76767585524061377 0 0.2196864111498267 0.50000000000003153 0 0.19218127164496679 0.46593838964869538 0 0.23232476702437141 0.46634525369567709 0 0.78031358885017377 0.49999999999997569 0 0.80781854240107975 0.53406203754901738 0 0.76797069865873757 0.53315993670164308 0 0.49999999999997108 0.21968641114982909 0 0.53404982287327418 0.19215288291432539 0 0.53265327255359129 0.23135454206919101 0 0.55175647814720108 0.26104505532086641 0 0.52929435216580312 0.29671213472503383 0 0.50732841191799194 0.2613117081243182 0 0.64518564541690571 0.69601563325001548 0 0.67626275269587088 0.72713741921009012 0 0.64203711532612107 0.74316477213290444 0 0.30421635384321521 0.64514939193436716 0 0.27349656744860212 0.67581741996408695 0 0.25684529255773247 0.64203554247963057 0 0.69601563325001248 0.35481435458309712 0 0.72713741921008324 0.32373724730413678 0 0.74316477213289889 0.35796288467388632 0 0.35481435458309307 0.30398436674998969 0 0.32373692627050221 0.27286413781593999 0 0.3579628846738841 0.25683522786710378 0 0.640156794425081 0.43301393728221721 0 0.66329969176266512 0.46626046872004567 0 0.62619054498681193 0.46482944251856079 0 1 0.64999999999907843 0 0.96779701826738695 0.67105375815842694 0 0.96654491682122368 0.6363613838740827 0 0.64999999999907843 0 0 0.67098510785536181 0.032220921767549461 0 0.63635157668793507 0.033457646040912177 0 0.35000000000145642 1 0 0.32894624184180998 0.96779701826738929 0 0.36363861612613613 0.96654491682121313 0 0 0.35000000000145642 0 0.032220921767546963 0.32901489214487523 0 0.033457646040922301 0.36364842331228431 0 0.66820316019503978 0.77769800602796979 0 0.69892030930712212 0.7971997999085858 0 0.66919832404887702 0.81820888699730587 0 0.22230199397202771 0.66820316019503168 0 0.2028002000914135 0.69892030930711557 0 0.1817911130026923 0.66919832404888702 0 0.77769800602796679 0.33179683980497482 0 0.7971997999085878 0.3010796906928917 0 0.8182088869973061 0.33080167595111531 0 0.33179683980498331 0.2223019939720311 0 0.30107969069289831 0.20280020009141189 0 0.33080167595110582 0.18179111300269291 0 0.4434591735942961 0.66641640622551224 0 0.47818752133962877 0.66454462905280853 0 0.46736891737654429 0.70015537930374983 0 0.33382663527330159 0.44130125047503482 0 0.33436424489304489 0.47849603121740791 0 0.29988655052531688 0.46700727827593119 0 0.46102425708533701 0.43254199134332588 0 0.42930823106401639 0.40626685012722968 0 0.46543211128216788 0.38788423543681888 0 0.35984320557492089 0.56698606271778873 0 0.40468198875170619 0.57637931869191572 0 0.37104651296145419 0.60545170748311072 0 0.60938371359314658 0.91847489683800321 0 0.62483828039315681 0.8780818733396436 0 0.6441774148058701 0.91458123574274031 0 0.081525103161997597 0.6093837135931508 0 0.1219181266603569 0.62483828039315903 0 0.085418764257258195 0.64417741480586865 0 0.91890123454466932 0.39094742729597309 0 0.87815187193233801 0.37523526017134418 0 0.91286712511202617 0.35637271447129198 0 0.39061628640684498 0.081525103161991672 0 0.37516171960683908 0.121918126660369 0 0.35582258519414178 0.085418764257258431 0 0.40653508887824003 0.61580573377480397 0 0.37104651296145419 0.60545170748311072 0 0.40468198875170619 0.57637931869191572 0 
</DataArray>
</Points>
<Cells>
<DataArray type="UInt32" Name="connectivity" format="ascii">
0 1 2 3 4 5 6 7 8 9 10 11 12 13 14 15 16 17 18 19 20 21 22 23 24 25 26 27 28 29 30 31 32 33 34 35 36 37 38 39 40 41 42 43 44 45 46 47 48 49 50 51 52 53 54 55 56 57 58 59 60 61 62 63 64 65 66 67 68 69 70 71 72 73 74 75 76 77 78 79 80 81 82 83 84 85 86 87 88 89 90 91 92 93 94 95 96 97 98 99 100 101 102 103 104 105 106 107 108 109 110 111 112 113 114 115 116 117 118 119 120 121 122 123 124 125 126 127 128 129 130 131 132 133 134 135 136 137 138 139 140 141 142 143 144 145 146 147 148 149 150 151 152 153 154 155 156 157 158 159 160 161 162 163 164 165 166 167 168 169 170 171 172 173 174 175 176 177 178 179 180 181 182 183 184 185 186 187 188 189 190 191 192 193 194 195 196 197 198 199 200 201 202 203 204 205 206 207 208 209 210 211 212 213 214 215 216 217 218 219 220 221 222 223 224 225 226 227 228 229 230 231 232 233 234 235 236 237 238 239 240 241 242 243 244 245 246 247 248 249 250 251 252 253 254 255 256 257 258 259 260 261 262 263 264 265 266 267 268 269 270 271 272 273 274 275 276 277 278 279 280 281 282 283 284 285 286 287 288 289 290 291 292 293 294 295 296 297 298 299 300 301 302 303 304 305 306 307 308 309 310 311 312 313 314 315 316 317 318 319 320 321 322 323 324 325 326 327 328 329 330 331 332 333 334 335 336 337 338 339 340 341 342 343 344 345 346 347 348 349 350 351 352 353 354 355 356 357 358 359 360 361 362 363 364 365 366 367 368 369 370 371 372 373 374 375 376 377 378 379 380 381 382 383 384 385 386 387 388 389 390 391 392 393 394 395 396 397 398 399 400 401 402 403 404 405 406 407 408 409 410 411 412 413 414 415 416 417 418 419 420 421 422 423 424 425 426 427 428 429 430 431 432 433 434 435 436 437 438 439 440 441 442 443 444 445 446 447 448 449 450 451 452 453 454 455 456 457 458 459 460 461 462 463 464 465 466 467 468 469 470 471 472 473 474 475 476 477 478 479 480 481 482 483 484 485 486 487 488 489 490 491 492 493 494 495 496 497 498 499 500 501 502 503 504 505 506 507 508 509 510 511 512 513 514 515 516 517 518 519 520 521 522 523 524 525 526 527 528 529 530 531 532 533 534 535 536 537 538 539 540 541 542 543 544 545 546 547 548 549 550 551 552 553 554 555 556 557 558 559 560 561 562 563 564 565 566 567 568 569 570 571 572 573 574 575 576 577 578 579 580 581 582 583 584 585 586 587 588 589 590 591 592 593 594 595 596 597 598 599 600 601 602 603 604 605 606 607 608 609 610 611 612 613 614 615 616 617 618 619 620 621 622 623 624 625 626 627 628 629 630 631 632 633 634 635 636 637 638 639 640 641 642 643 644 645 646 647 648 649 650 651 652 653 654 655 656 657 658 659 660 661 662 663 664 665 666 667 668 669 670 671 672 673 674 675 676 677 678 679 680 681 682 683 684 685 686 687 688 689 690 691 692 693 694 695 696 697 698 699 700 701 702 703 704 705 706 707 708 709 710 711 712 713 714 715 716 717 718 719 720 721 722 723 724 725 726 727 728 729 730 731 732 733 734 735 736 737 738 739 740 741 742 743 744 745 746 747 748 749 750 751 752 753 754 755 756 757 758 759 760 761 762 763 764 765 766 767 768 769 770 771 772 773 774 775 776 777 778 779 780 781 782 783 784 785 786 787 788 789 790 791 792 793 794 795 796 797 798 799 800 801 802 803 804 805 806 807 808 809 810 811 812 813 814 815 816 817 818 819 820 821 822 823 824 825 826 827 828 829 830 831 832 833 834 835 836 837 838 839 840 841 842 843 844 845 846 847 848 849 850 851 852 853 854 855 856 857 858 859 860 861 862 863 864 865 866 867 868 869 870 871 872 873 874 875 876 877 878 879 880 881 882 883 884 885 886 887 888 889 890 891 892 893 894 895 896 897 898 899 900 901 902 903 904 905 906 907 908 909 910 911 912 913 914 915 916 917 918 919 920 921 922 923 924 925 926 927 928 929 930 931 932 933 934 935 936 937 938 939 940 941 942 943 944 945 946 947 948 949 950 951 952 953 954 955 956 957 958 959 960 961 962 963 964 965 966 967 968 969 970 971 972 973 974 975 976 977 978 979 980 981 982 983 984 985 986 987 988 989 990 991 992 993 994 995 996 997 998 999 1000 1001 1002 1003 1004 1005 1006 1007 1008 1009 1010 1011 1012 1013 1014 1015 1016 1017 1018 1019 1020 1021 1022 1023 1024 1025 1026 1027 1028 1029 1030 1031 1032 1033 1034 1035 1036 1037 1038 1039 1040 1041 1042 1043 1044 1045 1046 1047 1048 1049 1050 1051 1052 1053 1054 1055 1056 1057 1058 1059 1060 1061 1062 1063 1064 1065 1066 1067 1068 1069 1070 1071 1072 1073 1074 1075 1076 1077 1078 1079 1080 1081 1082 1083 1084 1085 1086 1087 1088 1089 1090 1091 1092 1093 1094 1095 1096 1097 1098 1099 1100 1101 1102 1103 1104 1105 1106 1107 1108 1109 1110 1111 1112 1113 1114 1115 1116 1117 1118 1119 1120 1121 1122 1123 1124 1125 1126 1127 1128 1129 1130 1131 1132 1133 1134 1135 1136 1137 1138 1139 1140 1141 1142 1143 1144 1145 1146 1147 1148 1149 1150 1151 1152 1153 1154 1155 1156 1157 1158 1159 1160 1161 1162 1163 1164 1165 1166 1167 1168 1169 1170 1171 1172 1173 1174 1175 1176 1177 1178 1179 1180 1181 1182 1183 1184 1185 1186 1187 1188 1189 1190 1191 1192 1193 1194 1195 1196 1197 1198 1199 1200 1201 1202 1203 1204 1205 1206 1207 1208 1209 1210 1211 1212 1213 1214 1215 1216 1217 1218 1219 1220 1221 1222 1223 1224 1225 1226 1227 1228 1229 1230 1231 1232 1233 1234 1235 1236 1237 1238 1239 1240 1241 1242 1243 1244 1245 1246 1247 1248 1249 1250 1251 1252 1253 1254 1255 1256 1257 1258 1259 1260 1261 1262 1263 1264 1265 1266 1267 1268 1269 1270 1271 1272 1273 1274 1275 1276 1277 1278 1279 1280 1281 1282 1283 1284 1285 1286 1287 1288 1289 1290 1291 1292 1293 1294 1295 1296 1297 1298 1299 1300 1301 1302 1303 1304 1305 1306 1307 1308 1309 1310 1311 1312 1313 1314 1315 1316 1317 1318 1319 1320 1321 1322 1323 1324 1325 1326 1327 1328 1329 1330 1331 1332 1333 1334 1335 1336 1337 1338 1339 1340 1341 1342 1343 1344 1345 1346 1347 1348 1349 1350 1351 1352 1353 1354 1355 1356 1357 1358 1359 1360 1361 1362 1363 1364 1365 1366 1367 1368 1369 1370 1371 1372 1373 1374 1375 1376 1377 1378 1379 1380 1381 1382 1383 1384 1385 1386 1387 1388 1389 1390 1391 1392 1393 1394 1395 1396 1397 1398 1399 1400 1401 1402 1403 1404 1405 1406 1407 1408 1409 1410 1411 1412 1413 1414 1415 1416 1417 1418 1419 1420 1421 1422 1423 1424 1425 1426 1427 1428 1429 1430 1431 1432 1433 1434 1435 1436 1437 1438 1439 1440 1441 1442 1443 1444 1445 1446 1447 1448 1449 1450 1451 1452 1453 1454 1455 1456 1457 1458 1459 1460 1461 1462 1463 1464 1465 1466 1467 1468 1469 1470 1471 1472 1473 1474 1475 1476 1477 1478 1479 1480 1481 1482 1483 1484 1485 1486 1487 1488 1489 1490 1491 1492 1493 1494 1495 1496 1497 1498 1499 1500 1501 1502 1503 1504 1505 1506 1507 1508 1509 1510 1511 1512 1513 1514 1515 1516 1517 1518 1519 1520 1521 1522 1523 1524 1525 1526 1527 1528 1529 1530 1531 1532 1533 1534 1535 1536 1537 1538 1539 1540 1541 1542 1543 1544 1545 1546 1547 1548 1549 1550 1551 1552 1553 1554 1555 1556 1557 1558 1559 1560 1561 1562 1563 1564 1565 1566 1567 1568 1569 1570 1571 1572 1573 1574 1575 1576 1577 1578 1579 1580 1581 1582 1583 1584 1585 1586 1587 1588 1589 1590 1591 1592 1593 1594 1595 1596 1597 1598 1599 1600 1601 1602 1603 1604 1605 1606 1607 1608 1609 1610 1611 1612 1613 1614 1615 1616 1617 1618 1619 1620 1621 1622 1623 1624 1625 1626 1627 1628 1629 1630 1631 1632 1633 1634 1635 1636 1637 1638 1639 1640 1641 1642 1643 1644 1645 1646 1647 1648 1649 1650 1651 1652 1653 1654 1655 1656 1657 1658 1659 1660 1661 1662 1663 1664 1665 1666 1667 1668 1669 1670 1671 1672 1673 1674 1675 1676 1677 1678 1679 1680 1681 1682 1683 1684 1685 1686 1687 1688 1689 1690 1691 1692 1693 1694 1695 1696 1697 1698 1699 1700 1701 1702 1703 1704 1705 1706 1707 1708 1709 1710 1711 1712 1713 1714 1715 1716 1717 1718 1719 1720 1721 1722 1723 1724 1725 1726 1727 1728 1729 1730 1731 1732 1733 1734 1735 1736 1737 1738 1739 1740 1741 1742 1743 1744 1745 1746 1747 1748 1749 1750 1751 1752 1753 1754 1755 1756 1757 1758 1759 1760 1761 1762 1763 1764 1765 1766 1767 1768 1769 1770 1771 1772 1773 1774 1775 1776 1777 1778 1779 1780 1781 1782 1783 1784 1785 1786 1787 1788 1789 1790 1791 1792 1793 1794 1795 1796 1797 1798 1799 1800 1801 1802 1803 1804 1805 1806 1807 1808 1809 1810 1811 1812 1813 1814 1815 1816 1817 1818 1819 1820 1821 1822 1823 1824 1825 1826 1827 1828 1829 1830 1831 1832 1833 1834 1835 1836 1837 1838 1839 1840 1841 1842 1843 1844 1845 1846 1847 1848 1849 1850 1851 1852 1853 1854 1855 1856 1857 1858 1859 1860 1861 1862 1863 1864 1865 1866 1867 1868 1869 1870 1871 1872 1873 1874 1875 1876 1877 1878 1879 1880 1881 1882 1883 1884 1885 1886 1887 1888 1889 1890 1891 1892 1893 1894 1895 1896 1897 1898 1899 1900 1901 1902 1903 1904 1905 1906 1907 1908 1909 1910 1911 1912 1913 1914 1915 1916 1917 1918 1919 1920 1921 1922 1923 1924 1925 1926 1927 1928 1929 1930 1931 1932 1933 1934 1935 1936 1937 1938 1939 1940 1941 1942 1943 1944 1945 1946 1947 1948 1949 1950 1951 1952 1953 1954 1955 1956 1957 1958 1959 1960 1961 1962 1963 1964 1965 1966 1967 1968 1969 1970 1971 1972 1973 1974 1975 1976 1977 1978 1979 1980 1981 1982 1983 1984 1985 1986 1987 1988 1989 1990 1991 1992 1993 1994 1995 1996 1997 1998 1999 2000 2001 2002 2003 2004 2005 2006 2007 2008 2009 2010 2011 2012 2013 2014 2015 2016 2017 2018 2019 2020 2021 2022 2023 2024 2025 2026 2027 2028 2029 2030 2031 2032 2033 2034 2035 2036 2037 2038 2039 2040 2041 2042 2043 2044 2045 2046 2047 2048 2049 2050 2051 2052 2053 2054 2055 2056 2057 2058 2059 2060 2061 2062 2063 2064 2065 2066 2067 2068 2069 2070 2071 2072 2073 2074 2075 2076 2077 2078 2079 2080 2081 2082 2083 2084 2085 2086 2087 2088 2089 2090 2091 2092 2093 2094 2095 2096 2097 2098 2099 2100 2101 2102 2103 2104 2105 2106 2107 2108 2109 2110 2111 2112 2113 2114 2115 2116 2117 2118 2119 2120 2121 2122 2123 2124 2125 2126 2127 2128 2129 2130 2131 2132 2133 2134 2135 2136 2137 2138 2139 2140 2141 2142 2143 2144 2145 2146 2147 2148 2149 2150 2151 2152 2153 2154 2155 2156 2157 2158 2159 2160 2161 2162 2163 2164 2165 2166 2167 2168 2169 2170 2171 2172 2173 2174 2175 2176 2177 2178 2179 2180 2181 2182 2183 2184 2185 2186 2187 2188 2189 2190 2191 2192 2193 2194 2195 2196 2197 2198 2199 2200 2201 2202 2203 2204 2205 2206 2207 2208 2209 2210 2211 2212 2213 2214 2215 2216 2217 2218 2219 2220 2221 2222 2223 2224 2225 2226 2227 2228 2229 2230 2231 2232 2233 2234 2235 2236 2237 2238 2239 2240 2241 2242 2243 2244 2245 2246 2247 2248 2249 2250 2251 2252 2253 2254 2255 2256 2257 2258 2259 2260 2261 2262 2263 2264 2265 2266 2267 2268 2269 2270 2271 2272 2273 2274 2275 2276 2277 2278 2279 2280 2281 2282 2283 2284 2285 2286 2287 2288 2289 2290 2291 2292 2293 2294 2295 2296 2297 2298 2299 2300 2301 2302 2303 2304 2305 2306 2307 2308 2309 2310 2311 2312 2313 2314 2315 2316 2317 2318 2319 2320 2321 2322 2323 2324 2325 2326 2327 2328 2329 2330 2331 2332 2333 2334 2335 2336 2337 2338 2339 2340 2341 2342 2343 2344 2345 2346 2347 2348 2349 2350 2351 2352 2353 2354 2355 2356 2357 2358 2359 2360 2361 2362 2363 2364 2365 2366 2367 2368 2369 2370 2371 2372 2373 2374 2375 2376 2377 2378 2379 2380 2381 2382 2383 2384 2385 2386 2387 2388 2389 2390 2391 2392 2393 2394 2395 2396 2397 2398 2399 2400 2401 2402 2403 2404 2405 2406 2407 2408 2409 2410 2411 2412 2413 2414 2415 2416 2417 2418 2419 2420 2421 2422 2423 2424 2425 2426 2427 2428 2429 2430 2431 2432 2433 2434 2435 2436 2437 2438 2439 2440 2441 2442 2443 2444 2445 2446 2447 2448 2449 2450 2451 2452 2453 2454 2455 2456 2457 2458 2459 2460 2461 2462 2463 2464 2465 2466 2467 2468 2469 2470 2471 2472 2473 2474 2475 2476 2477 2478 2479 2480 2481 2482 2483 2484 2485 2486 2487 2488 2489 2490 2491 2492 2493 2494 2495 2496 2497 2498 2499 2500 2501 2502 2503 2504 2505 2506 2507 2508 2509 2510 2511 2512 2513 2514 2515 2516 2517 2518 2519 2520 2521 2522 2523 2524 2525 2526 2527 2528 2529 2530 2531 2532 2533 2534 2535 2536 2537 2538 2539 2540 2541 2542 2543 2544 2545 2546 2547 2548 2549 2550 2551 2552 2553 2554 2555 2556 2557 2558 2559 2560 2561 2562 2563 2564 2565 2566 2567 2568 2569 2570 2571 2572 2573 2574 2575 2576 2577 2578 2579 2580 2581 2582 2583 2584 2585 2586 2587 2588 2589 2590 2591 2592 2593 2594 2595 2596 2597 2598 2599 2600 2601 2602 2603 2604 2605 2606 2607 2608 2609 2610 2611 2612 2613 2614 2615 2616 2617 2618 2619 2620 2621 2622 2623 2624 2625 2626 2627 2628 2629 2630 2631 2632 2633 2634 2635 2636 2637 2638 2639 2640 2641 2642 2643 2644 2645 2646 2647 2648 2649 2650 2651 2652 2653 2654 2655 2656 2657 2658 2659 2660 2661 2662 2663 2664 2665 2666 2667 2668 2669 2670 2671 2672 2673 2674 2675 2676 2677 2678 2679 2680 2681 2682 2683 2684 2685 2686 2687 2688 2689 2690 2691 2692 2693 2694 2695 2696 2697 2698 2699 2700 2701 2702 2703 2704 2705 2706 2707 2708 2709 2710 2711 2712 2713 2714 2715 2716 2717 2718 2719 2720 2721 2722 2723 2724 2725 2726 2727 2728 2729 2730 2731 2732 2733 2734 2735 2736 2737 2738 2739 2740 2741 2742 2743 2744 2745 2746 2747 2748 2749 2750 2751 2752 2753 2754 2755 2756 2757 2758 2759 2760 2761 2762 2763 2764 2765 2766 2767 2768 2769 2770 2771 2772 2773 2774 2775 2776 2777 2778 2779 2780 2781 2782 2783 2784 2785 2786 2787 2788 2789 2790 2791 2792 2793 2794 2795 2796 2797 2798 2799 2800 2801 2802 2803 2804 2805 2806 2807 2808 2809 2810 2811 2812 2813 2814 2815 2816 2817 2818 2819 2820 2821 2822 2823 2824 2825 2826 2827 2828 2829 2830 2831 2832 2833 2834 2835 2836 2837 2838 2839 2840 2841 2842 2843 2844 2845 2846 2847 2848 2849 2850 2851 2852 2853 2854 2855 2856 2857 2858 2859 2860 2861 2862 2863 2864 2865 2866 2867 2868 2869 2870 2871 2872 2873 2874 2875 2876 2877 2878 2879 2880 2881 2882 2883 2884 2885 2886 2887 2888 2889 2890 2891 2892 2893 2894 2895 2896 2897 2898 2899 2900 2901 2902 2903 2904 2905 2906 2907 2908 2909 2910 2911 2912 2913 2914 2915 2916 2917 2918 2919 2920 2921 2922 2923 2924 2925 2926 2927 2928 2929 2930 2931 2932 2933 2934 2935 2936 2937 2938 2939 2940 2941 2942 2943 2944 2945 2946 2947 2948 2949 2950 2951 2952 2953 2954 2955 2956 2957 2958 2959 2960 2961 2962 2963 2964 2965 2966 2967 2968 2969 2970 2971 2972 2973 2974 2975 2976 2977 2978 2979 2980 2981 2982 2983 2984 2985 2986 2987 2988 2989 2990 2991 2992 2993 2994 2995 2996 2997 2998 2999 3000 3001 3002 3003 3004 3005 3006 3007 3008 3009 3010 3011 3012 3013 3014 3015 3016 3017 3018 3019 3020 3021 3022 3023 3024 3025 3026 3027 3028 3029 3030 3031 3032 3033 3034 3035 3036 3037 3038 3039 3040 3041 3042 3043 3044 3045 3046 3047 3048 3049 3050 3051 3052 3053 3054 3055 3056 3057 3058 3059 3060 3061 3062 3063 3064 3065 3066 3067 3068 3069 3070 3071 3072 3073 3074 3075 3076 3077 3078 3079 3080 3081 3082 3083 3084 3085 3086 3087 3088 3089 3090 3091 3092 3093 3094 3095 3096 3097 3098 3099 3100 3101 3102 3103 3104 3105 3106 3107 3108 3109 3110 3111 3112 3113 3114 3115 3116 3117 3118 3119 3120 3121 3122 3123 3124 3125 3126 3127 3128 3129 3130 3131 3132 3133 3134 3135 3136 3137 3138 3139 3140 3141 3142 3143 3144 3145 3146 3147 3148 3149 3150 3151 3152 3153 3154 3155 3156 3157 3158 3159 3160 3161 
</DataArray>
<DataArray type="UInt32" Name="offsets" format="ascii">
3 6 9 12 15 18 21 24 27 30 33 36 39 42 45 48 51 54 57 60 63 66 69 72 75 78 81 84 87 90 93 96 99 102 105 108 111 114 117 120 123 126 129 132 135 138 141 144 147 150 153 156 159 162 165 168 171 174 177 180 183 186 189 192 195 198 201 204 207 210 213 216 219 222 225 228 231 234 237 240 243 246 249 252 255 258 261 264 267 270 273 276 279 282 285 288 291 294 297 300 303 306 309 312 315 318 321 324 327 330 333 336 339 342 345 348 351 354 357 360 363 366 369 372 375 378 381 384 387 390 393 396 399 402 405 408 411 414 417 420 423 426 429 432 435 438 441 444 447 450 453 456 459 462 465 468 471 474 477 480 483 486 489 492 495 498 501 504 507 510 513 516 519 522 525 528 531 534 537 540 543 546 549 552 555 558 561 564 567 570 573 576 579 582 585 588 591 594 597 600 603 606 609 612 615 618 621 624 627 630 633 636 639 642 645 648 651 654 657 660 663 666 669 672 675 678 681 684 687 690 693 696 699 702 705 708 711 714 717 720 723 726 729 732 735 738 741 744 747 750 753 756 759 762 765 768 771 774 777 780 783 786 789 792 795 798 801 804 807 810 813 816 819 822 825 828 831 834 837 840 843 846 849 852 855 858 861 864 867 870 873 876 879 882 885 888 891 894 897 900 903 906 909 912 915 918 921 924 927 930 933 936 939 942 945 948 951 954 957 960 963 966 969 972 975 978 981 984 987 990 993 996 999 1002 1005 1008 1011 1014 1017 1020 1023 1026 1029 1032 1035 1038 1041 1044 1047 1050 1053 1056 1059 1062 1065 1068 1071 1074 1077 1080 1083 1086 1089 1092 1095 1098 1101 1104 1107 1110 1113 1116 1119 1122 1125 1128 1131 1134 1137 1140 1143 1146 1149 1152 1155 1158 1161 1164 1167 1170 1173 1176 1179 1182 1185 1188 1191 1194 1197 1200 1203 1206 1209 1212 1215 1218 1221 1224 1227 1230 1233 1236 1239 1242 1245 1248 1251 1254 1257 1260 1263 1266 1269 1272 1275 1278 1281 1284 1287 1290 1293 1296 1299 1302 1305 1308 1311 1314 1317 1320 1323 1326 1329 1332 1335 1338 1341 1344 1347 1350 1353 1356 1359 1362 1365 1368 1371 1374 1377 1380 1383 1386 1389 1392 1395 1398 1401 1404 1407 1410 1413 1416 1419 1422 1425 1428 1431 1434 1437 1440 1443 1446 1449 1452 1455 1458 1461 1464 1467 1470 1473 1476 1479 1482 1485 1488 1491 1494 1497 1500 1503 1506 1509 1512 1515 1518 1521 1524 1527 1530 1533 1536 1539 1542 1545 1548 1551 1554 1557 1560 1563 1566 1569 1572 1575 1578 1581 1584 1587 1590 1593 1596 1599 1602 1605 1608 1611 1614 1617 1620 1623 1626 1629 1632 1635 1638 1641 1644 1647 1650 1653 1656 1659 1662 1665 1668 1671 1674 1677 1680 1683 1686 1689 1692 1695 1698 1701 1704 1707 1710 1713 1716 1719 1722 1725 1728 1731 1734 1737 1740 1743 1746 1749 1752 1755 1758 1761 1764 1767 1770 1773 1776 1779 1782 1785 1788 1791 1794 1797 1800 1803 1806 1809 1812 1815 1818 1821 1824 1827 1830 1833 1836 1839 1842 1845 1848 1851 1854 1857 1860 1863 1866 1869 1872 1875 1878 1881 1884 1887 1890 1893 1896 1899 1902 1905 1908 1911 1914 1917 1920 1923 1926 1929 1932 1935 1938 1941 1944 1947 1950 1953 1956 1959 1962 1965 1968 1971 1974 1977 1980 1983 1986 1989 1992 1995 1998 2001 2004 2007 2010 2013 2016 2019 2022 2025 2028 2031 2034 2037 2040 2043 2046 2049 2052 2055 2058 2061 2064 2067 2070 2073 2076 2079 2082 2085 2088 2091 2094 2097 2100 2103 2106 2109 2112 2115 2118 2121 2124 2127 2130 2133 2136 2139 2142 2145 2148 2151 2154 2157 2160 2163 2166 2169 2172 2175 2178 2181 2184 2187 2190 2193 2196 2199 2202 2205 2208 2211 2214 2217 2220 2223 2226 2229 2232 2235 2238 2241 2244 2247 2250 2253 2256 2259 2262 2265 2268 2271 2274 2277 2280 2283 2286 2289 2292 2295 2298 2301 2304 2307 2310 2313 2316 2319 2322 2325 2328 2331 2334 2337 2340 2343 2346 2349 2352 2355 2358 2361 2364 2367 2370 2373 2376 2379 2382 2385 2388 2391 2394 2397 2400 2403 2406 2409 2412 2415 2418 2421 2424 2427 2430 2433 2436 2439 2442 2445 2448 2451 2454 2457 2460 2463 2466 2469 2472 2475 2478 2481 2484 2487 2490 2493 2496 2499 2502 2505 2508 2511 2514 2517 2520 2523 2526 2529 2532 2535 2538 2541 2544 2547 2550 2553 2556 2559 2562 2565 2568 2571 2574 2577 2580 2583 2586 2589 2592 2595 2598 2601 2604 2607 2610 2613 2616 2619 2622 2625 2628 2631 2634 2637 2640 2643 2646 2649 2652 2655 2658 2661 2664 2667 2670 2673 2676 2679 2682 2685 2688 2691 2694 2697 2700 2703 2706 2709 2712 2715 2718 2721 2724 2727 2730 2733 2736 2739 2742 2745 2748 2751 2754 2757 2760 2763 2766 2769 2772 2775 2778 2781 2784 2787 2790 2793 2796 2799 2802 2805 2808 2811 2814 2817 2820 2823 2826 2829 2832 2835 2838 2841 2844 2847 2850 2853 2856 2859 2862 2865 2868 2871 2874 2877 2880 2883 2886 2889 2892 2895 2898 2901 2904 2907 2910 2913 2916 2919 2922 2925 2928 2931 2934 2937 2940 2943 2946 2949 2952 2955 2958 2961 2964 2967 2970 2973 2976 2979 2982 2985 2988 2991 2994 2997 3000 3003 3006 3009 3012 3015 3018 3021 3024 3027 3030 3033 3036 3039 3042 3045 3048 3051 3054 3057 3060 3063 3066 3069 3072 3075 3078 3081 3084 3087 3090 3093 3096 3099 3102 3105 3108 3111 3114 3117 3120 3123 3126 3129 3132 3135 3138 3141 3144 3147 3150 3153 3156 3159 3162 
</DataArray>
<DataArray type="UInt32" Name="types" format="ascii">
5 5 5 5 5 5 5 5 5 5 5 5 5 5 5 5 5 5 5 5 5 5 5 5 5 5 5 5 5 5 5 5 5 5 5 5 5 5 5 5 5 5 5 5 5 5 5 5 5 5 5 5 5 5 5 5 5 5 5 5 5 5 5 5 5 5 5 5 5 5 5 5 5 5 5 5 5 5 5 5 5 5 5 5 5 5 5 5 5 5 5 5 5 5 5 5 5 5 5 5 5 5 5 5 5 5 5 5 5 5 5 5 5 5 5 5 5 5 5 5 5 5 5 5 5 5 5 5 5 5 5 5 5 5 5 5 5 5 5 5 5 5 5 5 5 5 5 5 5 5 5 5 5 5 5 5 5 5 5 5 5 5 5 5 5 5 5 5 5 5 5 5 5 5 5 5 5 5 5 5 5 5 5 5 5 5 5 5 5 5 5 5 5 5 5 5 5 5 5 5 5 5 5 5 5 5 5 5 5 5 5 5 5 5 5 5 5 5 5 5 5 5 5 5 5 5 5 5 5 5 5 5 5 5 5 5 5 5 5 5 5 5 5 5 5 5 5 5 5 5 5 5 5 5 5 5 5 5 5 5 5 5 5 5 5 5 5 5 5 5 5 5 5 5 5 5 5 5 5 5 5 5 5 5 5 5 5 5 5 5 5 5 5 5 5 5 5 5 5 5 5 5 5 5 5 5 5 5 5 5 5 5 5 5 5 5 5 5 5 5 5 5 5 5 5 5 5 5 5 5 5 5 5 5 5 5 5 5 5 5 5 5 5 5 5 5 5 5 5 5 5 5 5 5 5 5 5 5 5 5 5 5 5 5 5 5 5 5 5 5 5 5 5 5 5 5 5 5 5 5 5 5 5 5 5 5 5 5 5 5 5 5 5 5 5 5 5 5 5 5 5 5 5 5 5 5 5 5 5 5 5 5 5 5 5 5 5 5 5 5 5 5 5 5 5 5 5 5 5 5 5 5 5 5 5 5 5 5 5 5 5 5 5 5 5 5 5 5 5 5 5 5 5 5 5 5 5 5 5 5 5 5 5 5 5 5 5 5 5 5 5 5 5 5 5 5 5 5 5 5 5 5 5 5 5 5 5 5 5 5 5 5 5 5 5 5 5 5 5 5 5 5 5 5 5 5 5 5 5 5 5 5 5 5 5 5 5 5 5 5 5 5 5 5 5 5 5 5 5 5 5 5 5 5 5 5 5 5 5 5 5 5 5 5 5 5 5 5 5 5 5 5 5 5 5 5 5 5 5 5 5 5 5 5 5 5 5 5 5 5 5 5 5 5 5 5 5 5 5 5 5 5 5 5 5 5 5 5 5 5 5 5 5 5 5 5 5 5 5 5 5 5 5 5 5 5 5 5 5 5 5 5 5 5 5 5 5 5 5 5 5 5 5 5 5 5 5 5 5 5 5 5 5 5 5 5 5 5 5 5 5 5 5 5 5 5 5 5 5 5 5 5 5 5 5 5 5 5 5 5 5 5 5 5 5 5 5 5 5 5 5 5 5 5 5 5 5 5 5 5 5 5 5 5 5 5 5 5 5 5 5 5 5 5 5 5 5 5 5 5 5 5 5 5 5 5 5 5 5 5 5 5 5 5 5 5 5 5 5 5 5 5 5 5 5 5 5 5 5 5 5 5 5 5 5 5 5 5 5 5 5 5 5 5 5 5 5 5 5 5 5 5 5 5 5 5 5 5 5 5 5 5 5 5 5 5 5 5 5 5 5 5 5 5 5 5 5 5 5 5 5 5 5 5 5 5 5 5 5 5 5 5 5 5 5 5 5 5 5 5 5 5 5 5 5 5 5 5 5 5 5 5 5 5 5 5 5 5 5 5 5 5 5 5 5 5 5 5 5 5 5 5 5 5 5 5 5 5 5 5 5 5 5 5 5 5 5 5 5 5 5 5 5 5 5 5 5 5 5 5 5 5 5 5 5 5 5 5 5 5 5 5 5 5 5 5 5 5 5 5 5 5 5 5 5 5 5 5 5 5 5 5 5 5 5 5 5 5 5 5 5 5 5 5 5 5 5 5 5 5 5 5 5 5 5 5 5 5 5 5 5 5 5 5 5 5 5 5 5 5 5 5 5 5 5 5 5 5 5 5 5 5 5 5 5 5 5 5 5 5 5 5 5 5 5 5 5 5 5 5 5 5 5 5 5 5 5 5 5 5 5 5 5 5 5 5 5 5 5 5 5 5 5 5 5 5 5 5 5 5 5 5 5 5 5 5 5 5 5 5 5 5 5 5 5 5 5 5 5 5 5 5 5 5 5 5 5 5 5 5 5 5 5 5 5 5 5 5 5 5 5 5 5 5 5 5 5 5 5 5 5 5 5 5 5 5 5 5 5 5 5 5 5 5 
</DataArray>
</Cells>
<PointData Scalars="" Vectors="displacement," Tensors="">
<DataArray type="Float64" Name="displacement" NumberOfComponents="3" format="ascii">
-0.00019050902248235528 -0.0022623140332268784 0 -0.00013200595636268456 -0.0021155414277093053 0 -9.5132212550686751e-05 -0.0022362285471174397 0 0.00043621457125300072 -0.0018270152262685514 0 0.00035696481972310079 -0.0017067647746038424 0 0.00041990823143215451 -0.0016526054133566026 0 -0.00039682474884238729 -0.0011391652722110104 0 -0.00033929233382250137 -0.001240055759306387 0 -0.00040193479834040236 -0.0013089836838783549 0 0.00013060488942817964 -0.00066410213481783503 0 9.8361982349257266e-05 -0.00079380504360818593 0 6.4727732518792807e-05 -0.00067714307678169846 0 0.00011817310408176279 -0.0019015997981580834 0 0.00020129482982491812 -0.0018124337680241504 0 0.00019630442916707474 -0.0020030948082757319 0 0.00027338131459958125 -0.0019313512304868466 0 0.00019630442916707474 -0.0020030948082757319 0 0.00020129482982491812 -0.0018124337680241504 0 0.00023293978340854663 -0.0012351493732807777 0 0.00016120462189033854 -0.0010910780467190634 0 0.00026200820232082843 -0.0011041894590480869 0 0.0002158627246075857 -0.00095890749613964331 0 0.00026200820232082843 -0.0011041894590480869 0 0.00016120462189033851 -0.0010910780467190634 0 0.0004414553218660387 -0.002822915541195846 0 0.0005066579323108664 -0.0029529007316713399 0 0.00040056954797063114 -0.0029587252780108944 0 -0.00073030578304668641 -0.0023084328123780451 0 -0.00079756293703183443 -0.0024259159516035306 0 -0.00080241280176029093 -0.0022382952894311452 0 0.00055216072778408733 -0.00077679726117130536 0 0.00060298429326252981 -0.00074381223704751112 0 0.0006655925989587319 -0.00090428656121840261 0 -0.00014623723888970179 -0.00024669582187202921 0 -8.9239288117060135e-05 -0.00012523310264873059 0 -6.4041445884273994e-05 -0.0001122785654061305 0 0.00073074164837101576 -0.0031421517106679838 0 0.00064265566894775592 -0.003135988553614715 0 0.00073636412943029785 -0.0030124937570483387 0 -0.00089681217107323314 -0.0028276966143886925 0 -0.00089317494780754311 -0.0026657947576055594 0 -0.00082726506097820273 -0.0028418961748042752 0 -0.00036223720669516306 -0.00032410244691979544 0 -0.00056291061992562322 -0.00057679168171851237 0 -0.0004453089372286012 -0.00042008619758448124 0 -0.00073654788528485947 -0.0030124698495244905 0 -0.00064275490155772457 -0.0031359256190440017 0 -0.00073088536285865558 -0.0031421332070455934 0 0.00011958377573577279 -9.4775856943244433e-05 0 1.8250653822740166e-08 -9.8529230831534305e-08 0 4.8320060929260879e-08 -1.2940315324503807e-07 0 0.00082705564492368178 -0.0028419394188928856 0 0.00089300999241559702 -0.00266592689238945 0 0.00089659760135317706 -0.0028277818360041033 0 0.00044580024964932031 -0.00041981422699627178 0 0.00056392876963286406 -0.0005761268725243111 0 0.00036278062128061901 -0.00032391036703085277 0 -4.8331997351217786e-08 -1.3053304833523818e-07 0 -1.8073030935739613e-08 -9.7439864501591458e-08 0 -0.00011976608533091988 -9.5186681352782618e-05 0 0.0006469699785612102 -0.00071890617404848586 0 0.0006029842932625297 -0.00074381223704751112 0 0.00055408887599274481 -0.00060680874742759195 0 -2.7389753080391731e-08 -1.0995959971550182e-07 0 -8.9239288117060135e-05 -0.00012523310264873059 0 -7.8428806881526792e-05 -8.9823768574076517e-05 0 0.00055368952988064685 -0.0031293477750935638 0 0.0005066579323108664 -0.0029529007316713399 0 0.00059669559380243794 -0.0029896364609136874 0 -0.00089014216814212795 -0.0025048380893966794 0 -0.00079756293703183443 -0.0024259159516035306 0 -0.00081557904141491564 -0.0025869077669696872 0 0.00089009141311485913 -0.0025048738698058627 0 0.00082300838279793763 -0.0025641802931655844 0 0.00079216363806477433 -0.0023963807419900905 0 2.6831647707917538e-08 -1.1002278772968797e-07 0 7.7799901888685619e-05 -8.9492485670066937e-05 0 9.0602672353370839e-05 -0.0001274109629829303 0 -0.00055386866806856044 -0.0031292049709936987 0 -0.00058449415307465708 -0.0030035971342669827 0 -0.00049031584838925724 -0.0029421214558902902 0 -0.00064712991644123267 -0.00071898830831310806 0 -0.00055291870827017613 -0.00060416296063983493 0 -0.00060540532851583752 -0.00075138809422986455 0 -4.0244303549276686e-08 -0.0023769502469421634 0 6.8563202083854778e-05 -0.0024462549544479184 0 -4.2630926730444335e-06 -0.0025744681491417301 0 -0.00048735401104801158 -0.0014945372583877944 0 -0.0005295808839900284 -0.0016241933970795185 0 -0.00059032100458638128 -0.0015092604436284861 0 0.00048715337448980943 -0.0014946373389635385 0 0.00051480763241355473 -0.0013798196754811693 0 0.00059106735355161054 -0.0015240237232807036 0 -1.085272067988078e-07 -0.00055322074001437312 0 -3.7631151599128602e-05 -0.00049405428890662698 0 2.393860280025029e-06 -0.00038485809836214728 0 0.00055368952988064685 -0.0031293477750935638 0 0.00046370945745865042 -0.0031227535434188254 0 0.0005066579323108664 -0.0029529007316713399 0 -0.00089014216814212795 -0.0025048380893966794 0 -0.00088725670486121194 -0.0023450637026269511 0 -0.00079756293703183443 -0.0024259159516035306 0 0.0006469699785612102 -0.00071890617404848586 0 0.00071082306831711766 -0.00086041822915042449 0 0.0006029842932625297 -0.00074381223704751112 0 -2.7389753080391731e-08 -1.0995959971550182e-07 0 -1.3839969801917923e-08 -1.0335224748972681e-07 0 -8.9239288117060135e-05 -0.00012523310264873059 0 0.00088717268179021389 -0.0023451211260270841 0 0.00089009141311485913 -0.0025048738698058627 0 0.00079216363806477433 -0.0023963807419900905 0 1.5004796079761958e-08 -1.0227021073488309e-07 0 2.6831647707917538e-08 -1.1002278772968797e-07 0 9.0602672353370839e-05 -0.0001274109629829303 0 -0.00046384573745108371 -0.0031226756980933888 0 -0.00055386866806856044 -0.0031292049709936987 0 -0.00049031584838925724 -0.0029421214558902902 0 -0.00071138453299230049 -0.0008603746204814825 0 -0.00064712991644123267 -0.00071898830831310806 0 -0.00060540532851583752 -0.00075138809422986455 0 0.00088717268179021389 -0.0023451211260270841 0 0.00079216363806477433 -0.0023963807419900905 0 0.00079333793038081967 -0.0022191186952435476 0 1.5004796079761958e-08 -1.0227021073488309e-07 0 9.0602672353370839e-05 -0.0001274109629829303 0 6.6584893013000459e-05 -0.00011894208340156533 0 -0.00046384573745108371 -0.0031226756980933888 0 -0.00049031584838925724 -0.0029421214558902906 0 -0.00038991732787846314 -0.0029415353988264475 0 -0.00071138453299230049 -0.0008603746204814825 0 -0.00060540532851583752 -0.00075138809422986455 0 -0.00066574829469395226 -0.00091683191101095581 0 0.00059311295890706922 -0.0025758263202165024 0 0.00067619252195969762 -0.0025233018170527275 0 0.00070085512195412866 -0.0026636953447743863 0 -0.00059325438624396962 -0.0025757588459656053 0 -0.00056242944060420235 -0.0027278129019810476 0 -0.00063860656541383186 -0.0027766691528886968 0 -0.00019050902248235528 -0.0022623140332268784 0 -9.5132212550686751e-05 -0.0022362285471174397 0 -0.00012180975320461085 -0.0023790656854342155 0 0.00043621457125300072 -0.0018270152262685514 0 0.00041990823143215451 -0.0016526054133566026 0 0.00049677533869442101 -0.0017128364142244689 0 -0.00039682474884238729 -0.0011391652722110104 0 -0.00040193479834040236 -0.0013089836838783549 0 -0.00047093164650324591 -0.001276591798476993 0 0.00013060488942817964 -0.00066410213481783503 0 6.4727732518792794e-05 -0.00067714307678169835 0 7.3418818299869699e-05 -0.00055302325273853413 0 0.00073636412943029785 -0.0030124937570483387 0 0.00064265566894775592 -0.003135988553614715 0 0.00066722880914375619 -0.0029672247783407448 0 -0.00082726506097820273 -0.0028418961748042752 0 -0.00089317494780754311 -0.0026657947576055594 0 -0.00080290225881487229 -0.002715683042750174 0 -0.00043360899856430144 -0.00043382639349962292 0 -0.00056291061992562322 -0.00057679168171851237 0 -0.00036223720669516306 -0.00032410244691979544 0 -0.00065738256519411729 -0.0029450341481235707 0 -0.00064275490155772446 -0.0031359256190440017 0 -0.00073654788528485947 -0.0030124698495244905 0 0.00013255011364773193 -0.00013455825131825536 0 1.8250653822739967e-08 -9.8529230831533696e-08 0 0.00011958377573577279 -9.4775856943244433e-05 0 0.00079097219836912606 -0.0026978999888521297 0 0.00089300999241559702 -0.00266592689238945 0 0.00082705564492368178 -0.0028419394188928856 0 0.00036278062128061901 -0.00032391036703085277 0 0.00056392876963286417 -0.0005761268725243112 0 0.0004370113972925938 -0.00044208144096917956 0 -0.00011976608533091988 -9.5186681352782618e-05 0 -1.8073030935735566e-08 -9.7439864501588242e-08 0 -0.00014111551248255816 -0.00014432656591795224 0 -0.00054842950434011906 -0.0007901404652219231 0 -0.00051434255678221505 -0.0006638134328242431 0 -0.00043037459001602895 -0.00064478860129303368 0 0.00015056957677574056 -0.00026132603325518255 0 0.00016640383830776831 -0.00024217543317365696 0 0.00024881938132568821 -0.00040472894708198465 0 0.00069646742083742251 -0.0022889709364679618 0 0.00072296459166079814 -0.0024255485329327505 0 0.00061075384492587949 -0.0023898521056390067 0 -0.00043159744136343005 -0.0027583671960076757 0 -0.00050717474522216847 -0.0028128191293940686 0 -0.00049076457204165155 -0.0026015011076276169 0 0.0004414553218660387 -0.002822915541195846 0 0.00040056954797063114 -0.0029587252780108944 0 0.0003738408919382346 -0.0027914569454751343 0 -0.00073030578304668641 -0.0023084328123780451 0 -0.00080241280176029093 -0.0022382952894311452 0 -0.00071539936426844801 -0.0021880354385835458 0 0.00055216072778408733 -0.00077679726117130536 0 0.0006655925989587319 -0.00090428656121840261 0 0.00059368228502516027 -0.00089851086611133244 0 -0.00014623723888970179 -0.00024669582187202921 0 -6.4041445884273994e-05 -0.0001122785654061305 0 -0.00011801196862242831 -0.00023627517588477887 0 6.5427027098777604e-05 -0.00016468884182702895 0 7.263298718828288e-05 -0.00025421932821507922 0 3.4968893577171995e-05 -0.00013436126572422059 0 0.00075710957549228236 -0.002043625292384956 0 0.00069298260713085728 -0.0019209576031736348 0 0.00077455772377681338 -0.0018801182677138548 0 -0.00067532908977146653 -0.0010658171515692569 0 -0.00063582496030049017 -0.0011550432491006855 0 -0.00072455837082579437 -0.0012353652282861051 0 -0.00028982272758948602 -0.0028702173125676931 0 -0.00022264783821570152 -0.0027478050160482264 0 -0.00019347864407218536 -0.0029074185489483427 0 -4.2630926730444335e-06 -0.0025744681491417301 0 6.8563202083854778e-05 -0.0024462549544479184 0 7.3754876333266301e-05 -0.0025862867459346571 0 -0.00059032100458638128 -0.0015092604436284861 0 -0.0005295808839900284 -0.0016241933970795185 0 -0.00060308766397507792 -0.0016476378240182625 0 0.00059106735355161054 -0.0015240237232807036 0 0.00051480763241355462 -0.0013798196754811691 0 0.0005864922076760042 -0.001388513562479728 0 2.393860280025029e-06 -0.00038485809836214728 0 -3.7631151599128602e-05 -0.00049405428890662698 0 -3.2377812547647492e-05 -0.00037771276455037477 0 0.00059311295890706922 -0.0025758263202165024 0 0.00070085512195412866 -0.0026636953447743863 0 0.00063549298791137617 -0.0027356047067322886 0 -0.00059325438624396962 -0.0025757588459656053 0 -0.00063860656541383186 -0.0027766691528886968 0 -0.00067891803737104043 -0.0026571987668201707 0 0.00033605708391642596 -0.0004559079622839934 0 0.00027596851659718568 -0.00032377495886222598 0 0.0003759670747915814 -0.00042112195081037363 0 -0.00033359810057966439 -0.00045231200244240556 0 -0.00035930689082639138 -0.00041343783678535385 0 -0.00025633467376374005 -0.00029254396874413003 0 -0.00043037459001602895 -0.00064478860129303368 0 -0.00051434255678221505 -0.0006638134328242431 0 -0.00042711344292350393 -0.00054160433489153649 0 0.00024881938132568821 -0.00040472894708198465 0 0.00016640383830776831 -0.00024217543317365696 0 0.00023722346300344833 -0.00031993491589979011 0 0.00033605708391642596 -0.0004559079622839934 0 0.0003759670747915814 -0.00042112195081037363 0 0.00042621737462652284 -0.00054149548007275761 0 -0.00033359810057966439 -0.00045231200244240556 0 -0.00025633467376374005 -0.00029254396874413003 0 -0.00023808444419929459 -0.00032190399930741607 0 -0.00032278408902486154 -0.0023371813383147948 0 -0.00028478562223628319 -0.0021780582316527374 0 -0.00025714920235007227 -0.0023762509405460533 0 0.00047438770492686579 -0.0020716163609080999 0 0.00038704823994228368 -0.0019907110681523362 0 0.00049675878198672768 -0.0019555543707537272 0 -0.00039337884304925264 -0.00090981965655859598 0 -0.00032806936243999794 -0.000962166504138438 0 -0.00043517868198697648 -0.0010325285017129171 0 0.00021316324198498686 -0.00061555844225946591 0 0.00021258242044274944 -0.00076115150784907405 0 0.0001594233620242507 -0.00056916163591986472 0 -0.00043159744136343005 -0.0027583671960076757 0 -0.00038991732787846314 -0.0029415353988264475 0 -0.00049031584838925724 -0.0029421214558902902 0 -0.00054842950434011906 -0.0007901404652219231 0 -0.00066574829469395226 -0.0009168319110109557 0 -0.00060540532851583752 -0.00075138809422986455 0 0.00069646742083742251 -0.0022889709364679618 0 0.00079333793038081967 -0.0022191186952435476 0 0.00079216363806477433 -0.0023963807419900905 0 0.00015056957677574056 -0.00026132603325518255 0 6.6584893013000446e-05 -0.00011894208340156533 0 9.0602672353370839e-05 -0.0001274109629829303 0 -0.00049076457204165155 -0.0026015011076276169 0 -0.00050717474522216847 -0.0028128191293940686 0 -0.00056242944060420246 -0.002727812901981048 0 0.00061075384492587949 -0.0023898521056390067 0 0.00072296459166079814 -0.0024255485329327505 0 0.00067619252195969762 -0.0025233018170527275 0 -0.00025714920235007227 -0.0023762509405460533 0 -0.00028478562223628319 -0.0021780582316527374 0 -0.00019050902248235528 -0.0022623140332268784 0 0.00049675878198672768 -0.0019555543707537272 0 0.00038704823994228368 -0.0019907110681523362 0 0.00043621457125300072 -0.0018270152262685514 0 -0.00043517868198697648 -0.0010325285017129171 0 -0.00032806936243999794 -0.000962166504138438 0 -0.00039682474884238729 -0.0011391652722110104 0 0.0001594233620242507 -0.00056916163591986472 0 0.00021258242044274944 -0.00076115150784907405 0 0.00013060488942817964 -0.00066410213481783503 0 0.00013340813887951112 -0.0017279554237819841 0 6.3306346756430393e-05 -0.0017814976565179766 0 5.44867052721195e-05 -0.0016202989137231493 0 0.0008748611114236998 -0.001876436205813746 0 0.00077455772377681338 -0.0018801182677138548 0 0.00079732821853765404 -0.001744780337367723 0 8.2184013016495289e-09 -1.0263121951832261e-07 0 3.4968893577171995e-05 -0.00013436126572422059 0 1.4889329733437505e-05 -9.4581126213377987e-05 0 -0.00018751712096717047 -0.0031071420157317733 0 -0.00019347864407218536 -0.0029074185489483427 0 -0.00011113424665087304 -0.0029605032500237892 0 -0.00082362203764794952 -0.0012820699324964529 0 -0.00072455837082579437 -0.0012353652282861051 0 -0.00077006384986123735 -0.0013793109942692346 0 -0.00011772062065018215 -0.002783941417525226 0 -2.4677547222982075e-05 -0.0028887928072678943 0 -0.00011113424665087304 -0.0029605032500237892 0 -0.00068091347544273738 -0.0013412833991646213 0 -0.00074889562391318096 -0.0015123731812703273 0 -0.00077006384986123735 -0.0013793109942692346 0 0.00070835729171091623 -0.0017424721151390677 0 0.00075444860663591729 -0.0015943810325506778 0 0.00079732821853765404 -0.001744780337367723 0 3.3819339041898779e-05 -0.00022152813764416863 0 4.7618211926426952e-06 -0.00014328799741323696 0 1.4889329733437505e-05 -9.4581126213377987e-05 0 0.00013016817243744473 -0.0015907082907700727 0 0.00013340813887951112 -0.0017279554237819841 0 5.44867052721195e-05 -0.0016202989137231493 0 0.00088391740547804449 -0.0021868660695703391 0 0.00088717268179021389 -0.0023451211260270841 0 0.00079333793038081967 -0.0022191186952435476 0 9.0259912792076703e-09 -1.0793622004465965e-07 0 1.5004796079761958e-08 -1.0227021073488309e-07 0 6.6584893013000459e-05 -0.00011894208340156533 0 -0.00037275295824691374 -0.0031165778048767396 0 -0.00046384573745108371 -0.0031226756980933888 0 -0.00038991732787846314 -0.0029415353988264475 0 -0.00075847930222092803 -0.0010009531842720004 0 -0.00071138453299230049 -0.0008603746204814825 0 -0.00066574829469395226 -0.00091683191101095581 0 0.00070835729171091623 -0.0017424721151390677 0 0.00062307085260418743 -0.0018254907229888929 0 0.00062507156746531025 -0.0016711429499940444 0 -0.00011772062065018215 -0.002783941417525226 0 -0.00017370015282950046 -0.0026157528389094032 0 -8.492954321668611e-05 -0.0026266832057021627 0 3.3819339041898779e-05 -0.00022152813764416863 0 7.3722677128874073e-05 -0.00035616344203737643 0 3.6007473088406201e-05 -0.00034356731760281598 0 -0.00068091347544273738 -0.0013412833991646213 0 -0.00058187237755568538 -0.0012170177082819612 0 -0.00060615388163616534 -0.0013743992093813032 0 0.00070835729171091623 -0.0017424721151390677 0 0.00069298260713085728 -0.0019209576031736348 0 0.00062307085260418743 -0.0018254907229888929 0 3.3819339041898779e-05 -0.00022152813764416863 0 7.263298718828288e-05 -0.00025421932821507922 0 7.3722677128874086e-05 -0.00035616344203737643 0 -0.00011772062065018215 -0.002783941417525226 0 -0.00022264783821570152 -0.0027478050160482264 0 -0.00017370015282950046 -0.0026157528389094032 0 -0.00068091347544273738 -0.0013412833991646213 0 -0.00063582496030049017 -0.0011550432491006855 0 -0.00058187237755568538 -0.0012170177082819612 0 0.00043621457125300072 -0.0018270152262685514 0 0.00034538684633860168 -0.0018384318565365643 0 0.00035696481972310085 -0.0017067647746038426 0 -0.00019050902248235528 -0.0022623140332268784 0 -0.00020549640345244799 -0.0020932147038156997 0 -0.00013200595636268456 -0.0021155414277093053 0 0.00013060488942817964 -0.00066410213481783503 0 0.00015705874065451739 -0.00082459915660415214 0 9.8361982349257266e-05 -0.00079380504360818593 0 -0.00039682474884238729 -0.0011391652722110104 0 -0.00031304932369715467 -0.0011181914031795882 0 -0.00033929233382250137 -0.001240055759306387 0 2.6803467128952884e-05 -0.0021004549845037171 0 0.00012758124110252432 -0.0021016883583354099 0 8.0989056421531001e-05 -0.0022679320105966289 0 -0.00034448850240516098 -0.0015181116397544039 0 -0.0003478223057891405 -0.0016971884668793029 0 -0.00043618837321775158 -0.0016297367657862659 0 0.00034519348177576987 -0.0014198096331978925 0 0.00032644158794473252 -0.0012404974724594445 0 0.00042041974027770746 -0.0013372813318653031 0 -2.2680811177593991e-05 -0.00078744123537415848 0 -9.6545993681012126e-05 -0.00080979430232633938 0 -5.4579495180983539e-05 -0.00065106181868156523 0 0.00048580649401423504 -0.00055732747797244291 0 0.00055408887599274481 -0.00060680874742759195 0 0.0006029842932625297 -0.00074381223704751112 0 -0.00016204705556374676 -0.00019643977475934017 0 -7.8428806881526792e-05 -8.9823768574076517e-05 0 -8.9239288117060135e-05 -0.00012523310264873059 0 0.00057611134135843167 -0.0028480551037778816 0 0.00059669559380243794 -0.0029896364609136874 0 0.0005066579323108664 -0.0029529007316713399 0 -0.00074064800300682493 -0.0025504589944317087 0 -0.00081557904141491564 -0.0025869077669696872 0 -0.00079756293703183443 -0.0024259159516035306 0 0.00074952311810810358 -0.0025551452303969277 0 0.00079216363806477433 -0.0023963807419900905 0 0.00082300838279793763 -0.0025641802931655844 0 0.00016893474922149851 -0.00019983658043939322 0 9.0602672353370839e-05 -0.0001274109629829303 0 7.7799901888685619e-05 -8.9492485670066937e-05 0 -0.00057867357786485323 -0.002865206510660846 0 -0.00049031584838925724 -0.0029421214558902902 0 -0.00058449415307465708 -0.0030035971342669827 0 -0.00047845258882856938 -0.00054583415860826501 0 -0.00060540532851583752 -0.00075138809422986455 0 -0.00055291870827017613 -0.00060416296063983493 0 0.00017813468447816245 -0.0022603990372439342 0 8.0989056421531001e-05 -0.0022679320105966289 0 0.00012758124110252432 -0.0021016883583354099 0 -0.00043516824081897516 -0.0018049367325248253 0 -0.00043618837321775158 -0.0016297367657862659 0 -0.0003478223057891405 -0.0016971884668793029 0 0.00039867325433794041 -0.0011611026887656487 0 0.00042041974027770746 -0.0013372813318653031 0 0.00032644158794473252 -0.0012404974724594445 0 -0.00012288915583062997 -0.0006660299251321618 0 -5.4579495180983539e-05 -0.00065106181868156523 0 -9.6545993681012126e-05 -0.00080979430232633938 0 0.00059440983037477052 -0.0022469572296949271 0 0.00050376164812247792 -0.0021922793666956913 0 0.00055297309639860254 -0.0020622681485573825 0 -0.00041249292904136389 -0.0025658728984538828 0 -0.00038746309060488828 -0.0023955820032518899 0 -0.00031248185941593976 -0.0024828740901597837 0 0.00021215761021675482 -0.00042432157922660333 0 0.00024606421225666032 -0.0005737732931317556 0 0.00017276947938092853 -0.00048178938623910872 0 -0.00046346443646940822 -0.00078124613029291923 0 -0.00039386117667325086 -0.00080094396891325934 0 -0.00046956079759329962 -0.00094790099890718386 0 0.00063703037761678703 -0.0021435934106777861 0 0.00059440983037477052 -0.0022469572296949271 0 0.00055297309639860254 -0.0020622681485573825 0 0.00015302268001423226 -0.00034922935638649849 0 0.00021215761021675482 -0.00042432157922660333 0 0.00017276947938092853 -0.00048178938623910872 0 -0.00035270666922402547 -0.0026424146499283612 0 -0.00041249292904136389 -0.0025658728984538828 0 -0.00031248185941593976 -0.0024828740901597837 0 -0.00053208585998878479 -0.00090480508313616924 0 -0.00046346443646940822 -0.00078124613029291923 0 -0.00046956079759329962 -0.00094790099890718386 0 0.00027338131459958125 -0.0019313512304868466 0 0.00034538684633860168 -0.0018384318565365643 0 0.00038704823994228368 -0.0019907110681523362 0 -0.00025341640239272815 -0.0019599588763507753 0 -0.00020549640345244799 -0.0020932147038156997 0 -0.00028478562223628319 -0.0021780582316527374 0 0.0002158627246075857 -0.00095890749613964331 0 0.00015705874065451739 -0.00082459915660415214 0 0.00021258242044274944 -0.00076115150784907405 0 -0.00023336095716769168 -0.00099158260154653824 0 -0.00031304932369715467 -0.0011181914031795882 0 -0.00032806936243999794 -0.000962166504138438 0 0.00030727954702985136 -0.0025145716833192997 0 0.00030878982512103439 -0.002719249118386626 0 0.00025443224924006307 -0.0026024484674036933 0 0.00036497360899762055 -0.0026022134821078787 0 0.00030878982512103445 -0.0027192491183866264 0 0.00030727954702985136 -0.0025145716833192997 0 -0.00056998497411056093 -0.0020552560952969501 0 -0.00067829723850716596 -0.0020701424969783843 0 -0.00061715862776920069 -0.0019669303168440015 0 -0.00061546086004172986 -0.0021633898672672874 0 -0.00067829723850716596 -0.0020701424969783843 0 -0.00056998497411056093 -0.0020552560952969501 0 0.00048737812729578579 -0.00096225660289514297 0 0.00059053838179348576 -0.00099845958493737755 0 0.00055107851097449577 -0.0010723742022055794 0 0.0005058332430106084 -0.00087498335717692657 0 0.00059053838179348587 -0.00099845958493737777 0 0.00048737812729578579 -0.00096225660289514297 0 -0.0001628436896230598 -0.00045473354900026265 0 -0.00011149425901773935 -0.00028281456462827642 0 -0.00011414594681750162 -0.00037298054462422026 0 -0.00017210524351183958 -0.00038595047100238903 0 -0.00011149425901773935 -0.00028281456462827642 0 -0.0001628436896230598 -0.00045473354900026265 0 -1.4584122386418501e-05 -0.0017441671650800764 0 2.0989052265225878e-05 -0.0019106979038204554 0 -8.077993433976053e-05 -0.0018693503458147302 0 8.0524058233772598e-05 -0.0011905113090646914 0 7.8336196956977017e-06 -0.0011370841188982721 0 7.3621826867443864e-05 -0.0010445817783564415 0 -0.00011772062065018215 -0.002783941417525226 0 -2.2815665778698825e-05 -0.0027424447227871046 0 -2.4677547222982075e-05 -0.0028887928072678943 0 -0.00068091347544273738 -0.0013412833991646213 0 -0.00067480563934189215 -0.0014974435569858244 0 -0.00074889562391318096 -0.0015123731812703273 0 0.00070835729171091623 -0.0017424721151390677 0 0.00067971464210704179 -0.0015759287761445584 0 0.00075444860663591729 -0.0015943810325506778 0 3.3819339041898779e-05 -0.00022152813764416863 0 7.5965499976351333e-06 -0.00025217393877012312 0 4.7618211926426952e-06 -0.00014328799741323696 0 -1.4584122386418501e-05 -0.0017441671650800764 0 6.3306346756430393e-05 -0.0017814976565179766 0 2.0989052265225878e-05 -0.0019106979038204554 0 0.00011817310408176279 -0.0019015997981580834 0 2.0989052265225878e-05 -0.0019106979038204554 0 6.3306346756430393e-05 -0.0017814976565179766 0 6.5427027098777604e-05 -0.00016468884182702895 0 0.00010485455664314793 -0.0002732977884721929 0 7.263298718828288e-05 -0.00025421932821507922 0 0.00075710957549228236 -0.002043625292384956 0 0.00068395127966545174 -0.0020496885445866453 0 0.00069298260713085728 -0.0019209576031736348 0 -0.00028982272758948602 -0.0028702173125676931 0 -0.00029690733281405838 -0.0027301593351504523 0 -0.00022264783821570152 -0.0027478050160482264 0 -0.00067532908977146653 -0.0010658171515692569 0 -0.00060045223028004093 -0.0010222445194050674 0 -0.00063582496030049017 -0.0011550432491006855 0 0.00059311295890706922 -0.0025758263202165024 0 0.0005307081453056183 -0.0024636252643902763 0 0.00061075384492587949 -0.0023898521056390067 0 -0.00059325438624396962 -0.0025757588459656053 0 -0.0005346698868504854 -0.0024569407124472443 0 -0.00049076457204165155 -0.0026015011076276169 0 0.00033605708391642596 -0.0004559079622839934 0 0.00034333877190306333 -0.00055669100334754923 0 0.00024881938132568821 -0.00040472894708198465 0 -0.00033359810057966439 -0.00045231200244240556 0 -0.00032728033882159627 -0.00053506013805983967 0 -0.00043037459001602895 -0.00064478860129303368 0 0.00061696944797810804 -0.0019670048956440373 0 0.00055297309639860254 -0.0020622681485573825 0 0.0005400442552931789 -0.0018690687971697326 0 -0.00025455005838545601 -0.0026024389386791872 0 -0.00031248185941593976 -0.0024828740901597837 0 -0.00020548880595794701 -0.0024571719795303221 0 0.00011408350312349279 -0.00037370556290846534 0 0.00017276947938092853 -0.00048178938623910872 0 0.00011498723905933089 -0.0004924811972477275 0 -0.00055129806856070299 -0.001071878903791788 0 -0.00046956079759329962 -0.00094790099890718386 0 -0.00049244982277796409 -0.0011363652822387693 0 0.00020129482982491812 -0.0018124337680241504 0 0.00021003552261464068 -0.0016350562496757239 0 0.00027695334849014866 -0.0017728251840367188 0 0.0004414553218660387 -0.002822915541195846 0 0.00050883782162799778 -0.0027592226382689004 0 0.0005066579323108664 -0.0029529007316713399 0 -0.00073030578304668641 -0.0023084328123780451 0 -0.00069469154699254153 -0.0024276941450847829 0 -0.00079756293703183443 -0.0024259159516035306 0 0.00057611134135843167 -0.0028480551037778816 0 0.0005066579323108664 -0.0029529007316713399 0 0.00050883782162799778 -0.0027592226382689004 0 -0.00074064800300682493 -0.0025504589944317087 0 -0.00079756293703183443 -0.0024259159516035306 0 -0.00069469154699254153 -0.0024276941450847829 0 0.00043392863244599725 -0.0024535156350368056 0 0.0005307081453056183 -0.0024636252643902763 0 0.00051167252803193406 -0.00259550556951634 0 0.00059311295890706922 -0.0025758263202165024 0 0.00051167252803193406 -0.00259550556951634 0 0.0005307081453056183 -0.0024636252643902763 0 -0.00053350693597410822 -0.0022797885457384284 0 -0.0005346698868504854 -0.0024569407124472443 0 -0.00060696266677180959 -0.0024274308968758201 0 -0.00059325438624396962 -0.0025757588459656053 0 -0.00060696266677180959 -0.0024274308968758201 0 -0.0005346698868504854 -0.0024569407124472443 0 0.00039664971646456699 -0.00072466652263408586 0 0.00034333877190306333 -0.00055669100334754923 0 0.00043414133490176141 -0.00064259185779430702 0 0.00033605708391642596 -0.0004559079622839934 0 0.00043414133490176141 -0.00064259185779430702 0 0.00034333877190306333 -0.00055669100334754923 0 -0.0002622565517840342 -0.00052855279824005853 0 -0.00032728033882159627 -0.00053506013805983967 0 -0.00024383218549576624 -0.00039134474839454269 0 -0.00033359810057966439 -0.00045231200244240556 0 -0.00024383218549576624 -0.00039134474839454269 0 -0.00032728033882159627 -0.00053506013805983967 0 0.00072267769825436949 -0.002823629360028489 0 0.00079798651818732669 -0.0029568081961890485 0 0.00073636412943029785 -0.0030124937570483387 0 0.00028025184628800357 -0.00026708537262241916 0 0.00021231416001236649 -0.00016676776199276461 0 0.00036278062128061901 -0.00032391036703085277 0 0.00028025184628800357 -0.00026708537262241916 0 0.00011958377573577276 -9.4775856943244419e-05 0 0.00021231416001236649 -0.00016676776199276461 0 -0.00072543252246632989 -0.0028186518265520062 0 -0.00079818247927485389 -0.0029567682762742047 0 -0.00082726506097820273 -0.0028418961748042752 0 0.00072267769825436949 -0.002823629360028489 0 0.00082705564492368178 -0.0028419394188928856 0 0.00079798651818732669 -0.0029568081961890485 0 -0.00028320869028988516 -0.00027105404421385242 0 -0.00021182178088607317 -0.00016628716444300472 0 -0.00011976608533091988 -9.5186681352782618e-05 0 -0.00028320869028988516 -0.00027105404421385242 0 -0.00036223720669516306 -0.00032410244691979544 0 -0.00021182178088607317 -0.00016628716444300469 0 -0.00072543252246632989 -0.0028186518265520062 0 -0.00073654788528485947 -0.0030124698495244905 0 -0.00079818247927485389 -0.0029567682762742047 0 0.00070835729171091623 -0.0017424721151390677 0 0.00077455772377681338 -0.0018801182677138548 0 0.00069298260713085728 -0.0019209576031736348 0 -0.00011772062065018215 -0.002783941417525226 0 -0.00019347864407218539 -0.0029074185489483427 0 -0.00022264783821570152 -0.0027478050160482264 0 3.3819339041898779e-05 -0.00022152813764416863 0 3.4968893577171995e-05 -0.00013436126572422059 0 7.263298718828288e-05 -0.00025421932821507922 0 -0.00068091347544273738 -0.0013412833991646213 0 -0.00072455837082579437 -0.0012353652282861051 0 -0.00063582496030049017 -0.0011550432491006855 0 0.00027338131459958125 -0.0019313512304868466 0 0.00026238610455789184 -0.0021078014328089313 0 0.00019630442916707474 -0.0020030948082757319 0 -0.00025341640239272815 -0.0019599588763507753 0 -0.00035218362783066332 -0.0019483127436756701 0 -0.00030048550630180877 -0.0018193648380703214 0 0.0002158627246075857 -0.00095890749613964331 0 0.00030190499753431841 -0.0009931516467554084 0 0.00026200820232082843 -0.0011041894590480869 0 -0.00023336095716769168 -0.00099158260154653824 0 -0.00020338388583689742 -0.00081978282526248684 0 -0.000160119649724107 -0.00090877227777839682 0 0.00086738571436736065 -0.0017238700963433109 0 0.0008748611114236998 -0.001876436205813746 0 0.00079732821853765404 -0.001744780337367723 0 -2.6408972262058677e-10 -1.0639519432916314e-07 0 8.2184013016495289e-09 -1.0263121951832261e-07 0 1.4889329733437505e-05 -9.4581126213377987e-05 0 -9.4081197257043649e-05 -0.0031045719046406566 0 -0.00018751712096717047 -0.0031071420157317733 0 -0.00011113424665087304 -0.0029605032500237892 0 -0.0008426425557088896 -0.0014274182578893487 0 -0.00082362203764794952 -0.0012820699324964529 0 -0.00077006384986123735 -0.0013793109942692346 0 0.00029373913072453878 -0.000245137909954492 0 0.00036278062128061901 -0.00032391036703085271 0 0.00021231416001236649 -0.00016676776199276461 0 4.7132121220659854e-09 -9.2315411422432601e-08 0 -0.00011976608533091988 -9.5186681352782618e-05 0 -0.00021182178088607317 -0.00016628716444300469 0 -5.1572377571555953e-09 -9.2680891218349367e-08 0 0.00021231416001236649 -0.00016676776199276461 0 0.00011958377573577279 -9.4775856943244433e-05 0 0.00090096975450117069 -0.0029901663913280709 0 0.00079798651818732669 -0.0029568081961890485 0 0.00082705564492368178 -0.0028419394188928856 0 0.00081835625431522807 -0.0031476648240367135 0 0.00073636412943029795 -0.0030124937570483391 0 0.00079798651818732669 -0.0029568081961890485 0 -0.00090115189951779965 -0.0029900864829071347 0 -0.00082726506097820273 -0.0028418961748042752 0 -0.00079818247927485389 -0.0029567682762742047 0 -0.00029344799525592592 -0.00024529728131553608 0 -0.00021182178088607317 -0.00016628716444300469 0 -0.00036223720669516306 -0.00032410244691979544 0 -0.00081850593184368996 -0.0031476153923780704 0 -0.00079818247927485389 -0.0029567682762742047 0 -0.00073654788528485947 -0.0030124698495244905 0 9.3928321130273793e-05 -0.0031044649406064221 0 9.8072494730095926e-05 -0.0029333255242149268 0 0.00017249950269278719 -0.0029705927781665756 0 -0.00086816507380268137 -0.0017236442352155862 0 -0.00078274030874696851 -0.0017212478530012215 0 -0.00080613265703452194 -0.0018478346853682283 0 0.00084339318925703475 -0.0014271005969084781 0 0.00075829168523830048 -0.0013971788907930754 0 0.00076105483525748616 -0.0012808057822483738 0 -2.9691958470445349e-09 -1.0271475615421554e-07 0 -1.4583277622066291e-05 -0.00011527301644874993 0 -2.1788000320270705e-05 -8.9227655256940306e-05 0 0.00033605708391642596 -0.0004559079622839934 0 0.00024881938132568821 -0.00040472894708198465 0 0.00023722346300344833 -0.00031993491589979011 0 -0.00033359810057966439 -0.00045231200244240556 0 -0.000430374590016029 -0.00064478860129303368 0 -0.00042711344292350393 -0.00054160433489153649 0 0.00043392863244599725 -0.0024535156350368056 0 0.00043860360600134896 -0.0026714953336141102 0 0.00036497360899762055 -0.0026022134821078787 0 -0.00053350693597410822 -0.0022797885457384284 0 -0.00065016938905676557 -0.0022986338945860298 0 -0.00061546086004172986 -0.0021633898672672874 0 0.00039664971646456699 -0.00072466652263408586 0 0.0004902285675943553 -0.00076647071111139286 0 0.0005058332430106084 -0.00087498335717692657 0 -0.0002622565517840342 -0.00052855279824005853 0 -0.00019558776070427604 -0.00036148599803985772 0 -0.00017210524351183958 -0.00038595047100238903 0 6.2793864720577633e-05 -0.0027258036749561333 0 -2.2815665778698825e-05 -0.0027424447227871046 0 -4.2630926730444335e-06 -0.0025744681491417301 0 -0.00067491157257300565 -0.0016429679266909696 0 -0.00067480563934189204 -0.0014974435569858244 0 -0.00059032100458638128 -0.0015092604436284861 0 0.00066035097245669046 -0.0014265578757110973 0 0.00067971464210704179 -0.0015759287761445584 0 0.00059106735355161054 -0.0015240237232807036 0 -2.1539808434663785e-05 -0.00026557218432332526 0 7.5965499976351333e-06 -0.00025217393877012312 0 2.393860280025029e-06 -0.00038485809836214728 0 -0.00054842950434011906 -0.0007901404652219231 0 -0.00060659183274321181 -0.00093884507478377802 0 -0.00066574829469395226 -0.00091683191101095581 0 -0.00043159744136343005 -0.0027583671960076757 0 -0.00035205274429898106 -0.0027882787218368129 0 -0.00038991732787846314 -0.0029415353988264475 0 0.00015056957677574056 -0.00026132603325518255 0 0.00010994480459326302 -0.00023173582763852608 0 6.6584893013000459e-05 -0.00011894208340156533 0 0.00069646742083742251 -0.0022889709364679618 0 0.00071393023586861944 -0.0021493365245548492 0 0.00079333793038081967 -0.0022191186952435476 0 0.00050376164812247792 -0.0021922793666956913 0 0.00047438770492686579 -0.0020716163609080999 0 0.00055297309639860254 -0.0020622681485573825 0 -0.00038746309060488828 -0.0023955820032518899 0 -0.00032278408902486154 -0.0023371813383147948 0 -0.00031248185941593976 -0.0024828740901597837 0 0.00024606421225666032 -0.0005737732931317556 0 0.00021316324198498686 -0.00061555844225946591 0 0.00017276947938092853 -0.00048178938623910872 0 -0.00039386117667325086 -0.00080094396891325934 0 -0.00039337884304925264 -0.00090981965655859598 0 -0.00046956079759329962 -0.00094790099890718386 0 0.00059311295890706922 -0.0025758263202165024 0 0.00061075384492587949 -0.0023898521056390067 0 0.00067619252195969762 -0.0025233018170527275 0 -0.00059325438624396962 -0.0025757588459656053 0 -0.00049076457204165155 -0.0026015011076276169 0 -0.00056242944060420246 -0.002727812901981048 0 0.00029295836652129228 -0.0016477192360074282 0 0.00025112717937458698 -0.001469215466295113 0 0.00034757873356029478 -0.0015649990001083108 0 0.00034519348177576987 -0.0014198096331978925 0 0.00034757873356029478 -0.0015649990001083108 0 0.00025112717937458698 -0.001469215466295113 0 0.00050376164812247792 -0.0021922793666956913 0 0.0004323545500572707 -0.0021623340274975087 0 0.00047438770492686579 -0.0020716163609080999 0 -0.00038746309060488828 -0.0023955820032518899 0 -0.00037521799555383746 -0.0022630441703290487 0 -0.00032278408902486154 -0.0023371813383147948 0 0.00024606421225666032 -0.0005737732931317556 0 0.00026791914458991207 -0.00069526930828643413 0 0.00021316324198498686 -0.00061555844225946591 0 -0.00039386117667325086 -0.00080094396891325934 0 -0.00033722689108506201 -0.00080708105243664711 0 -0.00039337884304925264 -0.00090981965655859598 0 0.00072267769825436949 -0.002823629360028489 0 0.00073636412943029785 -0.0030124937570483387 0 0.00066722880914375619 -0.0029672247783407448 0 -0.00072543252246632989 -0.0028186518265520062 0 -0.00082726506097820273 -0.0028418961748042752 0 -0.00080290225881487229 -0.002715683042750174 0 0.00028025184628800357 -0.00026708537262241916 0 0.00036278062128061901 -0.00032391036703085277 0 0.0004370113972925938 -0.00044208144096917956 0 0.00072267769825436949 -0.002823629360028489 0 0.00079097219836912606 -0.0026978999888521292 0 0.00082705564492368178 -0.0028419394188928856 0 0.00028025184628800357 -0.00026708537262241916 0 0.00013255011364773193 -0.00013455825131825536 0 0.00011958377573577279 -9.4775856943244433e-05 0 -0.00028320869028988516 -0.00027105404421385242 0 -0.00011976608533091988 -9.5186681352782618e-05 0 -0.00014111551248255816 -0.00014432656591795224 0 -0.00072543252246632989 -0.0028186518265520062 0 -0.00065738256519411729 -0.0029450341481235707 0 -0.00073654788528485947 -0.0030124698495244905 0 -0.00028320869028988516 -0.00027105404421385242 0 -0.00043360899856430144 -0.00043382639349962292 0 -0.00036223720669516306 -0.00032410244691979544 0 8.0524058233772598e-05 -0.0011905113090646914 0 7.3621826867443864e-05 -0.0010445817783564415 0 0.00016120462189033851 -0.0010910780467190634 0 -2.001456818020926e-06 -0.0010192418463524713 0 7.3621826867443864e-05 -0.0010445817783564415 0 7.8336196956977017e-06 -0.0011370841188982721 0 0.00029295836652129228 -0.0016477192360074282 0 0.00027695334849014866 -0.0017728251840367188 0 0.00021003552261464068 -0.0016350562496757239 0 -4.0244303549276686e-08 -0.0023769502469421634 0 -4.2630926730444335e-06 -0.0025744681491417301 0 -6.2119578241901673e-05 -0.0024685942085805935 0 -0.00048735401104801158 -0.0014945372583877944 0 -0.00059032100458638128 -0.0015092604436284861 0 -0.00052760460465188258 -0.0013942518249295786 0 0.00048715337448980943 -0.0014946373389635385 0 0.00059106735355161054 -0.0015240237232807033 0 0.00054077152726178708 -0.0016149198992848541 0 -1.085272067988078e-07 -0.00055322074001437312 0 2.393860280025029e-06 -0.00038485809836214728 0 3.3609238820766436e-05 -0.00047376527116027871 0 0.00036497360899762055 -0.0026022134821078787 0 0.00043860360600134896 -0.0026714953336141102 0 0.0003738408919382346 -0.0027914569454751343 0 -0.00061546086004172986 -0.0021633898672672874 0 -0.00065016938905676557 -0.0022986338945860298 0 -0.00071539936426844801 -0.0021880354385835458 0 0.0005058332430106084 -0.00087498335717692657 0 0.0004902285675943553 -0.00076647071111139286 0 0.00059368228502516027 -0.00089851086611133244 0 -0.00017210524351183958 -0.00038595047100238903 0 -0.00019558776070427602 -0.00036148599803985777 0 -0.00011801196862242831 -0.00023627517588477887 0 0.00043621457125300072 -0.0018270152262685514 0 0.00038704823994228368 -0.0019907110681523362 0 0.00034538684633860168 -0.0018384318565365643 0 -0.00019050902248235528 -0.0022623140332268784 0 -0.00028478562223628313 -0.0021780582316527374 0 -0.00020549640345244799 -0.0020932147038156997 0 0.00013060488942817964 -0.00066410213481783503 0 0.00021258242044274944 -0.00076115150784907405 0 0.00015705874065451739 -0.00082459915660415214 0 -0.00039682474884238729 -0.0011391652722110104 0 -0.00032806936243999794 -0.000962166504138438 0 -0.00031304932369715467 -0.0011181914031795882 0 0.00069646742083742251 -0.0022889709364679618 0 0.00061075384492587949 -0.0023898521056390067 0 0.00059440983037477052 -0.0022469572296949271 0 0.00015056957677574056 -0.00026132603325518255 0 0.00024881938132568821 -0.00040472894708198465 0 0.00021215761021675482 -0.00042432157922660333 0 -0.00043159744136343005 -0.0027583671960076757 0 -0.00049076457204165155 -0.0026015011076276164 0 -0.00041249292904136389 -0.0025658728984538828 0 -0.00054842950434011906 -0.0007901404652219231 0 -0.00043037459001602895 -0.00064478860129303368 0 -0.00046346443646940822 -0.00078124613029291923 0 0.00020129482982491812 -0.0018124337680241504 0 0.00013340813887951112 -0.0017279554237819841 0 0.00021003552261464068 -0.0016350562496757239 0 -0.00011394039708910011 -0.0016179507405808249 0 -0.00017623288553398223 -0.0015651509676070212 0 -8.2218628330307805e-05 -0.0014944721105488914 0 -0.00015522755390069825 -0.0014184155572110157 0 -8.2218628330307805e-05 -0.0014944721105488914 0 -0.00017623288553398223 -0.0015651509676070212 0 -0.00010231750146650698 -0.0020001302640350444 0 -0.00017034469531383042 -0.0019694461462500738 0 -8.077993433976053e-05 -0.0018693503458147302 0 -0.00016787806130479058 -0.0018346662470696158 0 -8.077993433976053e-05 -0.0018693503458147302 0 -0.00017034469531383042 -0.0019694461462500738 0 0.00055216072778408733 -0.00077679726117130536 0 0.00043414133490176141 -0.00064259185779430702 0 0.00050194142893678333 -0.00064913522134219534 0 -0.00014623723888970179 -0.00024669582187202921 0 -0.00024383218549576624 -0.00039134474839454269 0 -0.00017601969561089177 -0.00025439116490169757 0 -0.00015522755390069825 -0.0014184155572110157 0 -0.00024738168797337903 -0.0014936548069679559 0 -0.00020853118490728604 -0.0013152317938441712 0 0.00046370945745865042 -0.0031227535434188254 0 0.00040056954797063114 -0.0029587252780108944 0 0.0005066579323108664 -0.0029529007316713399 0 -0.00088725670486121194 -0.0023450637026269511 0 -0.00080241280176029093 -0.0022382952894311452 0 -0.00079756293703183443 -0.0024259159516035306 0 0.00071082306831711766 -0.00086041822915042449 0 0.0006655925989587319 -0.00090428656121840272 0 0.0006029842932625297 -0.00074381223704751112 0 -1.3839969801924239e-08 -1.0335224748973566e-07 0 -6.4041445884273994e-05 -0.0001122785654061305 0 -8.9239288117060135e-05 -0.00012523310264873059 0 0.00070835729171091623 -0.0017424721151390677 0 0.00079732821853765404 -0.001744780337367723 0 0.00077455772377681338 -0.0018801182677138548 0 3.3819339041898779e-05 -0.00022152813764416863 0 1.4889329733437505e-05 -9.4581126213377973e-05 0 3.4968893577171995e-05 -0.00013436126572422059 0 -0.00011772062065018215 -0.002783941417525226 0 -0.00011113424665087305 -0.0029605032500237892 0 -0.00019347864407218536 -0.0029074185489483427 0 -0.00068091347544273738 -0.0013412833991646213 0 -0.00077006384986123735 -0.0013793109942692346 0 -0.00072455837082579437 -0.0012353652282861051 0 -0.00016787806130479058 -0.0018346662470696158 0 -0.00016994080422147001 -0.0017035322354593087 0 -8.8799108824303764e-05 -0.0017262995240965578 0 -0.00010219939050620277 -0.00098699554142711609 0 -9.6545993681012139e-05 -0.00080979430232633938 0 -4.0631799563962197e-05 -0.00092371472533985411 0 -2.2680811177593991e-05 -0.00078744123537415848 0 -4.0631799563962197e-05 -0.00092371472533985411 0 -9.6545993681012126e-05 -0.00080979430232633938 0 0.00028025462858757123 -0.0031111436639179742 0 0.00018739050625692961 -0.0031071802802525488 0 0.00025423281136833863 -0.00296396965831965 0 -0.00088048698970442376 -0.0020307615318702452 0 -0.00087513742415724633 -0.0018761349367009616 0 -0.00080523844753351882 -0.0019854571289722651 0 0.00079604289599966688 -0.0011389713520059449 0 0.00082314070669799199 -0.001281783133703771 0 0.00073462640177798821 -0.0011468957905903031 0 -1.3078492602007233e-08 -1.0394521267176043e-07 0 -5.6721902259785209e-09 -1.0450872083785237e-07 0 -3.424491910504389e-05 -9.548063338562711e-05 0 0.00043392863244599725 -0.0024535156350368056 0 0.00044963454431125717 -0.0022785186478606026 0 0.00051631350135452312 -0.0023326159417223981 0 -0.00053350693597410822 -0.0022797885457384284 0 -0.0004376056701044224 -0.0022996325524372867 0 -0.00046389540757439218 -0.0024244699216701138 0 0.00039664971646456699 -0.00072466652263408586 0 0.0003096887618910455 -0.00067550624857152272 0 0.00029351936456304794 -0.00055887449867587436 0 -0.0002622565517840342 -0.00052855279824005853 0 -0.0003250647121619754 -0.0007000478193227226 0 -0.00036720924010650446 -0.00066331570382309577 0 0.00029373913072453878 -0.000245137909954492 0 0.00021231416001236649 -0.00016676776199276461 0 0.00013216888219297335 -0.00010307844005518609 0 4.7132121220659854e-09 -9.2315411422432601e-08 0 -0.00021182178088607317 -0.00016628716444300469 0 -0.0001318480462755286 -0.00010294205627396935 0 -5.1572377571555953e-09 -9.2680891218349367e-08 0 0.00013216888219297335 -0.00010307844005518609 0 0.00021231416001236649 -0.00016676776199276461 0 -0.00029344799525592592 -0.00024529728131553608 0 -0.0001318480462755286 -0.00010294205627396935 0 -0.00021182178088607317 -0.00016628716444300469 0 0.00090096975450117069 -0.0029901663913280709 0 0.00084611707253089716 -0.0030441538645494975 0 0.00079798651818732669 -0.0029568081961890485 0 0.00081835625431522807 -0.0031476648240367135 0 0.00079798651818732669 -0.0029568081961890485 0 0.00084611707253089716 -0.0030441538645494975 0 -0.00081850593184368996 -0.0031476153923780704 0 -0.00084983108429386746 -0.0030505166849828101 0 -0.00079818247927485389 -0.0029567682762742047 0 -0.00090115189951779965 -0.0029900864829071347 0 -0.00079818247927485389 -0.0029567682762742047 0 -0.00084983108429386746 -0.0030505166849828101 0 0.00072267769825436949 -0.002823629360028489 0 0.00070085512195412866 -0.0026636953447743863 0 0.00079097219836912606 -0.0026978999888521297 0 -0.00072543252246632989 -0.0028186518265520062 0 -0.00063860656541383186 -0.0027766691528886968 0 -0.00065738256519411729 -0.0029450341481235707 0 0.00074952311810810358 -0.0025551452303969277 0 0.00079097219836912606 -0.0026978999888521297 0 0.00070085512195412866 -0.0026636953447743863 0 0.00048580649401423504 -0.00055732747797244291 0 0.0003759670747915814 -0.00042112195081037363 0 0.0004370113972925938 -0.00044208144096917956 0 -0.00057867357786485323 -0.002865206510660846 0 -0.00065738256519411729 -0.0029450341481235707 0 -0.00063860656541383186 -0.0027766691528886968 0 -0.00016204705556374676 -0.00019643977475934017 0 -0.00025633467376374005 -0.00029254396874413003 0 -0.00014111551248255816 -0.00014432656591795224 0 0.00028025184628800357 -0.00026708537262241916 0 0.0004370113972925938 -0.00044208144096917956 0 0.0003759670747915814 -0.00042112195081037363 0 -0.00028320869028988516 -0.00027105404421385242 0 -0.00014111551248255816 -0.00014432656591795224 0 -0.00025633467376374005 -0.00029254396874413003 0 0.00013016817243744473 -0.0015907082907700727 0 0.00021003552261464068 -0.0016350562496757239 0 0.00013340813887951112 -0.0017279554237819841 0 0.00016120462189033851 -0.0010910780467190634 0 7.3621826867443864e-05 -0.0010445817783564415 0 0.00014393791562244523 -0.00094586613536046683 0 -0.00020548880595794701 -0.0024571719795303221 0 -0.00031248185941593976 -0.0024828740901597837 0 -0.00025714920235007227 -0.0023762509405460533 0 0.0005400442552931789 -0.0018690687971697326 0 0.00055297309639860243 -0.002062268148557382 0 0.00049675878198672768 -0.0019555543707537272 0 -0.00049244982277796409 -0.0011363652822387693 0 -0.00046956079759329962 -0.00094790099890718386 0 -0.00043517868198697648 -0.0010325285017129171 0 0.00011498723905933089 -0.0004924811972477275 0 0.00017276947938092853 -0.00048178938623910872 0 0.0001594233620242507 -0.00056916163591986472 0 -0.00017339807016339499 -0.0011842189414394261 0 -0.00020853118490728604 -0.0013152317938441712 0 -0.00023548904440243582 -0.0011385644926290262 0 -0.00027861079958827096 -0.0012680710337824822 0 -0.00023548904440243582 -0.0011385644926290262 0 -0.00020853118490728604 -0.0013152317938441712 0 -0.00016787806130479058 -0.0018346662470696158 0 -0.00017034469531383042 -0.0019694461462500734 0 -0.00025341640239272815 -0.0019599588763507753 0 6.2793864720577633e-05 -0.0027258036749561333 0 -4.2630926730444335e-06 -0.0025744681491417301 0 7.3754876333266301e-05 -0.0025862867459346571 0 -0.00067491157257300565 -0.0016429679266909696 0 -0.00059032100458638118 -0.0015092604436284861 0 -0.00060308766397507792 -0.0016476378240182625 0 0.00066035097245669046 -0.0014265578757110973 0 0.00059106735355161054 -0.0015240237232807038 0 0.0005864922076760042 -0.001388513562479728 0 -2.1539808434663785e-05 -0.00026557218432332526 0 2.3938602800250366e-06 -0.00038485809836214728 0 -3.2377812547647492e-05 -0.00037771276455037477 0 -0.00023112686914010788 -0.0018048766579479543 0 -0.00016787806130479058 -0.0018346662470696158 0 -0.00025341640239272815 -0.0019599588763507753 0 0.00027338131459958125 -0.0019313512304868466 0 0.00038704823994228368 -0.0019907110681523362 0 0.00031910399860972806 -0.0020553790988165079 0 -0.00025341640239272815 -0.0019599588763507753 0 -0.00028478562223628319 -0.0021780582316527374 0 -0.00032007128150621689 -0.0020491647858547268 0 0.0002158627246075857 -0.00095890749613964331 0 0.00021258242044274944 -0.00076115150784907405 0 0.00026079538099948291 -0.00088712554884000112 0 -0.00023336095716769168 -0.00099158260154653824 0 -0.00032806936243999794 -0.000962166504138438 0 -0.00025798713721507822 -0.00088128691883492091 0 0.00043392863244599725 -0.0024535156350368056 0 0.00036497360899762055 -0.0026022134821078787 0 0.00036048575079968817 -0.0024498156013983154 0 -0.00053350693597410822 -0.0022797885457384284 0 -0.00061546086004172986 -0.0021633898672672874 0 -0.00053393284634122105 -0.0021469294500814961 0 0.00039664971646456699 -0.00072466652263408586 0 0.0005058332430106084 -0.00087498335717692657 0 0.00043278369541784799 -0.00085632863093178929 0 -0.0002622565517840342 -0.00052855279824005853 0 -0.00017210524351183958 -0.00038595047100238903 0 -0.00021320271831208259 -0.00052075629396329981 0 -0.00010219939050620277 -0.00098699554142711609 0 -0.00011410520194028866 -0.0011378425517630398 0 -0.00016971357775011177 -0.0010587481512288183 0 0.00043392863244599725 -0.0024535156350368056 0 0.00051167252803193406 -0.00259550556951634 0 0.00043860360600134896 -0.0026714953336141102 0 -0.00053350693597410822 -0.0022797885457384284 0 -0.00060696266677180959 -0.0024274308968758201 0 -0.00065016938905676557 -0.0022986338945860298 0 0.00039664971646456699 -0.00072466652263408586 0 0.00043414133490176141 -0.00064259185779430702 0 0.0004902285675943553 -0.00076647071111139286 0 -0.0002622565517840342 -0.00052855279824005853 0 -0.00024383218549576624 -0.00039134474839454269 0 -0.00019558776070427602 -0.00036148599803985777 0 0.00011817310408176279 -0.0019015997981580834 0 0.00013340813887951112 -0.0017279554237819841 0 0.00020129482982491812 -0.0018124337680241504 0 0.00061696944797810804 -0.0019670048956440373 0 0.00063703037761678703 -0.0021435934106777861 0 0.00055297309639860254 -0.0020622681485573825 0 0.00011408350312349279 -0.00037370556290846534 0 0.00015302268001423226 -0.00034922935638649849 0 0.00017276947938092853 -0.00048178938623910872 0 -0.00025455005838545601 -0.0026024389386791872 0 -0.00035270666922402547 -0.0026424146499283612 0 -0.00031248185941593976 -0.0024828740901597837 0 -0.00055129806856070299 -0.001071878903791788 0 -0.00053208585998878479 -0.00090480508313616924 0 -0.00046956079759329962 -0.00094790099890718386 0 -0.00053350693597410822 -0.0022797885457384284 0 -0.00046389540757439218 -0.0024244699216701138 0 -0.0005346698868504854 -0.0024569407124472443 0 0.00043392863244599725 -0.0024535156350368056 0 0.00051631350135452312 -0.0023326159417223981 0 0.0005307081453056183 -0.0024636252643902763 0 -0.0002622565517840342 -0.00052855279824005853 0 -0.00036720924010650446 -0.00066331570382309577 0 -0.00032728033882159627 -0.00053506013805983967 0 0.00039664971646456699 -0.00072466652263408586 0 0.00029351936456304794 -0.00055887449867587436 0 0.00034333877190306333 -0.00055669100334754923 0 2.0989052265225878e-05 -0.0019106979038204554 0 -3.9545577425564037e-05 -0.0019924368415469938 0 -8.077993433976053e-05 -0.0018693503458147302 0 8.0524058233772598e-05 -0.0011905113090646914 0 0.00016120462189033851 -0.0010910780467190634 0 0.00015549248912242498 -0.0012499669969407155 0 0.00023293978340854663 -0.0012351493732807777 0 0.00015549248912242498 -0.0012499669969407155 0 0.00016120462189033851 -0.0010910780467190634 0 0.00036550162657425966 -0.0021423854183957249 0 0.00038704823994228368 -0.0019907110681523362 0 0.0004323545500572707 -0.0021623340274975092 0 -0.00036761051077845196 -0.0021391012146704485 0 -0.00028478562223628319 -0.0021780582316527374 0 -0.00037521799555383746 -0.0022630441703290487 0 0.00047438770492686579 -0.0020716163609080999 0 0.0004323545500572707 -0.0021623340274975092 0 0.00038704823994228368 -0.0019907110681523362 0 -0.00032278408902486154 -0.0023371813383147948 0 -0.00037521799555383746 -0.0022630441703290487 0 -0.00028478562223628319 -0.0021780582316527374 0 0.00028624483425328636 -0.00081157567441700253 0 0.00021258242044274944 -0.00076115150784907405 0 0.00026791914458991207 -0.00069526930828643413 0 -0.00028348466550334126 -0.00080818212121262605 0 -0.00032806936243999794 -0.000962166504138438 0 -0.00033722689108506201 -0.00080708105243664711 0 0.00021316324198498686 -0.00061555844225946591 0 0.00026791914458991207 -0.00069526930828643413 0 0.00021258242044274944 -0.00076115150784907405 0 -0.00039337884304925264 -0.00090981965655859598 0 -0.00033722689108506201 -0.00080708105243664711 0 -0.00032806936243999794 -0.000962166504138438 0 0.0004414553218660387 -0.002822915541195846 0 0.0003738408919382346 -0.0027914569454751343 0 0.00043860360600134896 -0.0026714953336141102 0 -0.00073030578304668641 -0.0023084328123780451 0 -0.00071539936426844801 -0.0021880354385835458 0 -0.00065016938905676557 -0.0022986338945860298 0 0.00055216072778408733 -0.00077679726117130536 0 0.00059368228502516027 -0.00089851086611133244 0 0.0004902285675943553 -0.00076647071111139286 0 -0.00014623723888970179 -0.00024669582187202921 0 -0.00011801196862242831 -0.00023627517588477887 0 -0.00019558776070427602 -0.00036148599803985777 0 0.00017813468447816245 -0.0022603990372439342 0 0.00025737115628707958 -0.0022633738290986907 0 0.00021617558654156628 -0.0024325795291098352 0 0.00030500692349971688 -0.0023809273068534625 0 0.00021617558654156628 -0.0024325795291098352 0 0.00025737115628707958 -0.0022633738290986907 0 -0.00043516824081897516 -0.0018049367325248253 0 -0.00043647500412140534 -0.0019485451902310567 0 -0.00052739480550766332 -0.0018864490327869059 0 -0.00049863370757563552 -0.0020424390857913333 0 -0.00052739480550766332 -0.0018864490327869059 0 -0.00043647500412140534 -0.0019485451902310567 0 0.00039867325433794041 -0.0011611026887656487 0 0.0003794303051865814 -0.001017918016192363 0 0.00047682557954670669 -0.0011134722269043943 0 0.00042164757010221352 -0.00094700280025246841 0 0.00047682557954670669 -0.0011134722269043943 0 0.0003794303051865814 -0.001017918016192363 0 -0.00012288915583062997 -0.0006660299251321618 0 -0.00017834229059422309 -0.00067285085658223701 0 -0.00012526114497611129 -0.00051431233944689101 0 -0.00019200980342683641 -0.00057275876775934051 0 -0.00012526114497611129 -0.00051431233944689101 0 -0.00017834229059422309 -0.00067285085658223701 0 0.00075710957549228236 -0.002043625292384956 0 0.00077455772377681338 -0.0018801182677138548 0 0.00082293949573466986 -0.0019833494121076801 0 6.5427027098777604e-05 -0.00016468884182702895 0 3.4968893577171995e-05 -0.00013436126572422059 0 2.5734753939986337e-05 -7.1464944693482572e-05 0 -0.00028982272758948602 -0.0028702173125676931 0 -0.00019347864407218536 -0.0029074185489483427 0 -0.00025295135158754761 -0.0029994983814685726 0 -0.00067532908977146653 -0.0010658171515692569 0 -0.00072455837082579437 -0.0012353652282861051 0 -0.00075211967254242809 -0.0011570778762723681 0 0.00027338131459958125 -0.0019313512304868466 0 0.00031910399860972806 -0.0020553790988165079 0 0.00026238610455789184 -0.0021078014328089313 0 -0.00025341640239272815 -0.0019599588763507753 0 -0.00032007128150621689 -0.0020491647858547268 0 -0.00035218362783066332 -0.0019483127436756701 0 0.0002158627246075857 -0.00095890749613964331 0 0.00026079538099948291 -0.00088712554884000112 0 0.00030190499753431841 -0.0009931516467554084 0 -0.00023336095716769168 -0.00099158260154653824 0 -0.00025798713721507822 -0.00088128691883492091 0 -0.00020338388583689742 -0.00081978282526248684 0 0.00043392863244599725 -0.0024535156350368056 0 0.00038269224153504404 -0.0022979932060080712 0 0.00044963454431125717 -0.0022785186478606026 0 -0.00053350693597410822 -0.0022797885457384284 0 -0.00045148557632547449 -0.0021781491166834093 0 -0.0004376056701044224 -0.0022996325524372867 0 0.00039664971646456699 -0.00072466652263408586 0 0.00035014373917508228 -0.00079651744737792675 0 0.00030968876189104555 -0.00067550624857152283 0 -0.0002622565517840342 -0.00052855279824005853 0 -0.00026576045645530235 -0.00066281961431924829 0 -0.0003250647121619754 -0.0007000478193227226 0 -0.00011394039708910011 -0.0016179507405808249 0 -8.8799108824303764e-05 -0.0017262995240965578 0 -0.00016994080422147001 -0.0017035322354593087 0 -5.6721902259785209e-09 -1.0450872083785237e-07 0 -2.9691958470445349e-09 -1.0271475615421554e-07 0 -2.1788000320270705e-05 -8.9227655256940306e-05 0 0.00082314070669799199 -0.001281783133703771 0 0.00084339318925703475 -0.0014271005969084781 0 0.00076105483525748616 -0.0012808057822483738 0 -0.00087513742415724633 -0.0018761349367009616 0 -0.00086816507380268137 -0.0017236442352155862 0 -0.00080613265703452194 -0.0018478346853682283 0 0.00018739050625692961 -0.0031071802802525488 0 9.3928321130273793e-05 -0.0031044649406064221 0 0.00017249950269278719 -0.0029705927781665756 0 0.00029373913072453878 -0.000245137909954492 0 0.00044580024964932031 -0.00041981422699627178 0 0.00036278062128061901 -0.00032391036703085277 0 4.7132121220659854e-09 -9.2315411422432601e-08 0 -4.8331997351217786e-08 -1.3053304833523818e-07 0 -0.00011976608533091988 -9.5186681352782618e-05 0 0.00081835625431522807 -0.0031476648240367135 0 0.00073074164837101576 -0.0031421517106679838 0 0.00073636412943029785 -0.0030124937570483387 0 -0.00090115189951779965 -0.0029900864829071347 0 -0.00089681217107323314 -0.0028276966143886925 0 -0.00082726506097820273 -0.0028418961748042752 0 0.00089659760135317706 -0.0028277818360041033 0 0.00090096975450117069 -0.0029901663913280709 0 0.00082705564492368178 -0.0028419394188928856 0 4.8320060929260879e-08 -1.2940315324503807e-07 0 -5.1572377571555953e-09 -9.2680891218349367e-08 0 0.00011958377573577279 -9.4775856943244433e-05 0 -0.00073088536285865558 -0.0031421332070455934 0 -0.00081850593184368996 -0.0031476153923780704 0 -0.00073654788528485947 -0.0030124698495244905 0 -0.0004453089372286012 -0.00042008619758448124 0 -0.00029344799525592592 -0.00024529728131553608 0 -0.00036223720669516306 -0.00032410244691979544 0 0.00069646742083742251 -0.0022889709364679618 0 0.00059440983037477052 -0.0022469572296949271 0 0.00063703037761678703 -0.0021435934106777861 0 0.00015056957677574056 -0.00026132603325518255 0 0.00021215761021675482 -0.00042432157922660333 0 0.00015302268001423226 -0.00034922935638649849 0 -0.00043159744136343005 -0.0027583671960076757 0 -0.00041249292904136389 -0.0025658728984538828 0 -0.00035270666922402547 -0.0026424146499283612 0 -0.00054842950434011906 -0.0007901404652219231 0 -0.00046346443646940822 -0.00078124613029291923 0 -0.00053208585998878479 -0.00090480508313616924 0 2.6803467128952884e-05 -0.0021004549845037171 0 8.0989056421531001e-05 -0.0022679320105966289 0 -1.6979444800785266e-05 -0.00223513431880224 0 -0.00034448850240516098 -0.0015181116397544039 0 -0.00043618837321775158 -0.0016297367657862659 0 -0.00041132627552729163 -0.0014502224867977316 0 0.00034519348177576987 -0.0014198096331978925 0 0.00042041974027770746 -0.0013372813318653031 0 0.00041500252399641742 -0.0015035690389533479 0 -2.2680811177593991e-05 -0.00078744123537415848 0 -5.4579495180983539e-05 -0.00065106181868156523 0 8.9413729639215735e-06 -0.00067702965159626783 0 0.00029295836652129228 -0.0016477192360074282 0 0.00021003552261464068 -0.0016350562496757239 0 0.00025112717937458698 -0.001469215466295113 0 8.6109761022455501e-05 -0.0009034287050060484 0 0.00014393791562244523 -0.00094586613536046683 0 7.3621826867443864e-05 -0.0010445817783564415 0 -0.00015522755390069825 -0.0014184155572110157 0 -0.00012865057887192981 -0.0012740461180003075 0 -6.5757131004032411e-05 -0.0013561139475055074 0 0.00025443224924006307 -0.0026024484674036933 0 0.00021617558654156628 -0.0024325795291098352 0 0.00030727954702985136 -0.0025145716833192997 0 -0.00061715862776920069 -0.0019669303168440015 0 -0.00052739480550766332 -0.0018864490327869059 0 -0.00056998497411056093 -0.0020552560952969501 0 0.00055107851097449577 -0.0010723742022055794 0 0.00047682557954670669 -0.0011134722269043943 0 0.00048737812729578579 -0.00096225660289514297 0 -0.00011414594681750162 -0.00037298054462422026 0 -0.00012526114497611129 -0.00051431233944689101 0 -0.0001628436896230598 -0.00045473354900026265 0 0.00018739050625692961 -0.0031071802802525488 0 0.00017249950269278719 -0.0029705927781665756 0 0.00025423281136833863 -0.00296396965831965 0 -0.00087513742415724633 -0.0018761349367009616 0 -0.00080613265703452194 -0.0018478346853682283 0 -0.00080523844753351882 -0.0019854571289722651 0 0.00082314070669799199 -0.001281783133703771 0 0.00076105483525748616 -0.0012808057822483738 0 0.00073462640177798821 -0.0011468957905903031 0 -5.6721902259785209e-09 -1.0450872083785237e-07 0 -2.1788000320270705e-05 -8.9227655256940306e-05 0 -3.424491910504389e-05 -9.548063338562711e-05 0 0.00027338131459958125 -0.0019313512304868466 0 0.00020129482982491815 -0.0018124337680241504 0 0.00027695334849014866 -0.0017728251840367188 0 0.0002158627246075857 -0.00095890749613964331 0 0.00016120462189033851 -0.0010910780467190634 0 0.00014393791562244523 -0.00094586613536046683 0 0.00011817310408176279 -0.0019015997981580834 0 0.00019630442916707474 -0.0020030948082757319 0 0.00012758124110252432 -0.0021016883583354099 0 -0.00024913261668034367 -0.0016787779268356143 0 -0.00030048550630180877 -0.0018193648380703214 0 -0.0003478223057891405 -0.0016971884668793029 0 0.00023293978340854663 -0.0012351493732807777 0 0.00026200820232082843 -0.0011041894590480869 0 0.00032644158794473252 -0.0012404974724594445 0 -0.00010219939050620277 -0.00098699554142711609 0 -0.000160119649724107 -0.00090877227777839682 0 -9.6545993681012126e-05 -0.00080979430232633938 0 8.2184013016495289e-09 -1.0263121951832261e-07 0 2.5734753939986337e-05 -7.1464944693482572e-05 0 3.4968893577171995e-05 -0.00013436126572422059 0 0.0008748611114236998 -0.001876436205813746 0 0.00082293949573466986 -0.0019833494121076801 0 0.00077455772377681338 -0.0018801182677138548 0 -0.00082362203764794952 -0.0012820699324964529 0 -0.00075211967254242809 -0.0011570778762723681 0 -0.00072455837082579437 -0.0012353652282861051 0 -0.00018751712096717047 -0.0031071420157317733 0 -0.00025295135158754761 -0.0029994983814685726 0 -0.00019347864407218536 -0.0029074185489483427 0 -4.0244303549276686e-08 -0.0023769502469421634 0 -1.6979444800785266e-05 -0.00223513431880224 0 8.0989056421531001e-05 -0.0022679320105966289 0 -0.00048735401104801158 -0.0014945372583877944 0 -0.00041132627552729163 -0.0014502224867977316 0 -0.00043618837321775158 -0.0016297367657862659 0 0.00048715337448980943 -0.0014946373389635385 0 0.00041500252399641742 -0.0015035690389533479 0 0.00042041974027770746 -0.0013372813318653031 0 -1.085272067988078e-07 -0.00055322074001437312 0 8.9413729639215735e-06 -0.00067702965159626783 0 -5.4579495180983539e-05 -0.00065106181868156523 0 -0.00019050902248235528 -0.0022623140332268784 0 -0.00012180975320461085 -0.0023790656854342151 0 -0.00020548880595794701 -0.0024571719795303221 0 -0.00039682474884238729 -0.0011391652722110104 0 -0.00047093164650324591 -0.001276591798476993 0 -0.00049244982277796409 -0.0011363652822387693 0 0.00043621457125300072 -0.0018270152262685514 0 0.00049677533869442101 -0.0017128364142244689 0 0.0005400442552931789 -0.0018690687971697326 0 0.00013060488942817964 -0.00066410213481783503 0 7.3418818299869699e-05 -0.00055302325273853424 0 0.00011498723905933089 -0.0004924811972477275 0 0.00050376164812247792 -0.0021922793666956913 0 0.00044963454431125717 -0.0022785186478606026 0 0.0004323545500572707 -0.0021623340274975092 0 -0.00038746309060488828 -0.0023955820032518899 0 -0.0004376056701044224 -0.0022996325524372867 0 -0.00037521799555383746 -0.0022630441703290487 0 0.00024606421225666032 -0.0005737732931317556 0 0.00030968876189104555 -0.00067550624857152283 0 0.00026791914458991207 -0.00069526930828643413 0 -0.00039386117667325086 -0.00080094396891325934 0 -0.0003250647121619754 -0.00070004781932272249 0 -0.00033722689108506201 -0.00080708105243664711 0 -1.4584122386418501e-05 -0.0017441671650800764 0 5.44867052721195e-05 -0.0016202989137231493 0 6.3306346756430393e-05 -0.0017814976565179766 0 -0.00015522755390069825 -0.0014184155572110157 0 -6.5757131004032398e-05 -0.0013561139475055074 0 -8.2218628330307805e-05 -0.0014944721105488914 0 0.00030500692349971688 -0.0023809273068534625 0 0.00030727954702985136 -0.0025145716833192997 0 0.00021617558654156628 -0.0024325795291098352 0 -0.00049863370757563552 -0.0020424390857913333 0 -0.00056998497411056093 -0.0020552560952969501 0 -0.00052739480550766332 -0.0018864490327869059 0 0.00042164757010221352 -0.00094700280025246841 0 0.00048737812729578579 -0.00096225660289514297 0 0.00047682557954670669 -0.0011134722269043943 0 -0.00019200980342683641 -0.00057275876775934051 0 -0.0001628436896230598 -0.00045473354900026265 0 -0.00012526114497611129 -0.00051431233944689101 0 0.00033605708391642596 -0.0004559079622839934 0 0.00042621737462652284 -0.00054149548007275761 0 0.00043414133490176141 -0.00064259185779430702 0 -0.00033359810057966439 -0.00045231200244240556 0 -0.00023808444419929459 -0.00032190399930741607 0 -0.00024383218549576624 -0.00039134474839454269 0 0.00015400078615041403 -0.0013870559586572485 0 0.00021449392024842557 -0.0013375638917686463 0 0.00025112717937458698 -0.001469215466295113 0 0.00016803278049879416 -0.0015110386772124583 0 0.00015400078615041403 -0.0013870559586572485 0 0.00025112717937458698 -0.001469215466295113 0 6.2793864720577633e-05 -0.0027258036749561333 0 7.3754876333266301e-05 -0.0025862867459346571 0 0.00015100855715584593 -0.0026769206218261537 0 0.00012303301979051207 -0.0025036068179387192 0 0.00015100855715584593 -0.0026769206218261537 0 7.3754876333266301e-05 -0.0025862867459346571 0 -0.00067491157257300565 -0.0016429679266909696 0 -0.00060308766397507792 -0.0016476378240182625 0 -0.00065471784162170373 -0.0017913772965439578 0 -0.00056267062760564327 -0.0017264892236535517 0 -0.00065471784162170373 -0.0017913772965439578 0 -0.00060308766397507792 -0.0016476378240182625 0 0.00066035097245669046 -0.0014265578757110973 0 0.0005864922076760042 -0.001388513562479728 0 0.00061864751434908194 -0.0012667145803409612 0 0.00053495724946371951 -0.0012901347154886456 0 0.00061864751434908204 -0.0012667145803409612 0 0.0005864922076760042 -0.001388513562479728 0 -2.1539808434663785e-05 -0.00026557218432332526 0 -3.2377812547647492e-05 -0.00037771276455037477 0 -5.7679013954776572e-05 -0.00030608341621498876 0 -6.2973000533973888e-05 -0.00044722311436314939 0 -5.7679013954776578e-05 -0.00030608341621498876 0 -3.2377812547647492e-05 -0.00037771276455037477 0 0.00036497360899762055 -0.0026022134821078787 0 0.0003738408919382346 -0.0027914569454751343 0 0.00030878982512103445 -0.0027192491183866264 0 -0.00061546086004172986 -0.0021633898672672874 0 -0.00071539936426844801 -0.0021880354385835458 0 -0.00067829723850716596 -0.0020701424969783843 0 0.0005058332430106084 -0.00087498335717692657 0 0.00059368228502516027 -0.00089851086611133244 0 0.00059053838179348587 -0.00099845958493737777 0 -0.00017210524351183958 -0.00038595047100238903 0 -0.00011801196862242831 -0.00023627517588477887 0 -0.00011149425901773935 -0.00028281456462827642 0 0.00061075384492587949 -0.0023898521056390067 0 0.00051631350135452312 -0.0023326159417223981 0 0.00059440983037477052 -0.0022469572296949271 0 -0.00049076457204165155 -0.0026015011076276169 0 -0.00046389540757439218 -0.0024244699216701138 0 -0.00041249292904136389 -0.0025658728984538828 0 0.00024881938132568821 -0.00040472894708198465 0 0.00029351936456304794 -0.00055887449867587436 0 0.00021215761021675482 -0.00042432157922660333 0 -0.00043037459001602895 -0.00064478860129303368 0 -0.00036720924010650446 -0.00066331570382309577 0 -0.00046346443646940822 -0.00078124613029291923 0 0.00055216072778408733 -0.00077679726117130536 0 0.0004902285675943553 -0.00076647071111139286 0 0.00043414133490176141 -0.00064259185779430702 0 -0.00014623723888970179 -0.00024669582187202921 0 -0.00019558776070427602 -0.00036148599803985777 0 -0.00024383218549576624 -0.00039134474839454269 0 -4.2630926730444335e-06 -0.0025744681491417301 0 -8.492954321668611e-05 -0.0026266832057021627 0 -6.2119578241901673e-05 -0.0024685942085805935 0 -0.00059032100458638128 -0.0015092604436284861 0 -0.00060615388163616534 -0.0013743992093813032 0 -0.00052760460465188258 -0.0013942518249295786 0 0.00059106735355161054 -0.0015240237232807036 0 0.00062507156746531025 -0.0016711429499940444 0 0.00054077152726178708 -0.0016149198992848541 0 2.393860280025029e-06 -0.00038485809836214728 0 3.6007473088406201e-05 -0.00034356731760281598 0 3.3609238820766436e-05 -0.00047376527116027871 0 2.6803467128952884e-05 -0.0021004549845037171 0 -3.9545577425564037e-05 -0.0019924368415469938 0 2.0989052265225878e-05 -0.0019106979038204554 0 -0.00034448850240516098 -0.0015181116397544039 0 -0.00028442515573346523 -0.0013906144603367991 0 -0.00024738168797337903 -0.0014936548069679559 0 0.00018701016098997977 -0.0025604942301814633 0 0.00025443224924006307 -0.0026024484674036933 0 0.00022803869526380021 -0.0027067156311487055 0 -0.00059451231788934414 -0.0018447674214024552 0 -0.00061715862776920069 -0.0019669303168440015 0 -0.00067167550918956394 -0.0019278700693140106 0 0.00054965953211645645 -0.0011847237244773645 0 0.00055107851097449577 -0.0010723742022055794 0 0.00061318978770023044 -0.0011377992805706627 0 -8.8093169875713023e-05 -0.0004029743643878348 0 -0.00011414594681750162 -0.00037298054462422026 0 -8.2313380266045468e-05 -0.00028684470515988087 0 0.00034519348177576987 -0.0014198096331978925 0 0.00025112717937458698 -0.001469215466295113 0 0.00027816495330605764 -0.0013495662033365704 0 0.00013016817243744473 -0.0015907082907700727 0 5.44867052721195e-05 -0.0016202989137231493 0 9.415066450866062e-05 -0.0014758851469700016 0 5.6766695328777525e-06 -0.0014471037303419754 0 1.2567103218702034e-05 -0.0012797940247105 0 8.1284510740048903e-05 -0.0013333063606821378 0 0.00015100855715584593 -0.0026769206218261537 0 0.00018701016098997974 -0.0025604942301814633 0 0.00022803869526380021 -0.0027067156311487055 0 -0.00065471784162170373 -0.0017913772965439578 0 -0.00059451231788934414 -0.0018447674214024552 0 -0.00067167550918956394 -0.0019278700693140106 0 0.00061864751434908194 -0.0012667145803409612 0 0.00054965953211645645 -0.0011847237244773645 0 0.00061318978770023044 -0.0011377992805706627 0 -5.7679013954776572e-05 -0.00030608341621498876 0 -8.8093169875713023e-05 -0.0004029743643878348 0 -8.2313380266045468e-05 -0.00028684470515988087 0 -0.00024913261668034367 -0.0016787779268356143 0 -0.00024738168797337903 -0.0014936548069679559 0 -0.00017623288553398223 -0.0015651509676070212 0 -0.00012600379823060303 -0.0025156371475970689 0 -6.2119578241901673e-05 -0.0024685942085805935 0 -8.492954321668611e-05 -0.0026266832057021627 0 -0.00054076028314550741 -0.0012867469769396241 0 -0.00052760460465188258 -0.0013942518249295786 0 -0.00060615388163616534 -0.0013743992093813032 0 0.00056897587136068759 -0.0017327254000370162 0 0.00054077152726178708 -0.0016149198992848541 0 0.00062507156746531025 -0.0016711429499940444 0 6.3647416142173071e-05 -0.00043610068159435743 0 3.3609238820766436e-05 -0.00047376527116027871 0 3.6007473088406201e-05 -0.00034356731760281598 0 0.00055216072778408733 -0.00077679726117130536 0 0.00050194142893678333 -0.00064913522134219534 0 0.0006029842932625297 -0.00074381223704751112 0 0.00048580649401423504 -0.00055732747797244291 0 0.0006029842932625297 -0.00074381223704751112 0 0.00050194142893678333 -0.00064913522134219534 0 -0.00014623723888970179 -0.00024669582187202921 0 -0.00017601969561089177 -0.00025439116490169757 0 -8.9239288117060135e-05 -0.00012523310264873059 0 -0.00016204705556374676 -0.00019643977475934017 0 -8.9239288117060135e-05 -0.00012523310264873059 0 -0.00017601969561089177 -0.00025439116490169757 0 5.6766695328777525e-06 -0.0014471037303419754 0 8.1284510740048903e-05 -0.0013333063606821378 0 9.415066450866062e-05 -0.0014758851469700016 0 -0.00033359810057966439 -0.00045231200244240556 0 -0.00042711344292350388 -0.00054160433489153649 0 -0.00035930689082639138 -0.00041343783678535385 0 0.00033605708391642596 -0.0004559079622839934 0 0.00023722346300344833 -0.00031993491589979011 0 0.00027596851659718568 -0.00032377495886222598 0 0.0004414553218660387 -0.002822915541195846 0 0.00043860360600134896 -0.0026714953336141102 0 0.00050883782162799778 -0.0027592226382689004 0 0.00051167252803193406 -0.00259550556951634 0 0.00050883782162799778 -0.0027592226382689004 0 0.00043860360600134896 -0.0026714953336141102 0 -0.00073030578304668641 -0.0023084328123780451 0 -0.00065016938905676557 -0.0022986338945860298 0 -0.00069469154699254153 -0.0024276941450847829 0 -0.00060696266677180959 -0.0024274308968758201 0 -0.00069469154699254153 -0.0024276941450847829 0 -0.00065016938905676557 -0.0022986338945860298 0 0.00016893474922149851 -0.00019983658043939322 0 0.00016640383830776831 -0.00024217543317365696 0 9.0602672353370839e-05 -0.0001274109629829303 0 -0.00047845258882856938 -0.00054583415860826501 0 -0.00051434255678221505 -0.0006638134328242431 0 -0.00060540532851583752 -0.00075138809422986455 0 0.00074952311810810358 -0.0025551452303969277 0 0.00072296459166079814 -0.0024255485329327505 0 0.00079216363806477433 -0.0023963807419900905 0 -0.00057867357786485323 -0.002865206510660846 0 -0.00050717474522216847 -0.0028128191293940686 0 -0.00049031584838925724 -0.0029421214558902902 0 0.00015056957677574056 -0.00026132603325518255 0 9.0602672353370839e-05 -0.0001274109629829303 0 0.00016640383830776831 -0.00024217543317365696 0 -0.00054842950434011906 -0.0007901404652219231 0 -0.00060540532851583752 -0.00075138809422986455 0 -0.00051434255678221505 -0.0006638134328242431 0 0.00069646742083742251 -0.0022889709364679618 0 0.00079216363806477433 -0.0023963807419900905 0 0.00072296459166079814 -0.0024255485329327505 0 -0.00043159744136343005 -0.0027583671960076757 0 -0.00049031584838925724 -0.0029421214558902902 0 -0.00050717474522216847 -0.0028128191293940686 0 0.0004323545500572707 -0.0021623340274975092 0 0.00038269224153504404 -0.0022979932060080712 0 0.00036550162657425966 -0.0021423854183957249 0 0.00044963454431125717 -0.0022785186478606026 0 0.00038269224153504404 -0.0022979932060080712 0 0.0004323545500572707 -0.0021623340274975092 0 -0.00037521799555383746 -0.0022630441703290487 0 -0.00045148557632547449 -0.0021781491166834093 0 -0.00036761051077845196 -0.0021391012146704485 0 -0.0004376056701044224 -0.0022996325524372867 0 -0.00045148557632547449 -0.0021781491166834093 0 -0.00037521799555383746 -0.0022630441703290487 0 0.00026791914458991207 -0.00069526930828643413 0 0.00035014373917508223 -0.00079651744737792675 0 0.00028624483425328636 -0.00081157567441700253 0 0.00030968876189104555 -0.00067550624857152283 0 0.00035014373917508228 -0.00079651744737792675 0 0.00026791914458991207 -0.00069526930828643413 0 -0.00033722689108506201 -0.00080708105243664711 0 -0.00026576045645530235 -0.00066281961431924829 0 -0.00028348466550334126 -0.00080818212121262605 0 -0.0003250647121619754 -0.0007000478193227226 0 -0.00026576045645530235 -0.00066281961431924829 0 -0.00033722689108506201 -0.00080708105243664711 0 0.00069646742083742251 -0.0022889709364679618 0 0.00063703037761678703 -0.0021435934106777861 0 0.00071393023586861944 -0.0021493365245548492 0 -0.00043159744136343005 -0.0027583671960076757 0 -0.00035270666922402547 -0.0026424146499283612 0 -0.00035205274429898106 -0.0027882787218368129 0 0.00015056957677574056 -0.00026132603325518255 0 0.00015302268001423226 -0.00034922935638649849 0 0.00010994480459326302 -0.00023173582763852608 0 -0.00054842950434011906 -0.0007901404652219231 0 -0.00053208585998878479 -0.00090480508313616934 0 -0.00060659183274321192 -0.00093884507478377802 0 0.00015400078615041403 -0.0013870559586572485 0 8.1284510740048903e-05 -0.0013333063606821378 0 0.00015549248912242498 -0.0012499669969407155 0 0.00023293978340854663 -0.0012351493732807777 0 0.00032644158794473252 -0.0012404974724594445 0 0.00027816495330605764 -0.0013495662033365704 0 0.00034519348177576987 -0.0014198096331978925 0 0.00027816495330605764 -0.0013495662033365704 0 0.00032644158794473252 -0.0012404974724594445 0 0.00059311295890706922 -0.0025758263202165024 0 0.00056654177539687393 -0.0026992786667401594 0 0.00051167252803193406 -0.00259550556951634 0 -0.00059325438624396962 -0.0025757588459656053 0 -0.00066100047712237039 -0.0025304391255435293 0 -0.00060696266677180959 -0.0024274308968758201 0 0.00043414133490176141 -0.00064259185779430702 0 0.00042621737462652284 -0.00054149548007275761 0 0.00050194142893678333 -0.00064913522134219534 0 -0.00024383218549576624 -0.00039134474839454269 0 -0.00023808444419929459 -0.00032190399930741607 0 -0.00017601969561089177 -0.00025439116490169757 0 0.00028025184628800357 -0.00026708537262241916 0 0.00021950080825055811 -0.0002303665726279269 0 0.00013255011364773193 -0.00013455825131825536 0 -0.00028320869028988516 -0.00027105404421385242 0 -0.00038879596551619634 -0.00041037235221877617 0 -0.00043360899856430144 -0.00043382639349962292 0 0.00061696944797810804 -0.0019670048956440373 0 0.00069298260713085728 -0.0019209576031736348 0 0.00068395127966545174 -0.0020496885445866453 0 0.00011408350312349279 -0.00037370556290846534 0 7.263298718828288e-05 -0.00025421932821507922 0 0.00010485455664314793 -0.0002732977884721929 0 -0.00025455005838545601 -0.0026024389386791872 0 -0.00022264783821570152 -0.0027478050160482264 0 -0.00029690733281405838 -0.0027301593351504523 0 -0.00055129806856070299 -0.001071878903791788 0 -0.00063582496030049017 -0.0011550432491006855 0 -0.00060045223028004093 -0.0010222445194050674 0 0.00016893474922149851 -0.00019983658043939322 0 0.00027596851659718568 -0.00032377495886222598 0 0.00023722346300344833 -0.00031993491589979011 0 -0.00047845258882856938 -0.00054583415860826501 0 -0.00035930689082639138 -0.00041343783678535385 0 -0.00042711344292350393 -0.00054160433489153649 0 0.00046370945745865042 -0.0031227535434188254 0 0.0003725626141399385 -0.0031165590856538209 0 0.00040056954797063114 -0.0029587252780108944 0 -0.00088725670486121194 -0.0023450637026269511 0 -0.00088408031977475375 -0.0021869049862581181 0 -0.00080241280176029093 -0.0022382952894311452 0 0.00071082306831711766 -0.00086041822915042449 0 0.0007589179157095812 -0.0010006836346704935 0 0.0006655925989587319 -0.00090428656121840261 0 -1.3839969801924239e-08 -1.0335224748973566e-07 0 -9.1088712917451488e-09 -1.0653209317518232e-07 0 -6.4041445884273994e-05 -0.0001122785654061305 0 9.3928321130273793e-05 -0.0031044649406064221 0 2.7945507584594582e-05 -0.0029800076521821752 0 9.8072494730095926e-05 -0.0029333255242149268 0 -0.00086816507380268137 -0.0017236442352155862 0 -0.00080054479425254919 -0.0016085358224740081 0 -0.00078274030874696851 -0.0017212478530012215 0 0.00084339318925703475 -0.0014271005969084781 0 0.00079354275022846296 -0.0015175090364735414 0 0.00075829168523830048 -0.0013971788907930754 0 -2.9691958470445349e-09 -1.0271475615421554e-07 0 -2.6991979838762199e-06 -8.0206487584458971e-05 0 -1.4583277622066287e-05 -0.00011527301644874992 0 -2.001456818020926e-06 -0.0010192418463524713 0 2.1519027223566478e-05 -0.00089772261517172627 0 7.3621826867443864e-05 -0.0010445817783564415 0 0.00074952311810810358 -0.0025551452303969277 0 0.00070085512195412866 -0.0026636953447743863 0 0.00067619252195969762 -0.0025233018170527275 0 -0.00057867357786485323 -0.002865206510660846 0 -0.00063860656541383186 -0.0027766691528886968 0 -0.00056242944060420246 -0.002727812901981048 0 5.6766695328777525e-06 -0.0014471037303419754 0 9.415066450866062e-05 -0.0014758851469700016 0 5.44867052721195e-05 -0.0016202989137231493 0 0.00068897376087204934 -0.0012106835203838412 0 0.00076105483525748616 -0.0012808057822483738 0 0.00069012218487586043 -0.0013303778240709302 0 0.00075829168523830048 -0.0013971788907930754 0 0.00069012218487586043 -0.0013303778240709302 0 0.00076105483525748616 -0.0012808057822483738 0 0.00064265566894775592 -0.003135988553614715 0 0.00059669559380243794 -0.0029896364609136874 0 0.00066722880914375619 -0.0029672247783407448 0 -0.00089317494780754311 -0.0026657947576055594 0 -0.00081557904141491564 -0.0025869077669696872 0 -0.00080290225881487229 -0.002715683042750174 0 -0.00057867357786485323 -0.002865206510660846 0 -0.00058449415307465708 -0.0030035971342669827 0 -0.00065738256519411729 -0.0029450341481235707 0 0.00074952311810810358 -0.0025551452303969277 0 0.00082300838279793763 -0.0025641802931655844 0 0.00079097219836912606 -0.0026978999888521297 0 -0.00047845258882856938 -0.00054583415860826501 0 -0.00055291870827017613 -0.00060416296063983493 0 -0.00043360899856430144 -0.00043382639349962292 0 0.00016893474922149851 -0.00019983658043939322 0 7.7799901888685619e-05 -8.9492485670066937e-05 0 0.00013255011364773193 -0.00013455825131825536 0 -0.00064275490155772446 -0.0031359256190440017 0 -0.00065738256519411729 -0.0029450341481235707 0 -0.00058449415307465708 -0.0030035971342669827 0 0.00089300999241559702 -0.00266592689238945 0 0.00079097219836912606 -0.0026978999888521297 0 0.00082300838279793763 -0.0025641802931655844 0 -0.00056291061992562322 -0.00057679168171851237 0 -0.00043360899856430144 -0.00043382639349962297 0 -0.00055291870827017613 -0.00060416296063983493 0 1.8250653822740166e-08 -9.8529230831534305e-08 0 0.00013255011364773193 -0.00013455825131825536 0 7.7799901888685619e-05 -8.9492485670066937e-05 0 0.00056392876963286406 -0.0005761268725243111 0 0.00055408887599274481 -0.00060680874742759195 0 0.0004370113972925938 -0.00044208144096917956 0 -1.8073030935735566e-08 -9.7439864501588242e-08 0 -7.8428806881526792e-05 -8.9823768574076517e-05 0 -0.00014111551248255816 -0.00014432656591795224 0 0.00048580649401423504 -0.00055732747797244291 0 0.0004370113972925938 -0.00044208144096917956 0 0.00055408887599274481 -0.00060680874742759195 0 -0.00016204705556374676 -0.00019643977475934017 0 -0.00014111551248255816 -0.00014432656591795224 0 -7.8428806881526792e-05 -8.9823768574076517e-05 0 -0.00016787806130479058 -0.0018346662470696158 0 -8.8799108824303764e-05 -0.0017262995240965578 0 -8.077993433976053e-05 -0.0018693503458147302 0 5.6766695328777525e-06 -0.0014471037303419754 0 5.44867052721195e-05 -0.0016202989137231493 0 -3.5893153934833396e-05 -0.0016058007639134066 0 -0.00027861079958827096 -0.0012680710337824822 0 -0.00031304932369715467 -0.0011181914031795882 0 -0.00023548904440243582 -0.0011385644926290262 0 -0.00023336095716769168 -0.00099158260154653824 0 -0.00023548904440243582 -0.0011385644926290262 0 -0.00031304932369715467 -0.0011181914031795882 0 -0.00017339807016339499 -0.0011842189414394261 0 -0.00016971357775011177 -0.0010587481512288183 0 -0.00011410520194028866 -0.0011378425517630398 0 8.6109761022455501e-05 -0.0009034287050060484 0 7.3621826867443864e-05 -0.0010445817783564415 0 2.1519027223566478e-05 -0.00089772261517172627 0 0.00061696944797810804 -0.0019670048956440373 0 0.00068395127966545174 -0.0020496885445866453 0 0.00063703037761678703 -0.0021435934106777861 0 0.00011408350312349279 -0.00037370556290846534 0 0.00010485455664314793 -0.0002732977884721929 0 0.00015302268001423226 -0.00034922935638649849 0 -0.00025455005838545601 -0.0026024389386791872 0 -0.00029690733281405838 -0.0027301593351504523 0 -0.00035270666922402547 -0.0026424146499283612 0 -0.00055129806856070299 -0.001071878903791788 0 -0.00060045223028004093 -0.0010222445194050674 0 -0.00053208585998878479 -0.00090480508313616924 0 -0.00015522755390069825 -0.0014184155572110157 0 -0.00017623288553398223 -0.0015651509676070212 0 -0.00024738168797337903 -0.0014936548069679559 0 -0.00012600379823060303 -0.0025156371475970689 0 -0.00020548880595794701 -0.0024571719795303221 0 -0.00012180975320461085 -0.0023790656854342155 0 0.00056897587136068759 -0.0017327254000370162 0 0.0005400442552931789 -0.0018690687971697326 0 0.00049677533869442101 -0.0017128364142244689 0 -0.00054076028314550741 -0.0012867469769396241 0 -0.00049244982277796409 -0.0011363652822387693 0 -0.00047093164650324591 -0.001276591798476993 0 6.3647416142173071e-05 -0.00043610068159435743 0 0.00011498723905933089 -0.0004924811972477275 0 7.3418818299869699e-05 -0.00055302325273853413 0 0.00066722880914375619 -0.0029672247783407448 0 0.00059669559380243794 -0.0029896364609136874 0 0.00064122271553246617 -0.0028527534347236633 0 -0.00080290225881487229 -0.002715683042750174 0 -0.00081557904141491564 -0.0025869077669696872 0 -0.00074185706206693152 -0.0026690582711400282 0 0.00057611134135843167 -0.0028480551037778816 0 0.00064122271553246617 -0.0028527534347236633 0 0.00059669559380243794 -0.0029896364609136874 0 -0.00074064800300682493 -0.0025504589944317087 0 -0.00074185706206693152 -0.0026690582711400282 0 -0.00081557904141491564 -0.0025869077669696872 0 0.00050376164812247792 -0.0021922793666956913 0 0.00059440983037477052 -0.0022469572296949271 0 0.00051631350135452312 -0.0023326159417223981 0 -0.00038746309060488828 -0.0023955820032518899 0 -0.00041249292904136395 -0.0025658728984538828 0 -0.00046389540757439218 -0.0024244699216701138 0 0.00024606421225666032 -0.0005737732931317556 0 0.00021215761021675482 -0.00042432157922660333 0 0.00029351936456304794 -0.00055887449867587436 0 -0.00039386117667325086 -0.00080094396891325934 0 -0.00046346443646940822 -0.00078124613029291923 0 -0.00036720924010650446 -0.00066331570382309577 0 8.0524058233772598e-05 -0.0011905113090646914 0 1.2567103218702034e-05 -0.0012797940247105 0 7.8336196956977017e-06 -0.0011370841188982721 0 8.0524058233772598e-05 -0.0011905113090646914 0 0.00015549248912242498 -0.0012499669969407155 0 8.1284510740048903e-05 -0.0013333063606821378 0 0.00057611134135843167 -0.0028480551037778816 0 0.00056654177539687393 -0.0026992786667401594 0 0.00063549298791137617 -0.0027356047067322886 0 -0.00074064800300682493 -0.0025504589944317087 0 -0.00066100047712237039 -0.0025304391255435293 0 -0.00067891803737104043 -0.0026571987668201707 0 0.00061075384492587949 -0.0023898521056390067 0 0.0005307081453056183 -0.0024636252643902763 0 0.00051631350135452312 -0.0023326159417223981 0 -0.00049076457204165155 -0.0026015011076276169 0 -0.0005346698868504854 -0.0024569407124472443 0 -0.00046389540757439218 -0.0024244699216701138 0 0.00024881938132568821 -0.00040472894708198465 0 0.00034333877190306333 -0.00055669100334754923 0 0.00029351936456304794 -0.00055887449867587436 0 -0.00043037459001602895 -0.00064478860129303368 0 -0.00032728033882159627 -0.00053506013805983967 0 -0.00036720924010650446 -0.00066331570382309577 0 0.00035696481972310085 -0.0017067647746038426 0 0.00027695334849014866 -0.0017728251840367188 0 0.00029295836652129228 -0.0016477192360074282 0 0.00034538684633860168 -0.0018384318565365643 0 0.00027695334849014866 -0.0017728251840367188 0 0.00035696481972310085 -0.0017067647746038426 0 9.8361982349257266e-05 -0.00079380504360818593 0 0.00014393791562244523 -0.00094586613536046683 0 8.6109761022455501e-05 -0.0009034287050060484 0 0.00015705874065451739 -0.00082459915660415214 0 0.00014393791562244523 -0.00094586613536046683 0 9.8361982349257266e-05 -0.00079380504360818593 0 9.8072494730095926e-05 -0.0029333255242149268 0 0.0001262680340468971 -0.002813785009213518 0 0.00017249950269278719 -0.0029705927781665756 0 0.00020097270705013749 -0.0028384819030182525 0 0.00017249950269278719 -0.0029705927781665756 0 0.0001262680340468971 -0.002813785009213518 0 -0.00078274030874696851 -0.0017212478530012215 0 -0.00072409330567972305 -0.0017597974725192379 0 -0.00080613265703452194 -0.0018478346853682283 0 -0.00073969058127667457 -0.0018891141214846293 0 -0.00080613265703452194 -0.0018478346853682283 0 -0.00072409330567972305 -0.0017597974725192379 0 -1.4583277622066287e-05 -0.00011527301644874992 0 -3.2571855824654705e-05 -0.0002010255788254424 0 -2.1788000320270705e-05 -8.9227655256940306e-05 0 -4.8296952672073559e-05 -0.00018372952501161476 0 -2.1788000320270705e-05 -8.9227655256940306e-05 0 -3.2571855824654705e-05 -0.0002010255788254424 0 0.00011817310408176279 -0.0019015997981580834 0 7.3216852306286892e-05 -0.0020076601457146488 0 2.0989052265225878e-05 -0.0019106979038204554 0 -0.00024913261668034367 -0.0016787779268356143 0 -0.00029733714875291499 -0.0015967430828558275 0 -0.00024738168797337903 -0.0014936548069679559 0 2.6803467128952884e-05 -0.0021004549845037171 0 2.0989052265225878e-05 -0.0019106979038204554 0 7.3216852306286892e-05 -0.0020076601457146488 0 -0.00034448850240516098 -0.0015181116397544039 0 -0.00024738168797337903 -0.0014936548069679559 0 -0.00029733714875291499 -0.0015967430828558275 0 0.00072267769825436949 -0.002823629360028489 0 0.00066722880914375619 -0.0029672247783407448 0 0.00064122271553246617 -0.0028527534347236633 0 -0.00072543252246632989 -0.0028186518265520062 0 -0.00080290225881487229 -0.002715683042750174 0 -0.00074185706206693152 -0.0026690582711400282 0 0.00016893474922149851 -0.00019983658043939322 0 0.00013255011364773193 -0.00013455825131825536 0 0.00021950080825055811 -0.0002303665726279269 0 -0.00047845258882856938 -0.00054583415860826501 0 -0.00043360899856430144 -0.00043382639349962292 0 -0.00038879596551619634 -0.00041037235221877617 0 0.00032602946008572357 -0.0028868705021472389 0 0.0003738408919382346 -0.0027914569454751343 0 0.00040056954797063114 -0.0029587252780108944 0 -0.00076576836603011063 -0.0021071770083264988 0 -0.00071539936426844801 -0.0021880354385835458 0 -0.00080241280176029093 -0.0022382952894311452 0 0.00066866123280799855 -0.0010084275823899005 0 0.00059368228502516027 -0.00089851086611133244 0 0.0006655925989587319 -0.00090428656121840261 0 -6.9173187290551188e-05 -0.00015453560040341036 0 -0.00011801196862242831 -0.00023627517588477887 0 -6.4041445884273994e-05 -0.0001122785654061305 0 0.00017813468447816245 -0.0022603990372439342 0 0.00013762140866312194 -0.0023704311396127767 0 8.0989056421531001e-05 -0.0022679320105966289 0 -0.00043516824081897516 -0.0018049367325248253 0 -0.00049274505754171494 -0.0017408369710876098 0 -0.00043618837321775158 -0.0016297367657862659 0 0.00039867325433794041 -0.0011611026887656487 0 0.00046303603790470146 -0.001246600881908391 0 0.00042041974027770746 -0.0013372813318653031 0 -0.00012288915583062997 -0.0006660299251321618 0 -8.3811525795688972e-05 -0.0005636169054833636 0 -5.4579495180983539e-05 -0.00065106181868156523 0 0.00011817310408176279 -0.0019015997981580834 0 6.3306346756430393e-05 -0.0017814976565179766 0 0.00013340813887951112 -0.0017279554237819841 0 0.00017813468447816245 -0.0022603990372439342 0 0.00012758124110252432 -0.0021016883583354095 0 0.00019607900112345489 -0.0021327223274040124 0 -0.00043516824081897516 -0.0018049367325248253 0 -0.0003478223057891405 -0.0016971884668793029 0 -0.00036689234719733258 -0.0018289785741424861 0 0.00039867325433794041 -0.0011611026887656487 0 0.00032644158794473252 -0.0012404974724594445 0 0.00033013920441571837 -0.0011153837027719797 0 -0.00012288915583062997 -0.0006660299251321618 0 -9.6545993681012139e-05 -0.00080979430232633938 0 -0.0001480838313183022 -0.00078636011523986556 0 -4.0244303549276686e-08 -0.0023769502469421634 0 8.0989056421531001e-05 -0.0022679320105966289 0 6.8563202083854778e-05 -0.0024462549544479184 0 -0.00048735401104801158 -0.0014945372583877944 0 -0.00043618837321775158 -0.0016297367657862659 0 -0.0005295808839900284 -0.0016241933970795185 0 0.00048715337448980943 -0.0014946373389635385 0 0.00042041974027770746 -0.0013372813318653031 0 0.00051480763241355473 -0.0013798196754811693 0 -1.085272067988078e-07 -0.00055322074001437312 0 -5.4579495180983539e-05 -0.00065106181868156523 0 -3.7631151599128602e-05 -0.00049405428890662698 0 2.6803467128952884e-05 -0.0021004549845037171 0 7.3216852306286892e-05 -0.0020076601457146488 0 0.00012758124110252432 -0.0021016883583354099 0 -0.00034448850240516098 -0.0015181116397544039 0 -0.00029733714875291499 -0.0015967430828558275 0 -0.0003478223057891405 -0.0016971884668793029 0 0.00011817310408176279 -0.0019015997981580834 0 0.00012758124110252432 -0.0021016883583354099 0 7.3216852306286892e-05 -0.0020076601457146488 0 -0.00024913261668034367 -0.0016787779268356143 0 -0.0003478223057891405 -0.0016971884668793029 0 -0.00029733714875291499 -0.0015967430828558275 0 0.00020097270705013749 -0.0028384819030182525 0 0.00015100855715584593 -0.0026769206218261532 0 0.00022803869526380021 -0.0027067156311487055 0 -0.00073969058127667457 -0.0018891141214846293 0 -0.00065471784162170373 -0.0017913772965439578 0 -0.00067167550918956394 -0.0019278700693140106 0 0.00068897376087204934 -0.0012106835203838412 0 0.00061864751434908183 -0.0012667145803409612 0 0.00061318978770023044 -0.0011377992805706627 0 -4.8296952672073559e-05 -0.00018372952501161476 0 -5.7679013954776572e-05 -0.00030608341621498876 0 -8.2313380266045468e-05 -0.00028684470515988087 0 4.7618211926426952e-06 -0.00014328799741323696 0 4.5759572828575884e-06 -6.2868658933933942e-05 0 1.4889329733437505e-05 -9.4581126213377987e-05 0 -0.00074889562391318096 -0.0015123731812703273 0 -0.00080348790347667301 -0.0014900387151206011 0 -0.00077006384986123735 -0.0013793109942692346 0 0.00075444860663591729 -0.0015943810325506778 0 0.00081505002561449707 -0.0016413984166016521 0 0.00079732821853765404 -0.001744780337367723 0 -2.4677547222982075e-05 -0.0028887928072678943 0 -4.6619769354858787e-05 -0.0030062819422872734 0 -0.00011113424665087304 -0.0029605032500237892 0 0.00012303301979051207 -0.0025036068179387192 0 7.3754876333266301e-05 -0.0025862867459346571 0 6.8563202083854778e-05 -0.0024462549544479184 0 -0.00056267062760564327 -0.0017264892236535517 0 -0.00060308766397507792 -0.0016476378240182625 0 -0.0005295808839900284 -0.0016241933970795185 0 0.00053495724946371951 -0.0012901347154886456 0 0.0005864922076760042 -0.001388513562479728 0 0.00051480763241355473 -0.0013798196754811693 0 -6.2973000533973888e-05 -0.00044722311436314939 0 -3.2377812547647492e-05 -0.00037771276455037477 0 -3.7631151599128602e-05 -0.00049405428890662698 0 5.6766695328777525e-06 -0.0014471037303419754 0 -3.5893153934833396e-05 -0.0016058007639134066 0 -8.2218628330307805e-05 -0.0014944721105488914 0 0.00043392863244599725 -0.0024535156350368056 0 0.00036048575079968812 -0.002449815601398315 0 0.00038269224153504404 -0.0022979932060080712 0 -0.00053350693597410822 -0.0022797885457384284 0 -0.00053393284634122105 -0.0021469294500814961 0 -0.00045148557632547449 -0.0021781491166834093 0 0.00039664971646456699 -0.00072466652263408586 0 0.00043278369541784799 -0.00085632863093178929 0 0.00035014373917508228 -0.00079651744737792675 0 -0.0002622565517840342 -0.00052855279824005853 0 -0.00021320271831208259 -0.00052075629396329981 0 -0.00026576045645530235 -0.00066281961431924829 0 -0.00012600379823060303 -0.0025156371475970689 0 -0.00017370015282950046 -0.0026157528389094032 0 -0.00020548880595794701 -0.0024571719795303221 0 -0.00025455005838545601 -0.0026024389386791872 0 -0.00020548880595794701 -0.0024571719795303221 0 -0.00017370015282950046 -0.0026157528389094032 0 -0.00054076028314550741 -0.0012867469769396241 0 -0.00058187237755568538 -0.0012170177082819612 0 -0.00049244982277796409 -0.0011363652822387693 0 0.00056897587136068759 -0.0017327254000370162 0 0.00062307085260418743 -0.0018254907229888929 0 0.0005400442552931789 -0.0018690687971697326 0 0.00061696944797810804 -0.0019670048956440373 0 0.0005400442552931789 -0.0018690687971697326 0 0.00062307085260418743 -0.0018254907229888929 0 -0.00055129806856070299 -0.001071878903791788 0 -0.00049244982277796409 -0.0011363652822387693 0 -0.00058187237755568538 -0.0012170177082819612 0 6.3647416142173071e-05 -0.00043610068159435743 0 7.3722677128874086e-05 -0.00035616344203737643 0 0.00011498723905933089 -0.0004924811972477275 0 0.00011408350312349279 -0.00037370556290846534 0 0.00011498723905933089 -0.0004924811972477275 0 7.3722677128874086e-05 -0.00035616344203737643 0 0.00027338131459958125 -0.0019313512304868466 0 0.00027695334849014866 -0.0017728251840367188 0 0.00034538684633860168 -0.0018384318565365643 0 0.0002158627246075857 -0.00095890749613964331 0 0.00014393791562244523 -0.00094586613536046683 0 0.00015705874065451739 -0.00082459915660415214 0 -0.00025341640239272815 -0.0019599588763507753 0 -0.00017034469531383042 -0.0019694461462500738 0 -0.00020549640345244799 -0.0020932147038156997 0 0.00072267769825436949 -0.002823629360028489 0 0.00063549298791137606 -0.0027356047067322886 0 0.00070085512195412866 -0.0026636953447743863 0 -0.00072543252246632989 -0.0028186518265520062 0 -0.00067891803737104032 -0.0026571987668201707 0 -0.00063860656541383186 -0.0027766691528886968 0 0.00028025184628800357 -0.00026708537262241916 0 0.00037596707479158146 -0.00042112195081037368 0 0.00027596851659718568 -0.00032377495886222598 0 -0.00028320869028988516 -0.00027105404421385242 0 -0.00025633467376374005 -0.00029254396874413003 0 -0.00035930689082639138 -0.00041343783678535385 0 -0.00024738168797337903 -0.0014936548069679559 0 -0.00028442515573346523 -0.0013906144603367991 0 -0.00020853118490728604 -0.0013152317938441712 0 0.00075710957549228236 -0.002043625292384956 0 0.00079333793038081967 -0.0022191186952435476 0 0.00071393023586861944 -0.0021493365245548492 0 6.5427027098777604e-05 -0.00016468884182702895 0 6.6584893013000459e-05 -0.00011894208340156533 0 0.00010994480459326302 -0.00023173582763852608 0 -0.00028982272758948602 -0.0028702173125676931 0 -0.00038991732787846314 -0.0029415353988264475 0 -0.00035205274429898106 -0.0027882787218368129 0 -0.00067532908977146653 -0.0010658171515692569 0 -0.00066574829469395226 -0.0009168319110109557 0 -0.00060659183274321192 -0.00093884507478377802 0 -0.00011394039708910011 -0.0016179507405808249 0 -8.2218628330307792e-05 -0.0014944721105488914 0 -3.5893153934833396e-05 -0.0016058007639134066 0 -0.00027861079958827096 -0.0012680710337824822 0 -0.00033929233382250137 -0.001240055759306387 0 -0.00031304932369715467 -0.0011181914031795882 0 0.00088391740547804449 -0.0021868660695703391 0 0.00079333793038081967 -0.0022191186952435476 0 0.00082774778500395105 -0.0020923157297423013 0 9.0259912792076703e-09 -1.0793622004465965e-07 0 6.6584893013000473e-05 -0.00011894208340156534 0 3.2528671305813439e-05 -6.9064451815921578e-05 0 -0.00037275295824691374 -0.0031165778048767396 0 -0.00038991732787846314 -0.0029415353988264475 0 -0.00031677144976794205 -0.0030070653976846046 0 -0.00075847930222092803 -0.0010009531842720004 0 -0.00066574829469395226 -0.00091683191101095581 0 -0.00073197805689174261 -0.0010560081623775508 0 0.00012303301979051207 -0.0025036068179387192 0 0.00013762140866312194 -0.0023704311396127767 0 0.00021617558654156628 -0.0024325795291098352 0 0.00017813468447816245 -0.0022603990372439342 0 0.0002161755865415663 -0.0024325795291098352 0 0.00013762140866312194 -0.0023704311396127767 0 -0.00043516824081897516 -0.0018049367325248253 0 -0.00052739480550766332 -0.0018864490327869059 0 -0.00049274505754171494 -0.0017408369710876098 0 -0.00056267062760564327 -0.0017264892236535517 0 -0.00049274505754171494 -0.0017408369710876098 0 -0.00052739480550766332 -0.0018864490327869059 0 0.00039867325433794041 -0.0011611026887656487 0 0.00047682557954670669 -0.0011134722269043943 0 0.00046303603790470146 -0.001246600881908391 0 0.00053495724946371951 -0.0012901347154886456 0 0.00046303603790470146 -0.001246600881908391 0 0.00047682557954670669 -0.0011134722269043943 0 -0.00012288915583062997 -0.0006660299251321618 0 -0.00012526114497611129 -0.00051431233944689101 0 -8.3811525795688985e-05 -0.0005636169054833636 0 -6.2973000533973888e-05 -0.00044722311436314939 0 -8.3811525795688985e-05 -0.0005636169054833636 0 -0.00012526114497611129 -0.00051431233944689101 0 0.00025443224924006307 -0.0026024484674036933 0 0.00018701016098997977 -0.0025604942301814633 0 0.00021617558654156628 -0.0024325795291098352 0 -0.00061715862776920069 -0.0019669303168440015 0 -0.00059451231788934414 -0.0018447674214024552 0 -0.00052739480550766332 -0.0018864490327869059 0 0.00055107851097449577 -0.0010723742022055794 0 0.00054965953211645645 -0.0011847237244773645 0 0.00047682557954670669 -0.0011134722269043943 0 -0.00011414594681750162 -0.00037298054462422026 0 -8.8093169875713023e-05 -0.0004029743643878348 0 -0.00012526114497611129 -0.00051431233944689101 0 6.2793864720577633e-05 -0.0027258036749561333 0 0.00015100855715584593 -0.0026769206218261537 0 0.0001262680340468971 -0.002813785009213518 0 -0.00067491157257300565 -0.0016429679266909696 0 -0.00065471784162170373 -0.0017913772965439578 0 -0.00072409330567972305 -0.0017597974725192379 0 0.00068897376087204934 -0.0012106835203838412 0 0.00069012218487586043 -0.0013303778240709302 0 0.00061864751434908194 -0.0012667145803409612 0 -2.1539808434663785e-05 -0.00026557218432332526 0 -5.7679013954776565e-05 -0.00030608341621498876 0 -3.2571855824654705e-05 -0.0002010255788254424 0 0.00020097270705013749 -0.0028384819030182525 0 0.0001262680340468971 -0.002813785009213518 0 0.00015100855715584593 -0.0026769206218261537 0 -0.00073969058127667457 -0.0018891141214846293 0 -0.00072409330567972305 -0.0017597974725192379 0 -0.00065471784162170373 -0.0017913772965439578 0 0.00066035097245669046 -0.0014265578757110973 0 0.00061864751434908194 -0.0012667145803409612 0 0.00069012218487586043 -0.0013303778240709302 0 -4.8296952672073559e-05 -0.00018372952501161476 0 -3.2571855824654705e-05 -0.0002010255788254424 0 -5.7679013954776572e-05 -0.00030608341621498876 0 0.00012303301979051207 -0.0025036068179387192 0 0.00018701016098997977 -0.0025604942301814633 0 0.00015100855715584593 -0.0026769206218261537 0 -0.00056267062760564327 -0.0017264892236535517 0 -0.00059451231788934414 -0.0018447674214024552 0 -0.00065471784162170373 -0.0017913772965439578 0 0.00053495724946371951 -0.0012901347154886456 0 0.00054965953211645645 -0.0011847237244773645 0 0.00061864751434908194 -0.0012667145803409612 0 -6.2973000533973888e-05 -0.00044722311436314939 0 -8.8093169875713023e-05 -0.0004029743643878348 0 -5.7679013954776572e-05 -0.00030608341621498876 0 0.00050376164812247792 -0.0021922793666956913 0 0.00051631350135452312 -0.0023326159417223981 0 0.00044963454431125717 -0.0022785186478606026 0 -0.00038746309060488828 -0.0023955820032518899 0 -0.00046389540757439218 -0.0024244699216701138 0 -0.0004376056701044224 -0.0022996325524372867 0 0.00024606421225666032 -0.0005737732931317556 0 0.00029351936456304794 -0.00055887449867587436 0 0.00030968876189104555 -0.00067550624857152283 0 -0.00039386117667325086 -0.00080094396891325934 0 -0.00036720924010650446 -0.00066331570382309577 0 -0.0003250647121619754 -0.0007000478193227226 0 0.00056897587136068759 -0.0017327254000370162 0 0.00049677533869442101 -0.0017128364142244689 0 0.00054077152726178708 -0.0016149198992848541 0 -0.00012600379823060303 -0.0025156371475970689 0 -0.00012180975320461085 -0.0023790656854342155 0 -6.2119578241901673e-05 -0.0024685942085805935 0 6.3647416142173071e-05 -0.00043610068159435743 0 7.3418818299869699e-05 -0.00055302325273853413 0 3.3609238820766436e-05 -0.00047376527116027871 0 -0.00054076028314550741 -0.0012867469769396241 0 -0.00047093164650324591 -0.001276591798476993 0 -0.00052760460465188258 -0.0013942518249295786 0 0.00075710957549228236 -0.002043625292384956 0 0.00082774778500395105 -0.0020923157297423013 0 0.00079333793038081967 -0.0022191186952435476 0 6.5427027098777604e-05 -0.00016468884182702895 0 3.2528671305813439e-05 -6.9064451815921578e-05 0 6.6584893013000459e-05 -0.00011894208340156533 0 -0.00028982272758948602 -0.0028702173125676931 0 -0.00031677144976794205 -0.0030070653976846046 0 -0.00038991732787846314 -0.0029415353988264475 0 -0.00067532908977146653 -0.0010658171515692569 0 -0.0007319780568917425 -0.0010560081623775508 0 -0.00066574829469395226 -0.00091683191101095581 0 2.6803467128952884e-05 -0.0021004549845037171 0 -5.9193278197136559e-05 -0.0021112314431947776 0 -3.9545577425564037e-05 -0.0019924368415469938 0 -0.00034448850240516098 -0.0015181116397544039 0 -0.00034192084393570681 -0.0013612442442260857 0 -0.00028442515573346523 -0.0013906144603367991 0 6.2793864720577633e-05 -0.0027258036749561333 0 4.4499052094808863e-05 -0.0028469458306083083 0 -2.2815665778698825e-05 -0.0027424447227871046 0 -0.00067491157257300565 -0.0016429679266909696 0 -0.00073529468782858711 -0.0016241387745441864 0 -0.00067480563934189215 -0.0014974435569858244 0 0.00066035097245669046 -0.0014265578757110973 0 0.00072423948588128291 -0.0014735661359103246 0 0.00067971464210704179 -0.0015759287761445584 0 -2.1539808434663785e-05 -0.00026557218432332526 0 -1.0513010981731542e-05 -0.00017419311631210383 0 7.5965499976351333e-06 -0.00025217393877012312 0 -1.4584122386418501e-05 -0.0017441671650800764 0 -3.5893153934833396e-05 -0.0016058007639134066 0 5.44867052721195e-05 -0.0016202989137231493 0 0.00057611134135843167 -0.0028480551037778816 0 0.00050883782162799778 -0.0027592226382689004 0 0.00056654177539687393 -0.0026992786667401594 0 -0.00074064800300682493 -0.0025504589944317087 0 -0.00069469154699254153 -0.0024276941450847829 0 -0.00066100047712237039 -0.0025304391255435293 0 0.00072267769825436949 -0.002823629360028489 0 0.00064122271553246617 -0.0028527534347236633 0 0.00063549298791137617 -0.0027356047067322886 0 -0.00072543252246632989 -0.0028186518265520062 0 -0.00074185706206693152 -0.0026690582711400282 0 -0.00067891803737104043 -0.0026571987668201707 0 0.00016893474922149851 -0.00019983658043939322 0 0.00021950080825055811 -0.0002303665726279269 0 0.00027596851659718568 -0.00032377495886222598 0 -0.00047845258882856938 -0.00054583415860826501 0 -0.00038879596551619628 -0.00041037235221877611 0 -0.00035930689082639138 -0.00041343783678535385 0 0.00012303301979051207 -0.0025036068179387192 0 0.00021617558654156628 -0.0024325795291098352 0 0.00018701016098997977 -0.0025604942301814633 0 -0.00056267062760564327 -0.0017264892236535517 0 -0.00052739480550766332 -0.0018864490327869059 0 -0.00059451231788934414 -0.0018447674214024552 0 0.00053495724946371951 -0.0012901347154886456 0 0.00047682557954670663 -0.0011134722269043943 0 0.00054965953211645645 -0.0011847237244773645 0 -6.2973000533973888e-05 -0.00044722311436314939 0 -0.00012526114497611129 -0.00051431233944689101 0 -8.8093169875713023e-05 -0.0004029743643878348 0 0.00048580649401423504 -0.00055732747797244291 0 0.00042621737462652284 -0.00054149548007275761 0 0.0003759670747915814 -0.00042112195081037363 0 -0.00016204705556374676 -0.00019643977475934017 0 -0.00023808444419929459 -0.00032190399930741607 0 -0.00025633467376374005 -0.00029254396874413003 0 5.6766695328777525e-06 -0.0014471037303419754 0 -6.5757131004032411e-05 -0.0013561139475055074 0 1.2567103218702034e-05 -0.0012797940247105 0 -6.4587132592145769e-05 -0.0012212869496105207 0 1.2567103218702034e-05 -0.0012797940247105 0 -6.5757131004032411e-05 -0.0013561139475055074 0 0.00036550162657425966 -0.0021423854183957249 0 0.00031880072340934414 -0.0022154896009736157 0 0.00031910399860972806 -0.0020553790988165079 0 -0.00036761051077845196 -0.0021391012146704485 0 -0.0004079761308940462 -0.0020556995671024998 0 -0.00032007128150621689 -0.0020491647858547268 0 0.00028624483425328636 -0.00081157567441700253 0 0.00033634104237024553 -0.00090169160958131407 0 0.00026079538099948291 -0.00088712554884000112 0 -0.00028348466550334126 -0.00080818212121262605 0 -0.00023229235978146839 -0.00072838882819798855 0 -0.00025798713721507822 -0.00088128691883492091 0 -0.00010219939050620277 -0.00098699554142711609 0 -0.00016971357775011177 -0.0010587481512288183 0 -0.000160119649724107 -0.00090877227777839682 0 -2.4677547222982075e-05 -0.0028887928072678943 0 -2.2815665778698825e-05 -0.0027424447227871046 0 4.4499052094808863e-05 -0.0028469458306083083 0 -0.00074889562391318096 -0.0015123731812703273 0 -0.00067480563934189215 -0.0014974435569858244 0 -0.00073529468782858711 -0.0016241387745441864 0 0.00075444860663591729 -0.0015943810325506778 0 0.00067971464210704179 -0.0015759287761445584 0 0.00072423948588128291 -0.0014735661359103246 0 4.7618211926426952e-06 -0.00014328799741323696 0 7.5965499976351333e-06 -0.00025217393877012312 0 -1.0513010981731542e-05 -0.00017419311631210383 0 -0.00010231750146650698 -0.0020001302640350444 0 -0.00013200595636268456 -0.0021155414277093053 0 -0.00017034469531383042 -0.0019694461462500738 0 -0.00020549640345244799 -0.0020932147038156997 0 -0.00017034469531383042 -0.0019694461462500738 0 -0.00013200595636268456 -0.0021155414277093053 0 0.00013016817243744473 -0.0015907082907700727 0 9.415066450866062e-05 -0.0014758851469700016 0 0.00016803278049879416 -0.0015110386772124583 0 0.00064265566894775592 -0.003135988553614715 0 0.00055368952988064685 -0.0031293477750935638 0 0.00059669559380243794 -0.0029896364609136874 0 -0.00089317494780754311 -0.0026657947576055594 0 -0.00089014216814212795 -0.0025048380893966794 0 -0.00081557904141491564 -0.0025869077669696872 0 0.00056392876963286406 -0.0005761268725243111 0 0.0006469699785612102 -0.00071890617404848586 0 0.00055408887599274481 -0.00060680874742759195 0 -1.8073030935735566e-08 -9.7439864501588242e-08 0 -2.7389753080391731e-08 -1.0995959971550182e-07 0 -7.8428806881526792e-05 -8.9823768574076517e-05 0 0.00089009141311485913 -0.0025048738698058627 0 0.00089300999241559702 -0.00266592689238945 0 0.00082300838279793763 -0.0025641802931655844 0 2.6831647707917538e-08 -1.1002278772968797e-07 0 1.8250653822740166e-08 -9.8529230831534305e-08 0 7.7799901888685619e-05 -8.9492485670066937e-05 0 -0.00055386866806856044 -0.0031292049709936987 0 -0.00064275490155772446 -0.0031359256190440017 0 -0.00058449415307465708 -0.0030035971342669827 0 -0.00064712991644123267 -0.00071898830831310806 0 -0.00056291061992562322 -0.00057679168171851237 0 -0.00055291870827017613 -0.00060416296063983493 0 0.00026238610455789184 -0.0021078014328089313 0 0.00031910399860972806 -0.0020553790988165079 0 0.00031880072340934414 -0.0022154896009736157 0 -0.00035218362783066332 -0.0019483127436756701 0 -0.00032007128150621689 -0.0020491647858547268 0 -0.0004079761308940462 -0.0020556995671024998 0 0.00030190499753431841 -0.0009931516467554084 0 0.00026079538099948291 -0.00088712554884000112 0 0.00033634104237024553 -0.00090169160958131407 0 -0.00020338388583689742 -0.00081978282526248684 0 -0.00025798713721507822 -0.00088128691883492091 0 -0.00023229235978146839 -0.00072838882819798855 0 -4.2630926730444335e-06 -0.0025744681491417301 0 -2.2815665778698825e-05 -0.0027424447227871046 0 -8.492954321668611e-05 -0.0026266832057021627 0 -0.00059032100458638128 -0.0015092604436284861 0 -0.00067480563934189215 -0.0014974435569858244 0 -0.00060615388163616534 -0.0013743992093813032 0 0.00059106735355161054 -0.0015240237232807036 0 0.00067971464210704179 -0.0015759287761445584 0 0.00062507156746531025 -0.0016711429499940444 0 2.393860280025029e-06 -0.00038485809836214728 0 7.5965499976351333e-06 -0.00025217393877012312 0 3.6007473088406201e-05 -0.00034356731760281598 0 0.00036550162657425966 -0.0021423854183957249 0 0.00031910399860972806 -0.0020553790988165079 0 0.00038704823994228368 -0.0019907110681523362 0 -0.00036761051077845196 -0.0021391012146704485 0 -0.00032007128150621689 -0.0020491647858547268 0 -0.00028478562223628319 -0.0021780582316527374 0 0.00028624483425328636 -0.00081157567441700253 0 0.00026079538099948291 -0.00088712554884000112 0 0.00021258242044274944 -0.00076115150784907405 0 -0.00028348466550334126 -0.00080818212121262605 0 -0.00025798713721507822 -0.00088128691883492091 0 -0.00032806936243999794 -0.000962166504138438 0 0.00075710957549228236 -0.002043625292384956 0 0.00082293949573466986 -0.0019833494121076801 0 0.00082774778500395105 -0.0020923157297423013 0 6.5427027098777604e-05 -0.00016468884182702895 0 2.5734753939986337e-05 -7.1464944693482572e-05 0 3.2528671305813439e-05 -6.9064451815921578e-05 0 -0.00067532908977146653 -0.0010658171515692569 0 -0.00075211967254242809 -0.0011570778762723681 0 -0.00073197805689174261 -0.0010560081623775508 0 -0.00028982272758948602 -0.0028702173125676931 0 -0.00025295135158754761 -0.0029994983814685726 0 -0.00031677144976794205 -0.0030070653976846046 0 0.00088025776944352079 -0.0020306261058682337 0 0.00088391740547804449 -0.0021868660695703391 0 0.00082774778500395105 -0.0020923157297423013 0 1.0827833966884207e-08 -1.0303395981498207e-07 0 9.0259912792076703e-09 -1.0793622004465965e-07 0 3.2528671305813439e-05 -6.9064451815921578e-05 0 -0.00028052814545481643 -0.0031112270134320921 0 -0.00037275295824691374 -0.0031165778048767396 0 -0.00031677144976794205 -0.0030070653976846046 0 -0.0007959247266497427 -0.0011398137315811246 0 -0.00075847930222092803 -0.0010009531842720004 0 -0.00073197805689174261 -0.0010560081623775508 0 -0.00082362203764794952 -0.0012820699324964529 0 -0.00079592472664974259 -0.0011398137315811246 0 -0.00075211967254242809 -0.0011570778762723681 0 -0.00018751712096717047 -0.0031071420157317733 0 -0.00028052814545481643 -0.0031112270134320921 0 -0.00025295135158754761 -0.0029994983814685726 0 8.2184013016495289e-09 -1.0263121951832261e-07 0 1.0827833966884207e-08 -1.0303395981498207e-07 0 2.5734753939986337e-05 -7.1464944693482572e-05 0 0.0008748611114236998 -0.001876436205813746 0 0.00088025776944352079 -0.0020306261058682337 0 0.00082293949573466986 -0.0019833494121076801 0 0.00057611134135843167 -0.0028480551037778816 0 0.00063549298791137617 -0.0027356047067322886 0 0.00064122271553246617 -0.0028527534347236633 0 -0.00074064800300682493 -0.0025504589944317087 0 -0.00067891803737104043 -0.0026571987668201707 0 -0.00074185706206693152 -0.0026690582711400282 0 0.00028025184628800357 -0.00026708537262241916 0 0.00027596851659718563 -0.00032377495886222593 0 0.00021950080825055811 -0.0002303665726279269 0 -0.00028320869028988516 -0.00027105404421385242 0 -0.00035930689082639138 -0.00041343783678535385 0 -0.00038879596551619634 -0.00041037235221877617 0 0.00017813468447816245 -0.0022603990372439342 0 0.00019607900112345489 -0.0021327223274040124 0 0.00025737115628707958 -0.0022633738290986907 0 0.00026238610455789184 -0.0021078014328089313 0 0.00025737115628707958 -0.0022633738290986907 0 0.00019607900112345489 -0.0021327223274040124 0 -0.00043516824081897516 -0.0018049367325248253 0 -0.00036689234719733258 -0.0018289785741424861 0 -0.00043647500412140534 -0.0019485451902310567 0 -0.00035218362783066332 -0.0019483127436756701 0 -0.00043647500412140534 -0.0019485451902310567 0 -0.00036689234719733258 -0.0018289785741424861 0 0.00039867325433794041 -0.0011611026887656487 0 0.00033013920441571837 -0.0011153837027719797 0 0.0003794303051865814 -0.001017918016192363 0 0.00030190499753431841 -0.0009931516467554084 0 0.0003794303051865814 -0.001017918016192363 0 0.00033013920441571837 -0.0011153837027719797 0 -0.00012288915583062997 -0.0006660299251321618 0 -0.0001480838313183022 -0.00078636011523986556 0 -0.00017834229059422309 -0.00067285085658223701 0 -0.00020338388583689742 -0.00081978282526248684 0 -0.00017834229059422309 -0.00067285085658223701 0 -0.0001480838313183022 -0.00078636011523986556 0 0.00059311295890706922 -0.0025758263202165024 0 0.00063549298791137606 -0.0027356047067322881 0 0.00056654177539687393 -0.0026992786667401594 0 -0.00059325438624396962 -0.0025757588459656053 0 -0.00067891803737104043 -0.0026571987668201707 0 -0.00066100047712237039 -0.0025304391255435293 0 0.00056897587136068759 -0.0017327254000370162 0 0.00062507156746531025 -0.0016711429499940444 0 0.00062307085260418743 -0.0018254907229888929 0 -0.00012600379823060303 -0.0025156371475970689 0 -8.492954321668611e-05 -0.0026266832057021627 0 -0.00017370015282950046 -0.0026157528389094032 0 6.3647416142173071e-05 -0.00043610068159435743 0 3.6007473088406201e-05 -0.00034356731760281598 0 7.3722677128874086e-05 -0.00035616344203737643 0 -0.00054076028314550741 -0.0012867469769396241 0 -0.00060615388163616534 -0.0013743992093813032 0 -0.00058187237755568538 -0.0012170177082819612 0 -2.001456818020926e-06 -0.0010192418463524713 0 -5.4419499440473186e-05 -0.0010753794653885964 0 -4.0631799563962197e-05 -0.00092371472533985411 0 -0.00010219939050620277 -0.00098699554142711609 0 -4.0631799563962197e-05 -0.00092371472533985411 0 -5.4419499440473186e-05 -0.0010753794653885964 0 -0.00025455005838545601 -0.0026024389386791872 0 -0.00017370015282950046 -0.0026157528389094032 0 -0.00022264783821570152 -0.0027478050160482264 0 0.00061696944797810804 -0.0019670048956440373 0 0.00062307085260418743 -0.0018254907229888929 0 0.00069298260713085728 -0.0019209576031736348 0 -0.00055129806856070299 -0.001071878903791788 0 -0.00058187237755568538 -0.0012170177082819612 0 -0.00063582496030049017 -0.0011550432491006855 0 0.00011408350312349279 -0.00037370556290846534 0 7.3722677128874086e-05 -0.00035616344203737643 0 7.263298718828288e-05 -0.00025421932821507922 0 0.00025112717937458698 -0.001469215466295113 0 0.00021003552261464068 -0.0016350562496757239 0 0.00016803278049879416 -0.0015110386772124583 0 0.00026238610455789184 -0.0021078014328089313 0 0.00019607900112345489 -0.0021327223274040124 0 0.00019630442916707474 -0.0020030948082757319 0 -0.00035218362783066332 -0.0019483127436756701 0 -0.00036689234719733258 -0.0018289785741424861 0 -0.00030048550630180877 -0.0018193648380703214 0 0.00030190499753431841 -0.0009931516467554084 0 0.00033013920441571837 -0.0011153837027719797 0 0.00026200820232082843 -0.0011041894590480869 0 -0.00020338388583689742 -0.00081978282526248684 0 -0.0001480838313183022 -0.00078636011523986556 0 -0.000160119649724107 -0.00090877227777839682 0 -0.00019050902248235528 -0.0022623140332268784 0 -0.00020548880595794701 -0.0024571719795303221 0 -0.00025714920235007227 -0.0023762509405460533 0 0.00043621457125300072 -0.0018270152262685514 0 0.0005400442552931789 -0.0018690687971697326 0 0.00049675878198672768 -0.0019555543707537272 0 -0.00039682474884238729 -0.0011391652722110104 0 -0.00049244982277796409 -0.0011363652822387693 0 -0.00043517868198697648 -0.0010325285017129171 0 0.00013060488942817964 -0.00066410213481783503 0 0.00011498723905933089 -0.0004924811972477275 0 0.0001594233620242507 -0.00056916163591986472 0 -6.4587132592145769e-05 -0.0012212869496105207 0 -6.5757131004032411e-05 -0.0013561139475055074 0 -0.00012865057887192981 -0.0012740461180003075 0 8.6109761022455501e-05 -0.0009034287050060484 0 3.9461879071064226e-05 -0.00078552587587334892 0 9.8361982349257266e-05 -0.00079380504360818593 0 0.00015400078615041403 -0.0013870559586572485 0 9.415066450866062e-05 -0.0014758851469700016 0 8.1284510740048903e-05 -0.0013333063606821378 0 -0.00025341640239272815 -0.0019599588763507753 0 -0.00030048550630180877 -0.0018193648380703214 0 -0.00023112686914010788 -0.0018048766579479543 0 0.00015400078615041403 -0.0013870559586572485 0 0.00016803278049879416 -0.0015110386772124583 0 9.415066450866062e-05 -0.0014758851469700016 0 9.3928321130273793e-05 -0.0031044649406064221 0 5.4627564804771512e-09 -0.003103652311469909 0 2.7945507584594582e-05 -0.0029800076521821752 0 -0.00086816507380268137 -0.0017236442352155862 0 -0.00085738819154371226 -0.0015739156405402326 0 -0.00080054479425254919 -0.0016085358224740081 0 0.00084339318925703475 -0.0014271005969084781 0 0.00085739786337563225 -0.0015744608727515615 0 0.00079354275022846296 -0.0015175090364735414 0 -2.9691958470445349e-09 -1.0271475615421554e-07 0 2.3912098171911536e-09 -1.0406498881842691e-07 0 -2.6991979838762199e-06 -8.0206487584458971e-05 0 0.00049677533869442101 -0.0017128364142244689 0 0.00047096164807781385 -0.0015987664984436923 0 0.00054077152726178708 -0.0016149198992848541 0 -0.00012180975320461085 -0.0023790656854342155 0 -6.1255868505886467e-05 -0.0023355822691856301 0 -6.2119578241901673e-05 -0.0024685942085805935 0 7.3418818299869699e-05 -0.00055302325273853413 0 3.7062639109508302e-05 -0.00058776116372679591 0 3.3609238820766436e-05 -0.00047376527116027871 0 -0.00047093164650324591 -0.001276591798476993 0 -0.00045827705063527385 -0.0013803910795297748 0 -0.00052760460465188258 -0.0013942518249295786 0 8.6109761022455501e-05 -0.0009034287050060484 0 2.1519027223566478e-05 -0.00089772261517172627 0 3.9461879071064219e-05 -0.00078552587587334892 0 -0.00011394039708910011 -0.0016179507405808249 0 -3.5893153934833396e-05 -0.0016058007639134066 0 -8.8799108824303764e-05 -0.0017262995240965578 0 5.6766695328777525e-06 -0.0014471037303419754 0 -8.2218628330307805e-05 -0.0014944721105488914 0 -6.5757131004032411e-05 -0.0013561139475055074 0 -1.7859188034171435e-07 -2.9949408439152984e-07 0 -0.0001318480462755286 -0.00010294205627396935 0 -0.00029344799525592592 -0.00024529728131553608 0 1.7919392146703079e-07 -2.9956593652865333e-07 0 0.00013216888219297332 -0.00010307844005518606 0 -5.1572377571555953e-09 -9.2680891218349367e-08 0 1.7919392146703079e-07 -2.9956593652865333e-07 0 0.00029373913072453878 -0.000245137909954492 0 0.00013216888219297335 -0.00010307844005518609 0 -1.7859188034171435e-07 -2.9949408439152984e-07 0 4.7132121220659854e-09 -9.2315411422432601e-08 0 -0.0001318480462755286 -0.00010294205627396935 0 0.00090593901217691012 -0.0031525838185809583 0 0.00081835625431522807 -0.0031476648240367135 0 0.00084611707253089716 -0.0030441538645494975 0 0.00090593901217691012 -0.0031525838185809583 0 0.00084611707253089716 -0.0030441538645494975 0 0.00090096975450117069 -0.0029901663913280709 0 -0.00090609035966501405 -0.0031525021159805248 0 -0.00084983108429386746 -0.0030505166849828101 0 -0.00081850593184368996 -0.0031476153923780704 0 -0.00090609035966501405 -0.0031525021159805248 0 -0.00090115189951779965 -0.0029900864829071347 0 -0.00084983108429386746 -0.0030505166849828101 0 -0.00024913261668034367 -0.0016787779268356143 0 -0.00017623288553398223 -0.0015651509676070212 0 -0.00016994080422147001 -0.0017035322354593087 0 -0.00015522755390069825 -0.0014184155572110157 0 -0.00020853118490728604 -0.0013152317938441712 0 -0.00012865057887192981 -0.0012740461180003075 0 -0.00017339807016339499 -0.0011842189414394261 0 -0.00012865057887192978 -0.0012740461180003075 0 -0.00020853118490728604 -0.0013152317938441712 0 0.00020097270705013749 -0.0028384819030182525 0 0.00025423281136833863 -0.00296396965831965 0 0.00017249950269278719 -0.0029705927781665756 0 -0.00073969058127667457 -0.0018891141214846293 0 -0.00080523844753351882 -0.0019854571289722651 0 -0.00080613265703452194 -0.0018478346853682283 0 0.00068897376087204934 -0.0012106835203838412 0 0.00073462640177798821 -0.0011468957905903031 0 0.00076105483525748616 -0.0012808057822483738 0 -4.8296952672073559e-05 -0.00018372952501161476 0 -3.424491910504389e-05 -9.548063338562711e-05 0 -2.1788000320270705e-05 -8.9227655256940306e-05 0 0.00030500692349971688 -0.0023809273068534625 0 0.00031880072340934414 -0.0022154896009736157 0 0.00038269224153504404 -0.0022979932060080712 0 -0.00049863370757563552 -0.0020424390857913333 0 -0.0004079761308940462 -0.0020556995671024998 0 -0.00045148557632547449 -0.0021781491166834093 0 0.00042164757010221352 -0.00094700280025246841 0 0.00033634104237024553 -0.00090169160958131407 0 0.00035014373917508228 -0.00079651744737792675 0 -0.00019200980342683641 -0.00057275876775934051 0 -0.00023229235978146839 -0.00072838882819798855 0 -0.00026576045645530235 -0.00066281961431924829 0 8.0524058233772598e-05 -0.0011905113090646914 0 8.1284510740048903e-05 -0.0013333063606821378 0 1.2567103218702034e-05 -0.0012797940247105 0 -0.00023336095716769168 -0.00099158260154653824 0 -0.000160119649724107 -0.00090877227777839682 0 -0.00016971357775011177 -0.0010587481512288183 0 0.0003725626141399385 -0.0031165590856538209 0 0.0003266674100142084 -0.0030071650314702878 0 0.00040056954797063114 -0.0029587252780108944 0 -0.00088408031977475375 -0.0021869049862581181 0 -0.00082792568119615577 -0.0021098451775506954 0 -0.00080241280176029093 -0.0022382952894311452 0 0.00032602946008572357 -0.0028868705021472389 0 0.00040056954797063114 -0.0029587252780108944 0 0.0003266674100142084 -0.0030071650314702878 0 -0.00076576836603011063 -0.0021071770083264988 0 -0.00080241280176029093 -0.0022382952894311452 0 -0.00082792568119615577 -0.0021098451775506954 0 0.0007589179157095812 -0.0010006836346704935 0 0.00072759427588845057 -0.001039792901044626 0 0.0006655925989587319 -0.00090428656121840261 0 -9.1088712917451488e-09 -1.0653209317518232e-07 0 -3.3318566672536642e-05 -7.0738011783915504e-05 0 -6.4041445884273994e-05 -0.0001122785654061305 0 0.00066866123280799855 -0.0010084275823899005 0 0.0006655925989587319 -0.00090428656121840261 0 0.00072759427588845057 -0.001039792901044626 0 -6.9173187290551188e-05 -0.00015453560040341036 0 -6.4041445884273994e-05 -0.0001122785654061305 0 -3.3318566672536642e-05 -7.0738011783915504e-05 0 0.00074952311810810358 -0.0025551452303969277 0 0.00067619252195969762 -0.0025233018170527275 0 0.00072296459166079814 -0.0024255485329327505 0 -0.00057867357786485323 -0.002865206510660846 0 -0.00056242944060420246 -0.002727812901981048 0 -0.00050717474522216847 -0.0028128191293940686 0 0.00047438770492686579 -0.0020716163609080999 0 0.00049675878198672768 -0.0019555543707537272 0 0.00055297309639860254 -0.0020622681485573825 0 -0.00032278408902486154 -0.0023371813383147948 0 -0.00025714920235007227 -0.0023762509405460533 0 -0.00031248185941593976 -0.0024828740901597837 0 0.00021316324198498686 -0.00061555844225946591 0 0.00015942336202425073 -0.00056916163591986472 0 0.00017276947938092853 -0.00048178938623910872 0 -0.00039337884304925264 -0.00090981965655859598 0 -0.00043517868198697654 -0.0010325285017129171 0 -0.00046956079759329962 -0.00094790099890718386 0 0.00016893474922149851 -0.00019983658043939322 0 0.00023722346300344833 -0.00031993491589979011 0 0.00016640383830776831 -0.00024217543317365696 0 -0.00047845258882856938 -0.00054583415860826501 0 -0.00042711344292350393 -0.00054160433489153649 0 -0.00051434255678221505 -0.0006638134328242431 0 -0.00010219939050620277 -0.00098699554142711609 0 -5.4419499440473186e-05 -0.0010753794653885964 0 -0.00011410520194028866 -0.0011378425517630398 0 -0.00011772062065018215 -0.002783941417525226 0 -8.492954321668611e-05 -0.0026266832057021627 0 -2.2815665778698825e-05 -0.0027424447227871046 0 -0.00068091347544273738 -0.0013412833991646213 0 -0.00060615388163616534 -0.0013743992093813032 0 -0.00067480563934189215 -0.0014974435569858244 0 0.00070835729171091623 -0.0017424721151390677 0 0.00062507156746531025 -0.0016711429499940444 0 0.00067971464210704179 -0.0015759287761445584 0 3.3819339041898779e-05 -0.00022152813764416863 0 3.6007473088406208e-05 -0.00034356731760281593 0 7.5965499976351333e-06 -0.00025217393877012312 0 2.6803467128952884e-05 -0.0021004549845037171 0 -1.6979444800785266e-05 -0.00223513431880224 0 -5.9193278197136565e-05 -0.0021112314431947776 0 -9.5132212550686751e-05 -0.0022362285471174397 0 -5.9193278197136565e-05 -0.0021112314431947776 0 -1.6979444800785266e-05 -0.00223513431880224 0 -0.00034448850240516098 -0.0015181116397544039 0 -0.00041132627552729163 -0.0014502224867977316 0 -0.00034192084393570681 -0.0013612442442260857 0 -0.00040193479834040236 -0.0013089836838783549 0 -0.00034192084393570681 -0.0013612442442260857 0 -0.00041132627552729163 -0.0014502224867977316 0 0.00034519348177576987 -0.0014198096331978925 0 0.00041500252399641742 -0.0015035690389533479 0 0.00034757873356029478 -0.0015649990001083108 0 0.00041990823143215451 -0.0016526054133566026 0 0.00034757873356029478 -0.0015649990001083108 0 0.00041500252399641742 -0.0015035690389533479 0 0.00032602946008572357 -0.0028868705021472389 0 0.0002644438088278832 -0.0028289773945704725 0 0.00030878982512103445 -0.0027192491183866264 0 -0.00076576836603011063 -0.0021071770083264988 0 -0.00073551185420326042 -0.001998045222235813 0 -0.00067829723850716596 -0.0020701424969783843 0 0.00066866123280799855 -0.0010084275823899005 0 0.0006604377665636248 -0.0011003653893525871 0 0.00059053838179348587 -0.00099845958493737777 0 -6.9173187290551188e-05 -0.00015453560040341036 0 -6.7392889835985815e-05 -0.00019458753167241356 0 -0.00011149425901773935 -0.00028281456462827642 0 0.00025443224924006307 -0.0026024484674036933 0 0.00030878982512103445 -0.0027192491183866264 0 0.00022803869526380021 -0.0027067156311487055 0 -0.00061715862776920069 -0.0019669303168440015 0 -0.00067829723850716596 -0.0020701424969783843 0 -0.00067167550918956394 -0.0019278700693140106 0 0.00055107851097449577 -0.0010723742022055794 0 0.00059053838179348587 -0.00099845958493737777 0 0.00061318978770023044 -0.0011377992805706627 0 -0.00011414594681750162 -0.00037298054462422026 0 -0.00011149425901773935 -0.00028281456462827642 0 -8.2313380266045468e-05 -0.00028684470515988087 0 -6.4587132592145769e-05 -0.0012212869496105207 0 7.8336196956977017e-06 -0.0011370841188982721 0 1.2567103218702034e-05 -0.0012797940247105 0 0.00063703037761678703 -0.0021435934106777861 0 0.00068395127966545163 -0.0020496885445866453 0 0.00071393023586861944 -0.0021493365245548492 0 -0.00035270666922402547 -0.0026424146499283612 0 -0.00029690733281405838 -0.0027301593351504523 0 -0.00035205274429898106 -0.0027882787218368129 0 0.00015302268001423226 -0.00034922935638649849 0 0.00010485455664314793 -0.00027329778847219285 0 0.00010994480459326302 -0.00023173582763852608 0 -0.00053208585998878479 -0.00090480508313616924 0 -0.00060045223028004093 -0.0010222445194050674 0 -0.00060659183274321192 -0.00093884507478377802 0 0.00051167252803193406 -0.00259550556951634 0 0.00056654177539687393 -0.0026992786667401594 0 0.00050883782162799778 -0.0027592226382689004 0 -0.00060696266677180959 -0.0024274308968758201 0 -0.00066100047712237039 -0.0025304391255435293 0 -0.00069469154699254153 -0.0024276941450847829 0 0.00030500692349971688 -0.0023809273068534625 0 0.00025737115628707958 -0.0022633738290986907 0 0.00031880072340934414 -0.0022154896009736157 0 -0.00049863370757563552 -0.0020424390857913333 0 -0.00043647500412140534 -0.0019485451902310567 0 -0.0004079761308940462 -0.0020556995671024998 0 0.00042164757010221352 -0.00094700280025246841 0 0.0003794303051865814 -0.001017918016192363 0 0.00033634104237024553 -0.00090169160958131407 0 -0.00019200980342683641 -0.00057275876775934051 0 -0.00017834229059422309 -0.00067285085658223701 0 -0.00023229235978146839 -0.00072838882819798855 0 -0.00010231750146650698 -0.0020001302640350444 0 -8.077993433976053e-05 -0.0018693503458147302 0 -3.9545577425564037e-05 -0.0019924368415469938 0 0.0003725626141399385 -0.0031165590856538209 0 0.00028025462858757123 -0.0031111436639179742 0 0.0003266674100142084 -0.0030071650314702878 0 -0.00088408031977475375 -0.0021869049862581181 0 -0.00088048698970442376 -0.0020307615318702452 0 -0.00082792568119615577 -0.0021098451775506954 0 0.0007589179157095812 -0.0010006836346704935 0 0.00079604289599966688 -0.0011389713520059449 0 0.00072759427588845057 -0.001039792901044626 0 -9.1088712917451488e-09 -1.0653209317518232e-07 0 -1.3078492602007233e-08 -1.0394521267176043e-07 0 -3.3318566672536642e-05 -7.0738011783915504e-05 0 -2.001456818020926e-06 -0.0010192418463524713 0 -4.0631799563962197e-05 -0.00092371472533985411 0 2.1519027223566478e-05 -0.00089772261517172627 0 5.4627564804771512e-09 -0.003103652311469909 0 -9.4081197257043649e-05 -0.0031045719046406566 0 -4.6619769354858787e-05 -0.0030062819422872734 0 -0.00085738819154371226 -0.0015739156405402326 0 -0.0008426425557088896 -0.0014274182578893487 0 -0.00080348790347667301 -0.0014900387151206011 0 0.00085739786337563225 -0.0015744608727515617 0 0.00086738571436736065 -0.0017238700963433109 0 0.00081505002561449707 -0.0016413984166016521 0 2.3912098171911536e-09 -1.0406498881842691e-07 0 -2.6408972262058677e-10 -1.0639519432916314e-07 0 4.5759572828575884e-06 -6.2868658933933942e-05 0 0.00048580649401423504 -0.00055732747797244291 0 0.00050194142893678333 -0.00064913522134219534 0 0.00042621737462652284 -0.00054149548007275761 0 -0.00016204705556374676 -0.00019643977475934017 0 -0.00017601969561089175 -0.00025439116490169757 0 -0.00023808444419929459 -0.00032190399930741607 0 -2.2680811177593991e-05 -0.00078744123537415848 0 2.1519027223566478e-05 -0.00089772261517172627 0 -4.0631799563962197e-05 -0.00092371472533985411 0 0.00015400078615041403 -0.0013870559586572485 0 0.00015549248912242498 -0.0012499669969407155 0 0.00021449392024842557 -0.0013375638917686463 0 0.00023293978340854663 -0.0012351493732807777 0 0.00021449392024842559 -0.0013375638917686463 0 0.00015549248912242498 -0.0012499669969407155 0 -0.0008426425557088896 -0.0014274182578893487 0 -0.00077006384986123735 -0.0013793109942692346 0 -0.00080348790347667301 -0.0014900387151206011 0 -9.4081197257043649e-05 -0.0031045719046406566 0 -0.00011113424665087304 -0.0029605032500237892 0 -4.6619769354858787e-05 -0.0030062819422872734 0 -2.6408972262058677e-10 -1.0639519432916314e-07 0 1.4889329733437505e-05 -9.4581126213377987e-05 0 4.5759572828575884e-06 -6.2868658933933942e-05 0 0.00086738571436736065 -0.0017238700963433109 0 0.00079732821853765404 -0.001744780337367723 0 0.00081505002561449707 -0.0016413984166016521 0 0.00012758124110252432 -0.0021016883583354099 0 0.00019630442916707474 -0.0020030948082757319 0 0.00019607900112345489 -0.0021327223274040124 0 -0.0003478223057891405 -0.0016971884668793029 0 -0.00030048550630180882 -0.0018193648380703214 0 -0.00036689234719733258 -0.0018289785741424861 0 0.00032644158794473252 -0.0012404974724594445 0 0.00026200820232082843 -0.0011041894590480869 0 0.00033013920441571837 -0.0011153837027719797 0 -9.6545993681012126e-05 -0.00080979430232633938 0 -0.000160119649724107 -0.00090877227777839682 0 -0.0001480838313183022 -0.00078636011523986556 0 -0.00024913261668034367 -0.0016787779268356143 0 -0.00023112686914010788 -0.0018048766579479543 0 -0.00030048550630180877 -0.0018193648380703214 0 -0.00011394039708910011 -0.0016179507405808249 0 -0.00016994080422147003 -0.0017035322354593087 0 -0.00017623288553398223 -0.0015651509676070212 0 0.00030500692349971688 -0.0023809273068534625 0 0.00038269224153504404 -0.0022979932060080712 0 0.00036048575079968817 -0.0024498156013983154 0 -0.00049863370757563552 -0.0020424390857913333 0 -0.00045148557632547449 -0.0021781491166834093 0 -0.00053393284634122105 -0.0021469294500814961 0 0.00042164757010221352 -0.00094700280025246841 0 0.00035014373917508228 -0.00079651744737792675 0 0.00043278369541784799 -0.00085632863093178929 0 -0.00019200980342683641 -0.00057275876775934051 0 -0.00026576045645530235 -0.00066281961431924829 0 -0.00021320271831208259 -0.00052075629396329981 0 -0.00023336095716769168 -0.00099158260154653824 0 -0.00016971357775011177 -0.0010587481512288183 0 -0.00023548904440243582 -0.0011385644926290262 0 0.00032602946008572357 -0.0028868705021472389 0 0.00030878982512103445 -0.0027192491183866264 0 0.0003738408919382346 -0.0027914569454751343 0 -0.00076576836603011063 -0.0021071770083264988 0 -0.00067829723850716596 -0.0020701424969783843 0 -0.00071539936426844801 -0.0021880354385835458 0 0.00066866123280799855 -0.0010084275823899005 0 0.00059053838179348587 -0.00099845958493737777 0 0.00059368228502516027 -0.00089851086611133244 0 -6.9173187290551188e-05 -0.00015453560040341036 0 -0.00011149425901773936 -0.00028281456462827642 0 -0.00011801196862242831 -0.00023627517588477887 0 6.2793864720577633e-05 -0.0027258036749561333 0 0.0001262680340468971 -0.002813785009213518 0 4.4499052094808863e-05 -0.0028469458306083083 0 -0.00067491157257300565 -0.0016429679266909696 0 -0.00072409330567972305 -0.0017597974725192379 0 -0.00073529468782858711 -0.0016241387745441864 0 -2.1539808434663785e-05 -0.00026557218432332526 0 -3.2571855824654705e-05 -0.0002010255788254424 0 -1.0513010981731542e-05 -0.00017419311631210383 0 -0.00017339807016339499 -0.0011842189414394261 0 -0.00023548904440243582 -0.0011385644926290262 0 -0.00016971357775011177 -0.0010587481512288183 0 0.00085739786337563225 -0.0015744608727515617 0 0.00081505002561449707 -0.0016413984166016521 0 0.00079354275022846296 -0.0015175090364735414 0 2.3912098171911536e-09 -1.0406498881842691e-07 0 4.5759572828575884e-06 -6.2868658933933928e-05 0 -2.6991979838762199e-06 -8.0206487584458971e-05 0 0.00075444860663591729 -0.0015943810325506778 0 0.00079354275022846296 -0.0015175090364735414 0 0.00081505002561449707 -0.0016413984166016521 0 4.7618211926426952e-06 -0.00014328799741323696 0 -2.6991979838762199e-06 -8.0206487584458957e-05 0 4.5759572828575884e-06 -6.2868658933933942e-05 0 -0.00085738819154371226 -0.0015739156405402326 0 -0.00080348790347667301 -0.0014900387151206011 0 -0.00080054479425254919 -0.0016085358224740081 0 5.4627564804771512e-09 -0.003103652311469909 0 -4.6619769354858787e-05 -0.0030062819422872734 0 2.7945507584594582e-05 -0.0029800076521821752 0 -2.4677547222982075e-05 -0.0028887928072678943 0 2.7945507584594582e-05 -0.0029800076521821752 0 -4.6619769354858787e-05 -0.0030062819422872734 0 -0.00074889562391318096 -0.0015123731812703273 0 -0.00080054479425254919 -0.0016085358224740081 0 -0.00080348790347667301 -0.0014900387151206011 0 9.8072494730095926e-05 -0.0029333255242149268 0 4.4499052094808863e-05 -0.0028469458306083083 0 0.0001262680340468971 -0.002813785009213518 0 -0.00078274030874696851 -0.0017212478530012215 0 -0.00073529468782858711 -0.0016241387745441864 0 -0.00072409330567972305 -0.0017597974725192379 0 -1.4583277622066287e-05 -0.00011527301644874992 0 -1.0513010981731543e-05 -0.00017419311631210383 0 -3.2571855824654705e-05 -0.0002010255788254424 0 0.00036497360899762055 -0.0026022134821078787 0 0.00030727954702985136 -0.0025145716833192997 0 0.00036048575079968817 -0.0024498156013983154 0 -0.00061546086004172986 -0.0021633898672672874 0 -0.00056998497411056093 -0.0020552560952969501 0 -0.00053393284634122105 -0.0021469294500814961 0 0.0005058332430106084 -0.00087498335717692657 0 0.00048737812729578579 -0.00096225660289514297 0 0.00043278369541784799 -0.00085632863093178929 0 -0.00017210524351183958 -0.00038595047100238903 0 -0.0001628436896230598 -0.00045473354900026265 0 -0.00021320271831208259 -0.00052075629396329981 0 -0.00027861079958827096 -0.0012680710337824822 0 -0.00020853118490728604 -0.0013152317938441712 0 -0.00028442515573346523 -0.0013906144603367991 0 -9.5132212550686751e-05 -0.0022362285471174397 0 -6.1255868505886453e-05 -0.0023355822691856301 0 -0.00012180975320461085 -0.0023790656854342155 0 0.00041990823143215451 -0.0016526054133566026 0 0.00047096164807781385 -0.0015987664984436923 0 0.00049677533869442101 -0.0017128364142244689 0 -0.00040193479834040236 -0.0013089836838783549 0 -0.00045827705063527385 -0.0013803910795297748 0 -0.00047093164650324591 -0.001276591798476993 0 6.4727732518792807e-05 -0.00067714307678169846 0 3.7062639109508295e-05 -0.00058776116372679591 0 7.3418818299869699e-05 -0.00055302325273853413 0 0.00028025462858757123 -0.0031111436639179742 0 0.00025423281136833863 -0.00296396965831965 0 0.0003266674100142084 -0.0030071650314702878 0 -0.00088048698970442376 -0.0020307615318702452 0 -0.00080523844753351882 -0.0019854571289722651 0 -0.00082792568119615577 -0.0021098451775506954 0 0.00079604289599966688 -0.0011389713520059449 0 0.00073462640177798821 -0.0011468957905903031 0 0.00072759427588845057 -0.001039792901044626 0 -1.3078492602007233e-08 -1.0394521267176043e-07 0 -3.424491910504389e-05 -9.548063338562711e-05 0 -3.3318566672536642e-05 -7.0738011783915504e-05 0 0.00032602946008572357 -0.0028868705021472389 0 0.0003266674100142084 -0.0030071650314702878 0 0.00025423281136833863 -0.00296396965831965 0 -0.00076576836603011063 -0.0021071770083264988 0 -0.00082792568119615577 -0.0021098451775506954 0 -0.00080523844753351882 -0.0019854571289722651 0 0.00066866123280799855 -0.0010084275823899005 0 0.00072759427588845057 -0.001039792901044626 0 0.00073462640177798821 -0.0011468957905903031 0 -6.9173187290551188e-05 -0.00015453560040341036 0 -3.3318566672536649e-05 -7.0738011783915518e-05 0 -3.424491910504389e-05 -9.548063338562711e-05 0 0.00075829168523830048 -0.0013971788907930754 0 0.00072423948588128291 -0.0014735661359103246 0 0.00069012218487586043 -0.0013303778240709302 0 0.00066035097245669046 -0.0014265578757110973 0 0.00069012218487586043 -0.0013303778240709302 0 0.00072423948588128291 -0.0014735661359103246 0 -1.4584122386418501e-05 -0.0017441671650800764 0 -8.077993433976053e-05 -0.0018693503458147302 0 -8.8799108824303764e-05 -0.0017262995240965578 0 8.0989056421531001e-05 -0.0022679320105966289 0 0.00013762140866312191 -0.0023704311396127767 0 6.8563202083854778e-05 -0.0024462549544479184 0 -0.00043618837321775158 -0.0016297367657862659 0 -0.00049274505754171494 -0.0017408369710876098 0 -0.0005295808839900284 -0.0016241933970795185 0 0.00042041974027770746 -0.0013372813318653031 0 0.00046303603790470146 -0.001246600881908391 0 0.00051480763241355473 -0.0013798196754811693 0 -5.4579495180983539e-05 -0.00065106181868156523 0 -8.3811525795688985e-05 -0.0005636169054833636 0 -3.7631151599128602e-05 -0.00049405428890662698 0 0.00013016817243744473 -0.0015907082907700727 0 0.00016803278049879416 -0.0015110386772124583 0 0.00021003552261464068 -0.0016350562496757239 0 0.00030878982512103445 -0.0027192491183866264 0 0.00026444380882788325 -0.002828977394570473 0 0.00022803869526380021 -0.0027067156311487055 0 -0.00067829723850716596 -0.0020701424969783843 0 -0.00073551185420326042 -0.001998045222235813 0 -0.00067167550918956394 -0.0019278700693140106 0 0.00059053838179348587 -0.00099845958493737777 0 0.0006604377665636248 -0.0011003653893525871 0 0.00061318978770023044 -0.0011377992805706627 0 -0.00011149425901773935 -0.00028281456462827642 0 -6.7392889835985815e-05 -0.00019458753167241356 0 -8.2313380266045468e-05 -0.00028684470515988087 0 -1.4584122386418501e-05 -0.0017441671650800764 0 -8.8799108824303764e-05 -0.0017262995240965578 0 -3.5893153934833396e-05 -0.0016058007639134066 0 0.00075710957549228236 -0.002043625292384956 0 0.00071393023586861944 -0.0021493365245548492 0 0.00068395127966545174 -0.0020496885445866453 0 6.5427027098777604e-05 -0.00016468884182702895 0 0.00010994480459326302 -0.00023173582763852608 0 0.00010485455664314793 -0.0002732977884721929 0 -0.00028982272758948602 -0.0028702173125676931 0 -0.00035205274429898106 -0.0027882787218368129 0 -0.00029690733281405838 -0.0027301593351504523 0 -0.00067532908977146653 -0.0010658171515692569 0 -0.00060659183274321192 -0.00093884507478377802 0 -0.00060045223028004093 -0.0010222445194050674 0 0.00020097270705013749 -0.0028384819030182525 0 0.00026444380882788325 -0.002828977394570473 0 0.00025423281136833863 -0.00296396965831965 0 -0.00073969058127667457 -0.0018891141214846293 0 -0.00073551185420326042 -0.001998045222235813 0 -0.00080523844753351882 -0.0019854571289722651 0 0.00068897376087204934 -0.0012106835203838412 0 0.0006604377665636248 -0.0011003653893525871 0 0.00073462640177798821 -0.0011468957905903031 0 -4.8296952672073559e-05 -0.00018372952501161476 0 -6.7392889835985815e-05 -0.00019458753167241356 0 -3.424491910504389e-05 -9.548063338562711e-05 0 0.00032602946008572357 -0.0028868705021472389 0 0.00025423281136833863 -0.00296396965831965 0 0.00026444380882788325 -0.002828977394570473 0 -0.00076576836603011063 -0.0021071770083264988 0 -0.00080523844753351882 -0.0019854571289722651 0 -0.00073551185420326042 -0.001998045222235813 0 0.00066866123280799855 -0.0010084275823899005 0 0.00073462640177798821 -0.0011468957905903031 0 0.0006604377665636248 -0.0011003653893525871 0 -6.9173187290551188e-05 -0.00015453560040341036 0 -3.424491910504389e-05 -9.548063338562711e-05 0 -6.7392889835985815e-05 -0.00019458753167241356 0 0.00012303301979051207 -0.0025036068179387192 0 6.8563202083854778e-05 -0.0024462549544479184 0 0.00013762140866312194 -0.0023704311396127767 0 -0.00056267062760564327 -0.0017264892236535517 0 -0.0005295808839900284 -0.0016241933970795185 0 -0.00049274505754171494 -0.0017408369710876098 0 0.00053495724946371951 -0.0012901347154886456 0 0.00051480763241355473 -0.0013798196754811693 0 0.00046303603790470146 -0.001246600881908391 0 -6.2973000533973888e-05 -0.00044722311436314939 0 -3.7631151599128602e-05 -0.00049405428890662698 0 -8.3811525795688985e-05 -0.0005636169054833636 0 -0.00010231750146650698 -0.0020001302640350444 0 -5.9193278197136565e-05 -0.0021112314431947776 0 -0.00013200595636268456 -0.0021155414277093053 0 -9.5132212550686751e-05 -0.0022362285471174397 0 -0.00013200595636268456 -0.0021155414277093053 0 -5.9193278197136565e-05 -0.0021112314431947776 0 0.00029295836652129228 -0.0016477192360074282 0 0.00034757873356029484 -0.0015649990001083108 0 0.00035696481972310085 -0.0017067647746038426 0 -0.00027861079958827096 -0.0012680710337824822 0 -0.00034192084393570681 -0.0013612442442260857 0 -0.00033929233382250137 -0.001240055759306387 0 0.00041990823143215451 -0.0016526054133566026 0 0.00035696481972310085 -0.0017067647746038426 0 0.00034757873356029478 -0.0015649990001083108 0 -0.00040193479834040236 -0.0013089836838783549 0 -0.00033929233382250137 -0.001240055759306387 0 -0.00034192084393570681 -0.0013612442442260857 0 -6.4587132592145769e-05 -0.0012212869496105207 0 -5.4419499440473186e-05 -0.0010753794653885964 0 7.8336196956977017e-06 -0.0011370841188982721 0 -2.001456818020926e-06 -0.0010192418463524713 0 7.8336196956977e-06 -0.0011370841188982721 0 -5.4419499440473186e-05 -0.0010753794653885964 0 6.4727732518792807e-05 -0.00067714307678169846 0 9.8361982349257266e-05 -0.00079380504360818593 0 3.9461879071064219e-05 -0.00078552587587334892 0 -2.2680811177593991e-05 -0.00078744123537415848 0 3.9461879071064219e-05 -0.00078552587587334892 0 2.1519027223566478e-05 -0.00089772261517172627 0 -6.4587132592145769e-05 -0.0012212869496105207 0 -0.00012865057887192981 -0.0012740461180003075 0 -0.00011410520194028866 -0.0011378425517630398 0 -0.00017339807016339499 -0.0011842189414394261 0 -0.00011410520194028866 -0.0011378425517630398 0 -0.00012865057887192981 -0.0012740461180003075 0 0.00075829168523830048 -0.0013971788907930754 0 0.00079354275022846296 -0.0015175090364735414 0 0.00072423948588128291 -0.0014735661359103246 0 -1.4583277622066287e-05 -0.00011527301644874992 0 -2.6991979838762199e-06 -8.0206487584458971e-05 0 -1.0513010981731542e-05 -0.00017419311631210383 0 0.00075444860663591729 -0.0015943810325506778 0 0.00072423948588128291 -0.0014735661359103246 0 0.00079354275022846296 -0.0015175090364735414 0 4.7618211926426952e-06 -0.00014328799741323696 0 -1.0513010981731542e-05 -0.00017419311631210383 0 -2.6991979838762199e-06 -8.0206487584458971e-05 0 9.8072494730095926e-05 -0.0029333255242149268 0 2.7945507584594582e-05 -0.0029800076521821752 0 4.4499052094808863e-05 -0.0028469458306083083 0 -0.00078274030874696851 -0.0017212478530012215 0 -0.00080054479425254919 -0.0016085358224740081 0 -0.00073529468782858711 -0.0016241387745441864 0 -2.4677547222982075e-05 -0.0028887928072678943 0 4.4499052094808863e-05 -0.0028469458306083083 0 2.7945507584594582e-05 -0.0029800076521821752 0 -0.00074889562391318096 -0.0015123731812703273 0 -0.00073529468782858711 -0.0016241387745441864 0 -0.00080054479425254919 -0.0016085358224740081 0 0.00036550162657425966 -0.0021423854183957249 0 0.00038269224153504404 -0.0022979932060080712 0 0.00031880072340934414 -0.0022154896009736157 0 -0.00036761051077845196 -0.0021391012146704485 0 -0.00045148557632547449 -0.0021781491166834093 0 -0.0004079761308940462 -0.0020556995671024998 0 0.00028624483425328636 -0.00081157567441700253 0 0.00035014373917508228 -0.00079651744737792675 0 0.00033634104237024553 -0.00090169160958131407 0 -0.00028348466550334126 -0.00080818212121262605 0 -0.00026576045645530235 -0.00066281961431924829 0 -0.00023229235978146839 -0.00072838882819798855 0 -2.2680811177593991e-05 -0.00078744123537415848 0 8.9413729639215802e-06 -0.00067702965159626783 0 3.9461879071064219e-05 -0.00078552587587334892 0 -4.0244303549276686e-08 -0.0023769502469421634 0 -6.1255868505886453e-05 -0.0023355822691856301 0 -1.6979444800785266e-05 -0.00223513431880224 0 -9.5132212550686751e-05 -0.0022362285471174397 0 -1.6979444800785266e-05 -0.00223513431880224 0 -6.1255868505886453e-05 -0.0023355822691856301 0 0.00041990823143215451 -0.0016526054133566026 0 0.00041500252399641742 -0.0015035690389533479 0 0.00047096164807781385 -0.0015987664984436923 0 0.00048715337448980943 -0.0014946373389635385 0 0.00047096164807781385 -0.0015987664984436923 0 0.00041500252399641742 -0.0015035690389533479 0 -0.00048735401104801158 -0.0014945372583877944 0 -0.00045827705063527385 -0.0013803910795297748 0 -0.00041132627552729163 -0.0014502224867977316 0 -0.00040193479834040236 -0.0013089836838783549 0 -0.00041132627552729163 -0.0014502224867977316 0 -0.00045827705063527385 -0.0013803910795297748 0 6.4727732518792807e-05 -0.00067714307678169846 0 8.9413729639215735e-06 -0.00067702965159626783 0 3.7062639109508295e-05 -0.00058776116372679591 0 -1.085272067988078e-07 -0.00055322074001437312 0 3.7062639109508295e-05 -0.00058776116372679602 0 8.9413729639215735e-06 -0.00067702965159626783 0 0.00025112717937458698 -0.001469215466295113 0 0.00021449392024842557 -0.0013375638917686463 0 0.00027816495330605764 -0.0013495662033365704 0 -4.0244303549276686e-08 -0.0023769502469421634 0 -6.2119578241901673e-05 -0.0024685942085805935 0 -6.1255868505886453e-05 -0.0023355822691856301 0 -0.00048735401104801158 -0.0014945372583877944 0 -0.00052760460465188248 -0.0013942518249295786 0 -0.00045827705063527385 -0.0013803910795297748 0 0.00048715337448980943 -0.0014946373389635385 0 0.00054077152726178708 -0.0016149198992848541 0 0.00047096164807781385 -0.0015987664984436923 0 -1.085272067988078e-07 -0.00055322074001437312 0 3.3609238820766429e-05 -0.00047376527116027871 0 3.7062639109508295e-05 -0.00058776116372679591 0 6.4727732518792807e-05 -0.00067714307678169846 0 3.9461879071064219e-05 -0.00078552587587334892 0 8.9413729639215735e-06 -0.00067702965159626783 0 0.00026238610455789184 -0.0021078014328089313 0 0.00031880072340934414 -0.0022154896009736157 0 0.00025737115628707958 -0.0022633738290986907 0 -0.00035218362783066332 -0.0019483127436756701 0 -0.0004079761308940462 -0.0020556995671024998 0 -0.00043647500412140534 -0.0019485451902310567 0 0.00030190499753431841 -0.0009931516467554084 0 0.00033634104237024553 -0.00090169160958131407 0 0.0003794303051865814 -0.001017918016192363 0 -0.00020338388583689742 -0.00081978282526248684 0 -0.00023229235978146839 -0.00072838882819798855 0 -0.00017834229059422309 -0.00067285085658223701 0 0.00023293978340854663 -0.0012351493732807777 0 0.00027816495330605764 -0.0013495662033365704 0 0.00021449392024842557 -0.0013375638917686463 0 0.00088025776944352079 -0.0020306261058682337 0 0.00082774778500395105 -0.0020923157297423013 0 0.00082293949573466986 -0.0019833494121076801 0 1.0827833966884207e-08 -1.0303395981498207e-07 0 3.2528671305813439e-05 -6.9064451815921578e-05 0 2.5734753939986337e-05 -7.1464944693482572e-05 0 -0.00028052814545481643 -0.0031112270134320921 0 -0.00031677144976794205 -0.0030070653976846046 0 -0.00025295135158754761 -0.0029994983814685726 0 -0.0007959247266497427 -0.0011398137315811246 0 -0.00073197805689174261 -0.0010560081623775508 0 -0.00075211967254242809 -0.0011570778762723681 0 0.00030500692349971688 -0.0023809273068534625 0 0.00036048575079968817 -0.0024498156013983154 0 0.00030727954702985136 -0.0025145716833192997 0 -0.00049863370757563552 -0.0020424390857913333 0 -0.00053393284634122105 -0.0021469294500814961 0 -0.00056998497411056093 -0.0020552560952969501 0 0.00042164757010221352 -0.00094700280025246841 0 0.00043278369541784799 -0.00085632863093178929 0 0.00048737812729578579 -0.00096225660289514297 0 -0.00019200980342683641 -0.00057275876775934051 0 -0.00021320271831208259 -0.00052075629396329981 0 -0.0001628436896230598 -0.00045473354900026265 0 -0.00010231750146650698 -0.0020001302640350444 0 -3.9545577425564037e-05 -0.0019924368415469938 0 -5.9193278197136565e-05 -0.0021112314431947776 0 -0.00027861079958827096 -0.0012680710337824822 0 -0.00028442515573346517 -0.0013906144603367991 0 -0.00034192084393570681 -0.0013612442442260857 0 -6.4587132592145769e-05 -0.0012212869496105207 0 -0.00011410520194028866 -0.0011378425517630398 0 -5.4419499440473186e-05 -0.0010753794653885964 0 -0.00024913261668034367 -0.0016787779268356143 0 -0.00016994080422147001 -0.0017035322354593087 0 -0.00023112686914010788 -0.0018048766579479543 0 0.00020097270705013749 -0.0028384819030182525 0 0.00022803869526380021 -0.0027067156311487055 0 0.00026444380882788325 -0.002828977394570473 0 -0.00073969058127667457 -0.0018891141214846293 0 -0.00067167550918956394 -0.0019278700693140106 0 -0.00073551185420326042 -0.001998045222235813 0 0.00068897376087204934 -0.0012106835203838412 0 0.00061318978770023044 -0.0011377992805706627 0 0.0006604377665636248 -0.0011003653893525871 0 -4.8296952672073559e-05 -0.00018372952501161476 0 -8.2313380266045468e-05 -0.00028684470515988087 0 -6.7392889835985815e-05 -0.00019458753167241356 0 -0.00016787806130479058 -0.0018346662470696158 0 -0.00023112686914010788 -0.0018048766579479543 0 -0.00016994080422147001 -0.0017035322354593087 0 
</DataArray>
</PointData>
<CellData Scalars="" Vectors="" Tensors="stress,">
<DataArray type="Float64" Name="stress" NumberOfComponents="9" format="ascii">
960700.58814620972 675973.54681819677 0 675973.54681819677 -101832958.6338141 0 0 0 -35305290.315983772 -251969.10905253887 -1661379.8139555752 0 -1661379.8139555752 -101232547.44803262 0 0 0 -35519580.794979692 -3153935.0756794214 44146.961919665337 0 44146.961919665337 -102320154.84556007 0 0 0 -36915931.472433925 -16891104.041624159 1635552.6192081869 0 1635552.6192081869 -103406282.14878511 0 0 0 -42104085.166643202 232578.56115019321 -770439.02491888404 0 -770439.02491888404 -102168951.84479713 0 0 0 -35677730.649276495 316329.164306283 -1194494.4833776653 0 -1194494.4833776653 -102204722.54693174 0 0 0 -35660937.683918953 -5948542.3302175999 266316.73347827792 0 266316.73347827792 -103481640.82808018 0 0 0 -38300564.105404139 -5846018.1980101764 996914.34853112698 0 996914.34853112698 -103254137.00664258 0 0 0 -38185054.321628422 1579960.2878786325 -805462.48076796532 0 -805462.48076796532 -100068722.01874828 0 0 0 -34471066.605804324 222797.93953430653 1159890.2550757527 0 1159890.2550757527 -98088087.709178448 0 0 0 -34252851.4193753 -1360200.3173949122 1668203.2261582017 0 1668203.2261582017 -94107094.97663331 0 0 0 -33413553.352909863 -42440147.832503743 -13287460.603377316 0 -13287460.603377316 -99964918.524653032 0 0 0 -49841773.225004859 419832.4605281353 -198836.43003458393 0 -198836.43003458393 -99890001.914312363 0 0 0 -34814559.308824539 114672.63621765304 207715.90337848663 0 207715.90337848663 -99570165.062564269 0 0 0 -34809422.349221408 2632839.4131163657 -3895501.9412682205 0 -3895501.9412682205 -95016461.321170568 0 0 0 -32334267.667818934 452367.10561823845 216487.52690565586 0 216487.52690565586 -99880416.861639023 0 0 0 -34799817.414607525 -55101807.69841966 29833246.71656486 0 29833246.71656486 -102366293.61947246 0 0 0 -55113835.461262234 125041.47422671318 -226819.73514580727 0 -226819.73514580727 -99535712.199555397 0 0 0 -34793734.753865004 2696632.2626308799 4009942.970931083 0 4009942.970931083 -94740364.491436601 0 0 0 -32215306.280082017 -55340139.833172671 -29878305.525685444 0 -29878305.525685444 -102809127.08036701 0 0 0 -55352243.419738889 -1114945.8815585971 1525707.6559158266 0 1525707.6559158266 -95467422.313486695 0 0 0 -33803828.868265808 -37422880.739657059 -17926840.868833769 0 -17926840.868833769 -90179866.782609701 0 0 0 -44660961.632793367 1067600.7605372667 -343408.34259474277 0 -343408.34259474277 -100058041.27051067 0 0 0 -34646654.178490758 -71873.120812892914 408155.73603758216 0 408155.73603758216 -98875553.055504322 0 0 0 -34631599.161710978 -28835.638475060463 -441233.41910621524 0 -441233.41910621524 -98884070.945910692 0 0 0 -34619517.304534912 -38073191.169805929 17775798.629969288 0 17775798.629969288 -90650914.385574758 0 0 0 -45053436.944383234 1058398.6341260672 371272.29785251617 0 371272.29785251617 -100023289.7897265 0 0 0 -34637711.904460311 -972049.37973982096 -1572342.6781113446 0 -1572342.6781113446 -95795397.833800435 0 0 0 -33868606.524739057 1623888.2286387682 -188298.54041466117 0 -188298.54041466117 -100992256.53410721 0 0 0 -34778928.906913996 -460776.88985413313 2024363.9354660511 0 2024363.9354660511 -99823899.163272262 0 0 0 -35099636.618594229 -709527.43639844656 -1475534.455031842 0 -1475534.455031842 -100344585.35615945 0 0 0 -35368939.477395177 -22633251.467761338 -179525.5970422104 0 -179525.5970422104 -99016363.036821783 0 0 0 -42577365.076604068 1554071.8231642246 -290776.4851169443 0 -290776.4851169443 -99948235.097119331 0 0 0 -34437957.145884037 129276.8956411258 381327.55434656143 0 381327.55434656143 -98253088.915170088 0 0 0 -34343334.206834994 73230.941462905248 1072698.6085503846 0 1072698.6085503846 -87044909.556043923 0 0 0 -30440087.51510331 -52742838.322883829 -16119819.983202789 0 -16119819.983202789 -97966470.923388273 0 0 0 -52748258.236195229 46896.973284383632 -407048.28764712811 0 -407048.28764712811 -98284128.570298135 0 0 0 -34383031.058954813 -52609113.260845177 16044585.991854992 0 16044585.991854992 -97716155.314858899 0 0 0 -52613844.001496427 1538462.457321167 314600.80426270503 0 314600.80426270503 -100026204.71309137 0 0 0 -34470709.789519548 145422.1355175972 -1276029.0951240212 0 -1276029.0951240212 -86928657.107205033 0 0 0 -30374132.240090549 48126.987779259682 -513120.40628229082 0 -513120.40628229082 -98043533.031648397 0 0 0 -34298392.115354061 -36255742.373968586 14591853.449850973 0 14591853.449850973 -88541523.215144292 0 0 0 -43679042.956189506 1772562.807864666 360777.00939786434 0 360777.00939786434 -99965873.274260163 0 0 0 -34367658.663238287 -1611834.5760526657 600385.59398491681 0 600385.59398491681 -93969746.934932351 0 0 0 -33453553.528844774 715143.98379731178 -1191242.6309457719 0 -1191242.6309457719 -99270534.493654251 0 0 0 -34494386.678449869 839688.19339758158 1093393.5206129551 0 1093393.5206129551 -99621876.739724398 0 0 0 -34573765.991214216 1311062.6751084328 718365.72360819578 0 718365.72360819578 -101199717.11079502 0 0 0 -34961029.052490473 8956.3842074424028 -2028411.0469804406 0 -2028411.0469804406 -100950944.12523022 0 0 0 -35329695.709357902 -1910711.1985302418 445685.46872019768 0 445685.46872019768 -101822617.05635169 0 0 0 -36306664.889208719 -15288417.42450422 1996635.1165412944 0 1996635.1165412944 -100597594.60042071 0 0 0 -40560104.208723724 256459.08783912659 -250275.0239610672 0 -250275.0239610672 -100079337.95084715 0 0 0 -34938007.602052689 -65767.259552240372 261979.8264811039 0 261979.8264811039 -99742021.588181496 0 0 0 -34932726.096706629 -7010286.8000732362 -7910500.187592525 0 -7910500.187592525 -107637941.5500508 0 0 0 -40126879.922543377 265578.9488298893 275164.05972838402 0 275164.05972838402 -100113176.9491502 0 0 0 -34946659.300112486 -35212318.85572505 23441165.446068168 0 23441165.446068168 -95063378.494587451 0 0 0 -45596494.072609387 -110146.45726799965 -290507.31643207371 0 -290507.31643207371 -99738008.859065533 0 0 0 -34946854.36071682 -6374783.4520524442 8091732.1254836023 0 8091732.1254836023 -107553202.93771702 0 0 0 -39874795.236419335 -35539104.33405824 -23521389.905266441 0 -23521389.905266441 -94721274.860604718 0 0 0 -45591132.718132041 -6120175.651465334 -5024234.3503229767 0 -5024234.3503229767 -100490402.54428172 0 0 0 -37313702.368511535 -32161423.312716588 12262446.485709835 0 12262446.485709835 -102591915.36897162 0 0 0 -47163668.538590878 666109.1034040451 -1519931.5132386088 0 -1519931.5132386088 -98430402.702537298 0 0 0 -34217502.759696722 1487390.1249396801 1138500.0325068235 0 1138500.0325068235 -99850527.590219975 0 0 0 -34427098.112848043 1554620.6726794243 -840823.93402838707 0 -840823.93402838707 -100150099.9764111 0 0 0 -34508417.756306291 -185418.15994381905 1298945.0314744115 0 1298945.0314744115 -98525066.48004055 0 0 0 -34548669.62399435 -1516760.6533719301 1083553.0290542394 0 1083553.0290542394 -97501409.954923511 0 0 0 -34656359.7129035 -29903904.768093884 -11474955.859047383 0 -11474955.859047383 -92527564.662504375 0 0 0 -42851014.300709397 -39034110.504765131 6465003.045060765 0 6465003.045060765 -96776400.201816589 0 0 0 -47533678.747303598 61613.368200421333 -1649120.8521311879 0 -1649120.8521311879 -96932235.898532152 0 0 0 -33904717.885616064 -695537.99539250135 573474.73055955768 0 573474.73055955768 -94622507.275614381 0 0 0 -33361315.844852388 2241658.5211673975 631810.42233502865 0 631810.42233502865 -100372618.58713555 0 0 0 -34345836.023088574 1811753.3716709614 -141636.38771235943 0 -141636.38771235943 -100875424.65566492 0 0 0 -34672284.949398041 -40336.843874812126 1793830.5146921873 0 1793830.5146921873 -98763330.047559023 0 0 0 -34581283.412001729 -542931.19319295883 -1745995.2972918749 0 -1745995.2972918749 -98829462.325501204 0 0 0 -34780337.731543064 -28493323.292115629 -1298611.9049188495 0 -1298611.9049188495 -100180126.86074668 0 0 0 -45035707.553501815 299641.7051718235 -1059186.7038006186 0 -1059186.7038006186 -99845034.372699738 0 0 0 -34840887.43363452 369803.48835325241 1064851.7678903341 0 1064851.7678903341 -99855322.017903328 0 0 0 -34819931.485342383 -10538891.66414693 13996842.65081501 0 13996842.65081501 -100706668.57061547 0 0 0 -38935946.082166851 -11474283.190400124 -14325882.942752611 0 -14325882.942752611 -99474668.562257707 0 0 0 -38832133.113430262 -7271296.4249116182 -7260465.7377015352 0 -7260465.7377015352 -104240547.8151859 0 0 0 -39029145.484034121 -21688579.834920213 13360206.668909088 0 13360206.668909088 -96652673.275948569 0 0 0 -41419438.588804111 -15119403.172684491 11691820.238148853 0 11691820.238148853 -104764566.68133759 0 0 0 -41959389.448907673 -23271357.505961359 -14583197.850330964 0 -14583197.850330964 -104287636.05289766 0 0 0 -44645647.745600641 1007243.2938096523 1286588.4175131321 0 1286588.4175131321 -101229340.82871628 0 0 0 -35077734.137217402 652565.50951647758 -1959849.4736852944 0 -1959849.4736852944 -100221789.35623837 0 0 0 -34849228.346352816 -6472391.0227282047 -2019550.9928526431 0 -2019550.9928526431 -102976116.70983875 0 0 0 -38306977.706398368 -15998015.91237396 3895508.9110800326 0 3895508.9110800326 -102553748.82554168 0 0 0 -41493117.658270508 1673785.789555788 812908.10193783045 0 812908.10193783045 -100049547.12074101 0 0 0 -34431516.465914726 -1280637.3184807301 -1550230.5783703104 0 -1550230.5783703104 -94128004.911547899 0 0 0 -33393024.780510068 244215.71648287773 -1202765.5220322907 0 -1202765.5220322907 -98020233.524717569 0 0 0 -34221606.232882142 -41717043.636396617 12800456.269002147 0 12800456.269002147 -99240017.076150328 0 0 0 -49334971.249391437 816984.83769902587 1158931.5436639786 0 1158931.5436639786 -100197228.89022028 0 0 0 -34783085.418382436 116038.3949239254 -1337858.7000705004 0 -1337858.7000705004 -99344599.625620842 0 0 0 -34729996.430743933 1170099.826259315 1116231.8659998178 0 1116231.8659998178 -101009009.99331284 0 0 0 -34943618.558468759 295220.67902874947 -1916751.4492699206 0 -1916751.4492699206 -101011743.25828767 0 0 0 -35250782.902740479 -4976787.6925603151 -600875.45406382531 0 -600875.45406382531 -102130263.59702313 0 0 0 -37487467.951354146 -15865735.466650769 3775780.4039817452 0 3775780.4039817452 -102395362.52055016 0 0 0 -41391384.295520291 -550444.17904877663 -518725.81298524141 0 -518725.81298524141 -102994301.87440252 0 0 0 -36240661.118707895 279633.41559612751 -655848.63416583464 0 -655848.63416583464 -94724154.959794521 0 0 0 -33055582.540469289 -41402027.079318613 5067991.1113742553 0 5067991.1113742553 -90412752.772260487 0 0 0 -46135172.948052682 3154542.6981883645 127825.50070869923 0 127825.50070869923 -99981002.913866401 0 0 0 -33889261.075487316 -618938.78355634212 1215655.74667776 0 1215655.74667776 -92794549.153326273 0 0 0 -32694720.777908802 2857601.3946480751 101919.38377833366 0 101919.38377833366 -100101481.38861752 0 0 0 -34035357.997889042 -377474.07421350479 1764566.6119021773 0 1764566.6119021773 -94628408.808481216 0 0 0 -33252059.008943141 372356.64757931232 -1286369.2166157365 0 -1286369.2166157365 -95046185.438209772 0 0 0 -33135840.076720595 -39464505.615328401 2882404.5989241917 0 2882404.5989241917 -94187699.319958135 0 0 0 -46778271.72735028 -1081487.0888240896 -344059.28221869469 0 -344059.28221869469 -103057978.75770287 0 0 0 -36448813.046284497 -41927.804857914824 -471473.12887990475 0 -471473.12887990475 -97410303.560356244 0 0 0 -34108280.977825113 -51601350.547460131 12391650.485496432 0 12391650.485496432 -95837912.507912293 0 0 0 -51603742.069380343 2162996.7699062824 312356.58708225208 0 312356.58708225208 -100089039.374506 0 0 0 -34274114.911609888 258984.09298519121 89201.332178801298 0 89201.332178801298 -86370432.436043903 0 0 0 -30139006.920070551 -119998.77464473248 -2090651.2110088766 0 -2090651.2110088766 -98377859.30237174 0 0 0 -34474250.326955795 2086410.3875734806 469112.19690155983 0 469112.19690155983 -100300754.22476268 0 0 0 -34375020.343016386 -28068731.527859136 2889951.3279535025 0 2889951.3279535025 -94760055.762738958 0 0 0 -42990075.551709317 -360485.49061608315 1366747.0674063265 0 1366747.0674063265 -98283738.564656973 0 0 0 -34525478.419345498 272216.59346407652 -2022138.0752300024 0 -2022138.0752300024 -97302705.825165689 0 0 0 -33960671.231095612 -35326491.919460207 4063832.5107511133 0 4063832.5107511133 -99047399.245902419 0 0 0 -47030861.907876909 2079113.2467870712 593334.24991682172 0 593334.24991682172 -100588669.30521536 0 0 0 -34478344.62045002 -1002460.7685489058 941967.52863073349 0 941967.52863073349 -96736760.730917901 0 0 0 -34208727.524813414 -27099.179654240608 -1714609.3894733116 0 -1714609.3894733116 -101767049.72023129 0 0 0 -35627952.114959955 1019539.0775026381 826760.21508777142 0 826760.21508777142 -101347762.70185816 0 0 0 -35114878.268524498 -12215920.92287308 2042621.2591303587 0 2042621.2591303587 -102362059.96610089 0 0 0 -40102293.311140835 -4254021.8703774214 334590.36426055245 0 334590.36426055245 -102842675.59811044 0 0 0 -37483844.113970757 1086365.4977016449 -408279.88875828171 0 -408279.88875828171 -101430482.49719834 0 0 0 -35120440.949823856 -459738.65184517205 1604004.2308682203 0 1604004.2308682203 -101936158.81037942 0 0 0 -35838564.111778572 -1889666.0780237243 -906889.40444052219 0 -906889.40444052219 -102260308.09678087 0 0 0 -36452490.961181574 -12227118.324818552 -1125165.1385099925 0 -1125165.1385099925 -100955223.14082026 0 0 0 -39613819.512973607 236785.61414462328 2085401.8081507282 0 2085401.8081507282 -94267437.245463729 0 0 0 -32910728.070961654 -40780587.169189811 -18824029.456707422 0 -18824029.456707422 -99391226.33540225 0 0 0 -49060134.726607233 1430518.1410189867 -678365.29321396351 0 -678365.29321396351 -99722794.421161175 0 0 0 -34402296.698049426 407486.03854680061 811624.31333421171 0 811624.31333421171 -98399526.70219326 0 0 0 -34297214.232276201 425134.76130390167 -749305.14644598961 0 -749305.14644598961 -98354588.74409008 0 0 0 -34275308.893975139 -39911695.316364042 19507009.280585922 0 19507009.280585922 -98539819.564491332 0 0 0 -48458030.208299376 1481880.4487364292 625930.32882344723 0 625930.32882344723 -99678753.870402336 0 0 0 -34368905.697583199 372537.78889298439 -2096130.5007075667 0 -2096130.5007075667 -94629242.051755607 0 0 0 -32989846.492001921 999630.27264094353 -621457.54898356274 0 -621457.54898356274 -101849498.59427691 0 0 0 -35297453.912572742 -299459.15943001956 1663561.134305656 0 1663561.134305656 -101201438.56761433 0 0 0 -35525314.204465501 -3082183.6348855197 -186458.14253664017 0 -186458.14253664017 -102190620.61598578 0 0 0 -36845481.48780486 -16562043.507831872 -1361146.1680443119 0 -1361146.1680443119 -102873932.9533304 0 0 0 -41802591.761406779 620607.72223925591 -1881679.9752517492 0 -1881679.9752517492 -99612341.812134981 0 0 0 -34647106.93146348 1349373.3840717077 1357254.3830572367 0 1357254.3830572367 -100356833.96428621 0 0 0 -34652611.203075171 -21147880.282935642 7648583.4161054045 0 7648583.4161054045 -102250671.15000677 0 0 0 -43189493.001529835 -7190435.2793927789 -2847168.9502201304 0 -2847168.9502201304 -102044800.89546311 0 0 0 -38232332.661199629 317257.4221483469 -2001231.5543602705 0 -2001231.5543602705 -99569763.244885445 0 0 0 -34738377.037957788 -19525691.621940523 7647320.8026629835 0 7647320.8026629835 -98238898.324881047 0 0 0 -41217606.481387526 1223447.8483477831 1263216.5689154267 0 1263216.5689154267 -100345366.43844748 0 0 0 -34692671.506534934 -2617043.5447637141 -2345952.502518326 0 -2345952.502518326 -100895709.65242088 0 0 0 -36229463.619014621 317873.43416535854 -1513367.6015312374 0 -1513367.6015312374 -101611039.00126266 0 0 0 -35452607.948484182 742564.30257201195 1118100.624979496 0 1118100.624979496 -101694762.7343787 0 0 0 -35333269.451132357 -11946193.612722695 2159235.3647944927 0 2159235.3647944927 -103758098.91468275 0 0 0 -40496502.384591937 -7035254.00837183 -1233621.940270409 0 -1233621.940270409 -103209569.17656326 0 0 0 -38585688.114727259 1781500.4316260845 -961988.32482588291 0 -961988.32482588291 -100290817.67872083 0 0 0 -34478261.036483049 1382055.3361492157 -1158935.4004555941 0 -1158935.4004555941 -100505565.63311553 0 0 0 -34693228.603938341 392879.21056175232 1970353.1755219451 0 1970353.1755219451 -98776888.772643089 0 0 0 -34434403.346728563 190472.86494505405 1924219.3705341816 0 1924219.3705341816 -99152639.483380556 0 0 0 -34636758.316452622 -2372197.4521580935 134263.72906721936 0 134263.72906721936 -99199129.648576736 0 0 0 -35549964.485257149 -3318213.4212870598 1587010.0823927224 0 1587010.0823927224 -100960644.35750115 0 0 0 -36497600.222575903 -26674368.873579886 -6574175.1555362642 0 -6574175.1555362642 -99412831.175960109 0 0 0 -44130520.017338991 -23215870.998962402 -7903093.3724942803 0 -7903093.3724942803 -97548284.664141029 0 0 0 -42267454.482086197 -38555.280986607075 189718.42551237345 0 189718.42551237345 -102941204.57120419 0 0 0 -36042915.948266804 -6149232.0931018591 477675.5731561482 0 477675.5731561482 -103542855.44072342 0 0 0 -38392230.636838794 2472140.043431282 243863.64983004332 0 243863.64983004332 -100285181.01712179 0 0 0 -34234564.340791702 6680.0974360704422 1244532.0017872453 0 1244532.0017872453 -95856622.451580703 0 0 0 -33547479.823950648 -323499.82116213441 -1942329.5428001881 0 -1942329.5428001881 -96800861.025907099 0 0 0 -33993526.296474129 -34590118.150112316 921945.8752271831 0 921945.8752271831 -94232785.102840006 0 0 0 -45088016.138533309 -150773.01599907875 -179793.66286529601 0 -179793.66286529601 -102494125.50734019 0 0 0 -35925714.483168721 76488.824695110321 -352080.15295046568 0 -352080.15295046568 -102849045.03854513 0 0 0 -35970394.674847603 -31044997.16907417 7975653.6914142072 0 7975653.6914142072 -94730714.931104392 0 0 0 -44021499.235062487 230924.520373106 -1547691.7593660504 0 -1547691.7593660504 -97771598.169281483 0 0 0 -34139235.777117729 2182973.5023782551 674813.20272088051 0 674813.20272088051 -100024773.52570242 0 0 0 -34244630.008163422 -135882.62323069572 787782.08110415563 0 787782.08110415563 -96595455.182796717 0 0 0 -33855968.232109666 885714.17765450478 -1571928.0345456004 0 -1571928.0345456004 -99399552.511412621 0 0 0 -34479843.416815281 826244.37848567963 1472045.167113483 0 1472045.167113483 -99829280.987257242 0 0 0 -34651062.813070297 -16629205.396680176 9179301.0599598587 0 9179301.0599598587 -102079998.06227738 0 0 0 -41548221.210635096 -14191450.653562933 -9325374.2507909983 0 -9325374.2507909983 -104268501.81359345 0 0 0 -41460983.363504708 182436.3033298254 -2095229.2534503043 0 -2095229.2534503043 -99700590.72289753 0 0 0 -34831354.046848655 1557385.710564971 1032426.5931016803 0 1032426.5931016803 -100444606.98924756 0 0 0 -34610527.447538972 -20366859.619878799 5783709.2333485484 0 5783709.2333485484 -97316359.159131974 0 0 0 -41189126.5726538 -1679091.3041505218 -398922.55966597795 0 -398922.55966597795 -100505242.71258366 0 0 0 -35764516.905856967 -240918.32852584124 -1117385.9630690813 0 -1117385.9630690813 -102642662.5347937 0 0 0 -36009253.302161753 1634964.1911039352 -875326.0312050581 0 -875326.0312050581 -99740316.789570093 0 0 0 -34336873.409463167 403637.89508771896 1167275.6575716734 0 1167275.6575716734 -98350411.07900095 0 0 0 -34281370.614369869 844530.93005871773 -846863.68781358004 0 -846863.68781358004 -100159286.21781731 0 0 0 -34760164.350715637 -42203.52391898632 1037682.7968239188 0 1037682.7968239188 -99223401.257759333 0 0 0 -34742961.673587203 980169.78352236748 -1497663.3089701238 0 -1497663.3089701238 -99841223.421075821 0 0 0 -34601368.773143768 640592.32579016685 -1459775.1668975502 0 -1459775.1668975502 -99971064.473343849 0 0 0 -34765665.251643896 539552.28471980756 1657824.8215743303 0 1657824.8215743303 -99902700.921660885 0 0 0 -34777102.022929326 842112.9030354023 1533298.5751566887 0 1533298.5751566887 -99504414.735202789 0 0 0 -34531805.641258717 -7216586.165058434 6010997.2663495541 0 6010997.2663495541 -100352793.92761442 0 0 0 -37649283.032435447 -13233497.971054837 9006730.4988103658 0 9006730.4988103658 -103952945.4604187 0 0 0 -41015255.201015726 -14787694.386913538 -9266591.7519236747 0 -9266591.7519236747 -101335793.81554222 0 0 0 -40643220.870859534 -15614807.125092685 -9204525.608592432 0 -9204525.608592432 -101550869.0455665 0 0 0 -41007986.659730732 103664.14277338982 -298610.70696055889 0 -298610.70696055889 -99951137.628388405 0 0 0 -34946615.719965458 -18195722.511184901 21686382.854509242 0 21686382.854509242 -125322543.17632273 0 0 0 -50231392.990627676 -21846585.518430814 23955886.598465376 0 23955886.598465376 -104306362.41112164 0 0 0 -44153531.775343344 63106.148960351944 303178.65583205223 0 303178.65583205223 -99898106.211653709 0 0 0 -34942250.021942616 39526.508307933807 -295140.03694014996 0 -295140.03694014996 -99894580.515719414 0 0 0 -34949268.90259409 -21932074.035692632 -23904860.644552987 0 -23904860.644552987 -104183071.6393891 0 0 0 -44140300.986278616 -16907441.389196515 -21223114.007908925 0 -21223114.007908925 -124754099.67524558 0 0 0 -49581539.372554719 105232.82493679225 294407.16646587849 0 294407.16646587849 -99982389.917862058 0 0 0 -34957004.982523754 189591.79932630062 -1508783.257555604 0 -1508783.257555604 -96999550.915594459 0 0 0 -33883485.690693974 2468946.4240717888 426540.32770210505 0 426540.32770210505 -100039105.99539948 0 0 0 -34149555.849964499 -33023453.229564376 5334365.4695318118 0 5334365.4695318118 -92801859.992206514 0 0 0 -44038859.62761981 -301730.73573791981 1480013.0346719623 0 1480013.0346719623 -96021084.261900306 0 0 0 -33712985.249173403 561809.5257909596 -1147583.7714025378 0 -1147583.7714025378 -101679079.72591847 0 0 0 -35391044.570044607 277845.1147159338 1436724.8521506861 0 1436724.8521506861 -101906523.63879967 0 0 0 -35570037.483429313 -7351305.4265153408 728848.89253951609 0 728848.89253951609 -103325787.7437669 0 0 0 -38736982.609598756 -9539965.7974510565 -1817167.6354452074 0 -1817167.6354452074 -103176668.64348976 0 0 0 -39450822.054329373 -112528.71951391855 -664036.30831497908 0 -664036.30831497908 -93947428.984374076 0 0 0 -32920985.196360733 -50538076.988875903 3414408.0619404442 0 3414408.0619404442 -93866122.969082981 0 0 0 -50541469.985285603 3626146.6072027683 165515.71983426108 0 165515.71983426108 -100049640.54060984 0 0 0 -33748222.876692533 527775.4868047809 601769.65475529432 0 601769.65475529432 -89160936.517746106 0 0 0 -31021606.360829536 638316.78906454146 13927455.501623187 0 13927455.501623187 -105066176.5010528 0 0 0 -36549750.899195895 -39496004.201385692 -32329498.716202214 0 -32329498.716202214 -110943047.16415973 0 0 0 -52653667.977940902 -39169942.906147957 32241794.977930155 0 32241794.977930155 -111105364.34164056 0 0 0 -52596357.536725983 206075.70475959778 -173653.66186532378 0 -173653.66186532378 -99618950.15892601 0 0 0 -34794506.058958292 384452.01325154305 -172511.40289652348 0 -172511.40289652348 -99794667.342275143 0 0 0 -34793575.365158319 204289.11266994476 171757.63448095322 0 171757.63448095322 -99612552.749854088 0 0 0 -34792892.273014545 484656.09510803223 -13770784.634075698 0 -13770784.634075698 -105523967.944731 0 0 0 -36763759.147368014 383963.51676121354 175431.0019711256 0 175431.0019711256 -99792103.779244363 0 0 0 -34792849.091868967 2985464.1708941311 -205104.36708843708 0 -205104.36708843708 -100137252.79621717 0 0 0 -34003126.018862978 -455291.72954022884 872348.91049880907 0 872348.91049880907 -95561642.762744188 0 0 0 -33605927.07229948 176577.77959704399 -449163.64173648879 0 -449163.64173648879 -92255137.526986361 0 0 0 -32227495.911586285 -41091389.99896919 -3240987.6471528336 0 -3240987.6471528336 -90639812.076345772 0 0 0 -46105920.726360232 -18819152.416077137 13659260.019836674 0 13659260.019836674 -101784961.65522373 0 0 0 -42211439.924955279 -7728088.7774345726 -8142904.8528822362 0 -8142904.8528822362 -100300416.95057538 0 0 0 -37809977.004803494 1479446.2498866767 -1292978.2394534349 0 -1292978.2394534349 -100012361.97005668 0 0 0 -34486520.502059296 701468.1683204174 1771227.7121088784 0 1771227.7121088784 -98982569.417708874 0 0 0 -34398385.4372859 -5818616.0567266941 3310637.531455582 0 3310637.531455582 -100973785.39898658 0 0 0 -37377340.509499669 -25320361.860867329 -9507142.4148561507 0 -9507142.4148561507 -102624760.25394093 0 0 0 -44780792.740182884 2190992.374204874 -94772.142025828362 0 -94772.142025828362 -100594617.47542095 0 0 0 -34441268.785425663 20481.40607765317 2069686.6034044623 0 2069686.6034044623 -97138904.264183879 0 0 0 -33991448.000337094 26338.142967060208 -1659968.2256066203 0 -1659968.2256066203 -97067016.807623535 0 0 0 -33964237.532629654 -33817609.516525626 203066.27805809677 0 203066.27805809677 -98566696.967828572 0 0 0 -46334507.269523978 -1036430.3415136486 -584147.53599190712 0 -584147.53599190712 -97336049.949891061 0 0 0 -34430368.101991668 1780336.3721501827 843821.30408886075 0 843821.30408886075 -100054614.61513805 0 0 0 -34395997.385045767 -31270618.148814313 11552935.677610641 0 11552935.677610641 -93341022.912763834 0 0 0 -43614074.371552356 -20353.771691679955 -1329992.5606731176 0 -1329992.5606731176 -98210978.075251162 0 0 0 -34380966.146430135 601827.87860697508 -2008456.809951663 0 -2008456.809951663 -99967582.785136104 0 0 0 -34778014.217284977 1030175.3232431412 1456227.5302348733 0 1456227.5302348733 -100786067.50705194 0 0 0 -34914562.26433301 -15554928.194327384 5718622.6134717911 0 5718622.6134717911 -100132682.37094986 0 0 0 -40490663.697847098 -5153947.0475070775 -2868780.1732305288 0 -2868780.1732305288 -101899378.96685898 0 0 0 -37468664.105028123 418362.30241397023 -1343228.2658621073 0 -1343228.2658621073 -99503805.368824303 0 0 0 -34679905.073243588 1000861.8702573776 1244448.6004931182 0 1244448.6004931182 -99751427.696194649 0 0 0 -34562698.039077997 -997920.7257822752 -1307932.1009979248 0 -1307932.1009979248 -102435357.35549116 0 0 0 -36201647.328445792 -1626396.101032462 -920951.02672249079 0 -920951.02672249079 -102401539.12959863 0 0 0 -36409777.330720872 672723.35177516937 -1856235.6928017884 0 -1856235.6928017884 -100174953.35395622 0 0 0 -34825780.500763416 1137611.8192035556 1462184.6645982265 0 1462184.6645982265 -100527368.42983419 0 0 0 -34786414.813720524 -17184944.707362011 5469666.2279157341 0 5469666.2279157341 -103415071.72171637 0 0 0 -42210005.750177518 -8770965.03644979 -2924668.8051377013 0 -2924668.8051377013 -103187284.04636741 0 0 0 -39185387.178986073 722302.16931712627 -472679.66887784004 0 -472679.66887784004 -99574161.522215366 0 0 0 -34598150.77351439 451694.56864643097 490292.28319757432 0 490292.28319757432 -99264326.418316841 0 0 0 -34584421.147384882 -7705802.8358371854 11987552.253924809 0 11987552.253924809 -102327563.49611932 0 0 0 -38511678.216184765 453654.12774670124 -508683.06822478771 0 -508683.06822478771 -99194832.351044416 0 0 0 -34559412.378154397 -37880194.881941676 27189407.035827268 0 27189407.035827268 -112053038.70473193 0 0 0 -52476631.755335778 -38218007.586592987 -26408284.756036751 0 -26408284.756036751 -112436465.44330996 0 0 0 -52729065.560466051 791763.30120897293 489601.9375026226 0 489601.9375026226 -99578705.589526653 0 0 0 -34575429.800911427 -7404221.3012204766 -12064436.813050166 0 -12064436.813050166 -102644126.43988246 0 0 0 -38516921.709386021 -6651629.8787590191 -83513.060287803411 0 -83513.060287803411 -103740981.58266538 0 0 0 -38637414.011498563 -7986546.4400831461 -172906.41012987494 0 -172906.41012987494 -103693404.46378875 0 0 0 -39087982.816355228 -580706.61626061797 -1168005.839025259 0 -1168005.839025259 -102192219.43158412 0 0 0 -35970524.116745561 1723020.4593028501 171646.70610582829 0 171646.70610582829 -100896580.3193083 0 0 0 -34710745.951002054 -551390.09752380848 1523940.5604515933 0 1523940.5604515933 -100102193.66926837 0 0 0 -35228754.318377256 -277337.80151438713 -1953185.9030018635 0 -1953185.9030018635 -99645206.42116785 0 0 0 -34972890.477938652 -23020763.768533781 495236.61175045371 0 495236.61175045371 -99145135.69082579 0 0 0 -42758064.810775861 1161103.7774512768 -1177522.2316606939 0 -1177522.2316606939 -100368110.47981763 0 0 0 -34722452.345828056 14008.493760883808 1783751.3800951242 0 1783751.3800951242 -99207871.579293609 0 0 0 -34717852.079936445 -3206572.9664411247 2507533.7499921024 0 2507533.7499921024 -100477721.55517882 0 0 0 -36289503.082566947 -21838424.058579415 -9441608.4796795305 0 -9441608.4796795305 -95186426.048316211 0 0 0 -40958697.537413463 330034.32523292303 -1888222.0449742079 0 -1888222.0449742079 -100943314.04900753 0 0 0 -35214647.903321087 878640.66439223289 1173027.9735756814 0 1173027.9735756814 -101603274.04944992 0 0 0 -35253621.684770346 -11883027.386470675 1884985.1634303629 0 1884985.1634303629 -102119318.19849169 0 0 0 -39900820.954736769 -4230345.7112092972 -908952.9534316361 0 -908952.9534316361 -102569864.55848974 0 0 0 -37380073.594394743 134726.2251843214 -1672280.9973917007 0 -1672280.9973917007 -99558650.905824423 0 0 0 -34798373.638224006 -18952032.178429738 10660506.113302752 0 10660506.113302752 -97401712.935910255 0 0 0 -40723810.790019006 1020206.8276914358 1263747.3306657076 0 1263747.3306657076 -100247190.70851445 0 0 0 -34729444.358288169 -3945524.810321331 -4327341.1118506044 0 -4327341.1118506044 -100871572.3040719 0 0 0 -36685983.99003762 -469365.99911057949 -681548.73359826207 0 -681548.73359826207 -102603527.67173982 0 0 0 -36075512.784797668 -1414234.7280955315 624219.4573096633 0 624219.4573096633 -102993230.69995999 0 0 0 -36542612.899819613 -2082668.1191917658 268596.17127937078 0 268596.17127937078 -103525569.3312068 0 0 0 -36962883.107639432 392713.73661577702 715950.47616818547 0 715950.47616818547 -102243525.18225241 0 0 0 -35647784.005972743 131442.76422715187 611391.1349927485 0 611391.1349927485 -102375300.98035908 0 0 0 -35785350.375646114 -6220255.099198103 5397216.1276524812 0 5397216.1276524812 -101535512.2773298 0 0 0 -37714518.581784785 -32524506.836810008 -13108025.26745823 0 -13108025.26745823 -102377589.42015004 0 0 0 -47215733.689935997 -2480126.6371362209 350304.22116282582 0 350304.22116282582 -103358551.92478967 0 0 0 -37043537.496673942 1723730.9712355137 -346048.82318633795 0 -346048.82318633795 -99993301.345558405 0 0 0 -34394349.631013155 9029.1336460113525 483984.64435571432 0 483984.64435571432 -98050190.742220163 0 0 0 -34314406.563001037 -1402831.2298474908 -320244.98291321099 0 -320244.98291321099 -93593301.323169947 0 0 0 -33248646.393556118 -36790033.820218228 -14379491.547081038 0 -14379491.547081038 -88812017.654596806 0 0 0 -43960718.016185261 -323683.08174860477 -1623774.1125067323 0 -1623774.1125067323 -96197785.409689903 0 0 0 -33782513.97200346 -41388245.258395419 3373336.6135692522 0 3373336.6135692522 -95332998.098123714 0 0 0 -47852435.174781695 2631826.0476007313 434602.18775677681 0 434602.18775677681 -100301846.60677448 0 0 0 -34184507.195710674 291976.37287211418 789898.13388611004 0 789898.13388611004 -92937660.396560907 0 0 0 -32425989.408291101 -389724.11518266797 573026.02128779888 0 573026.02128779888 -102678168.73010285 0 0 0 -36073762.495849758 -9996023.1588859074 -920160.64101758599 0 -920160.64101758599 -103046240.57466027 0 0 0 -39564792.306741193 -13220306.332350686 -183233.39616170526 0 -183233.39616170526 -103514505.03789136 0 0 0 -40857183.979584709 3342124.4805855751 -142367.07812149028 0 -142367.07812149028 -99923622.91466856 0 0 0 -33803524.451928854 276676.01370123739 459753.92170077562 0 459753.92170077562 -95005848.40514937 0 0 0 -33155210.337006889 220457.84685058609 -858292.00282934308 0 -858292.00282934308 -87765465.281383365 0 0 0 -30640752.602086473 -50322278.324352138 -7742073.6218460025 0 -7742073.6218460025 -93464124.09079802 0 0 0 -50325240.845302552 713497.64704456925 -1740339.6595103741 0 -1740339.6595103741 -100355563.56096494 0 0 0 -34874723.069871873 871889.10848331451 1778167.9872721434 0 1778167.9872721434 -100074012.41583014 0 0 0 -34720743.157571793 -10500936.016793132 6260686.7168320343 0 6260686.7168320343 -101673427.05410671 0 0 0 -39261027.074814916 -10180396.642928548 -5813184.6513947546 0 -5813184.6513947546 -101438849.7240777 0 0 0 -39066736.228452183 -10163848.807736278 32425716.012053326 0 32425716.012053326 -141570459.97820088 0 0 0 -53107008.075078011 -39800504.667141423 -32354199.030867897 0 -32354199.030867897 -111091360.68543418 0 0 0 -52812152.87340147 -39878835.815916233 32499958.097776249 0 32499958.097776249 -111360525.73279616 0 0 0 -52933776.542049341 -9976063.9143695384 -32283328.315735802 0 -32283328.315735802 -141388272.87365535 0 0 0 -52977517.875808701 -62949.004291534424 -34438.508182704449 0 -34438.508182704449 -100013408.97909927 0 0 0 -35026725.294186831 -11971.875119030476 -34467.192979812622 0 -34467.192979812622 -100064194.87629139 0 0 0 -35026658.362993538 -11951.10340487957 34607.121604561806 0 34607.121604561806 -100062613.11536431 0 0 0 -35026097.476569295 -65122.990570545197 34596.273512631655 0 34596.273512631655 -100009513.54881096 0 0 0 -35026122.78878355 -33550.188603341579 -672902.83099210262 0 -672902.83099210262 -99803951.453394473 0 0 0 -34943125.574699342 260966.93722105026 642578.02840694785 0 642578.02840694785 -100068261.08285856 0 0 0 -34932552.950973272 531507.6289396286 -842863.11995708942 0 -842863.11995708942 -98884450.140679121 0 0 0 -34423529.879108906 -8690050.6317234337 9149511.1760505587 0 9149511.1760505587 -102456784.55038339 0 0 0 -38901392.313737422 1088796.3874826431 763065.81401246786 0 763065.81401246786 -99576430.387137413 0 0 0 -34470671.899878979 -35125068.280748896 -20230006.100577913 0 -20230006.100577913 -106224592.88544503 0 0 0 -49472381.408167861 -8780618.6610361934 12844716.616911434 0 12844716.616911434 -106936666.58767104 0 0 0 -40501049.837047592 -16505069.717153683 -20736107.076731954 0 -20736107.076731954 -96383844.835759819 0 0 0 -39511120.093519732 -841118.01319622993 -805364.74218297005 0 -805364.74218297005 -102895284.87560749 0 0 0 -36307741.011081457 -7048326.7479906082 966861.93513095379 0 966861.93513095379 -102968337.94326317 0 0 0 -38505832.641938925 1313943.2207009792 1117953.2107842714 0 1117953.2107842714 -100949751.71858454 0 0 0 -34872532.974259138 275783.67675384879 -2025880.3395813704 0 -2025880.3395813704 -99671423.229984343 0 0 0 -34788473.843630701 -4583893.0416019708 -1019987.9855252504 0 -1019987.9855252504 -101866957.23649246 0 0 0 -37257797.597333029 -22817106.738991976 4852473.0093217231 0 4852473.0093217231 -101405341.15852547 0 0 0 -43477856.764131129 -5083447.5661845207 -32448.51851862669 0 -32448.51851862669 -103587646.95181352 0 0 0 -38034883.081299245 -3067055.0752765536 -21900.660117298365 0 -21900.660117298365 -102771529.30487847 0 0 0 -37043504.533054292 348337.57044044137 1057851.2501598597 0 1057851.2501598597 -102228429.71692435 0 0 0 -35658032.25126943 2010917.0810947418 -114757.73094511032 0 -114757.73094511032 -100490359.92634106 0 0 0 -34467804.995836496 -236489.05603277683 1929674.6800365448 0 1929674.6800365448 -98835257.872843266 0 0 0 -34675111.425106525 -579244.01913964748 -1897065.4891245961 0 -1897065.4891245961 -98885365.055363655 0 0 0 -34812613.176076055 -26029014.008691043 -962458.88120234013 0 -962458.88120234013 -95413993.034048438 0 0 0 -42505052.464958817 76682.535694122314 977777.62309573591 0 977777.62309573591 -102244309.93606043 0 0 0 -35758669.590128183 562716.09191417694 -1629539.6061607003 0 -1629539.6061607003 -101288273.65496445 0 0 0 -35253945.147067547 623616.73538464308 1523530.9915167093 0 1523530.9915167093 -101420118.01144433 0 0 0 -35278775.446620882 -8311036.807202369 1910579.8348773718 0 1910579.8348773718 -102114175.29248291 0 0 0 -38648824.234889805 -6500418.3818298578 -1688495.7499801666 0 -1688495.7499801666 -102775607.3030355 0 0 0 -38246608.989702821 1181854.8501076698 -1412064.3851238489 0 -1412064.3851238489 -100422952.55301142 0 0 0 -34734384.196016312 351426.31385970116 1909642.6531344056 0 1909642.6531344056 -99891464.931432724 0 0 0 -34839013.516150713 -4922267.0537294149 3106546.9950383008 0 3106546.9950383008 -101316637.78481448 0 0 0 -37183616.693490386 -16988369.162529796 -8106984.3345233798 0 -8106984.3345233798 -98889098.305836856 0 0 0 -40557113.613928318 -6776581.4749025479 -260568.80685585737 0 -260568.80685585737 -103374755.6586635 0 0 0 -38552967.996748067 864448.99398064613 -1414667.4324024916 0 -1414667.4324024916 -100333537.17979121 0 0 0 -34814180.865033507 428134.63446485996 1715908.9695792198 0 1715908.9695792198 -99482453.183776855 0 0 0 -34669011.492259145 -7495697.9599499702 5997086.4505949765 0 5997086.4505949765 -103291394.81510496 0 0 0 -38775482.47126925 -21960298.933722228 -9642189.7622862309 0 -9642189.7622862309 -100843852.75143567 0 0 0 -42981453.089805275 -64938.140130281448 -847871.55145859718 0 -847871.55145859718 -102718404.18035316 0 0 0 -35974169.812169313 529398.8583522737 -1943090.8740155101 0 -1943090.8740155101 -98751976.638684392 0 0 0 -34377902.223116308 -28010007.58191368 7390095.9970696084 0 7390095.9970696084 -101801590.93217611 0 0 0 -45434059.479931414 1564707.3120458126 1055074.3368107527 0 1055074.3368107527 -100547693.17498493 0 0 0 -34644045.052028656 -4555176.0612238497 -1055853.2966621816 0 -1055853.2966621816 -100622302.41822538 0 0 0 -36812117.467807218 991821.29821908474 1672689.0112605095 0 1672689.0112605095 -99659077.694940805 0 0 0 -34533539.738852739 1036299.31930089 -1621592.8133685589 0 -1621592.8133685589 -99738455.521417141 0 0 0 -34545754.670740366 -16751380.413197517 -7732223.9415131211 0 -7732223.9415131211 -104358732.06351304 0 0 0 -42388539.366848707 -15323694.374364614 7174191.0894829631 0 7174191.0894829631 -104423580.20244896 0 0 0 -41911546.101884723 398488.62954306602 120343.01315528154 0 120343.01315528154 -102168194.39822531 0 0 0 -35619397.019038677 -5307719.8894531727 471108.63479417562 0 471108.63479417562 -103605819.0996089 0 0 0 -38119738.646171689 -4223156.2028086782 33036.380189951509 0 33036.380189951509 -103270161.73653197 0 0 0 -37622661.278769195 624055.89149284363 -1737356.0762089491 0 -1737356.0762089491 -101040319.31312859 0 0 0 -35145692.19757247 974256.97139000893 1501909.2916149795 0 1501909.2916149795 -100748695.48961115 0 0 0 -34921053.481377602 522445.97651314735 -1984143.362349093 0 -1984143.362349093 -100651187.12847042 0 0 0 -35045059.40318501 961846.02412474155 1525330.9185983539 0 1525330.9185983539 -100885946.47003675 0 0 0 -34973435.15606916 -12471849.560300767 4066086.181890063 0 4066086.181890063 -103300428.41657412 0 0 0 -40520297.291906178 -9598057.2020056397 -2480283.5585263073 0 -2480283.5585263073 -103220208.9836691 0 0 0 -39486393.164986148 -11778915.191615939 3968759.0329579413 0 3968759.0329579413 -100808363.05772686 0 0 0 -39405547.387269974 -5449403.0898841619 -2415332.1898930371 0 -2415332.1898930371 -101882079.47746873 0 0 0 -37566018.898573458 1806726.4547743797 -1009722.8059035242 0 -1009722.8059035242 -99876194.394929409 0 0 0 -34324313.779053926 636520.5605174005 1515534.1414529085 0 1515534.1414529085 -97963931.461036682 0 0 0 -34064593.815181881 -3613218.1348450035 2667742.5866043866 0 2667742.5866043866 -99008124.672401279 0 0 0 -35917469.982536182 -36119950.497977018 -12112302.876902428 0 -12112302.876902428 -103876457.68451056 0 0 0 -48998742.863870651 1268812.2681860924 -1067211.7174158124 0 -1067211.7174158124 -100927763.96599865 0 0 0 -34880633.094234228 1159021.3845684528 -1178906.4669548273 0 -1178906.4669548273 -101140107.77616501 0 0 0 -34993380.237058878 233274.67253012583 2042688.2686191201 0 2042688.2686191201 -100785778.18214972 0 0 0 -35193376.228366897 521987.31816363335 2064669.2323325872 0 2064669.2323325872 -99943461.138145804 0 0 0 -34797515.836993933 -2942089.0103105856 233840.22355636954 0 233840.22355636954 -101897950.94014978 0 0 0 -36694013.98266118 -4856603.2508338988 1397814.0915323496 0 1397814.0915323496 -102262058.53964823 0 0 0 -37491531.626668721 -15400282.635878563 -3506582.4233447965 0 -3506582.4233447965 -100489080.45606995 0 0 0 -40561277.08218199 -18722548.102452397 -3746081.9764856249 0 -3746081.9764856249 -102124980.44588888 0 0 0 -42296634.991919458 345231.33490175009 -880971.90592324734 0 -880971.90592324734 -96202506.945454836 0 0 0 -33550046.463693559 -37775396.314457893 7796177.0787272211 0 7796177.0787272211 -92177819.327081814 0 0 0 -45483625.474538893 2716310.9781570435 322440.57629171014 0 322440.57629171014 -99893766.340497017 0 0 0 -34012109.376819134 -42844.485683441162 1199254.3238639832 0 1199254.3238639832 -93819006.344985545 0 0 0 -32851647.790734172 618973.59854364395 -1459018.8700367212 0 -1459018.8700367212 -101771171.64989662 0 0 0 -35403269.317973495 624789.08347296715 1515764.8780578375 0 1515764.8780578375 -101195584.4914248 0 0 0 -35199778.392782807 -7808070.2481409907 2116743.4293750823 0 2116743.4293750823 -103159010.44071376 0 0 0 -38838478.241099119 -8500141.6416772604 -1799278.1776925623 0 -1799278.1776925623 -102621649.85528076 0 0 0 -38892627.023935258 983586.40352153778 -1681876.2977125049 0 -1681876.2977125049 -100184314.1003747 0 0 0 -34720254.693898678 635696.5996260643 1861900.9934963584 0 1861900.9934963584 -100443280.11678791 0 0 0 -34932654.231006861 -9191410.2694427967 3915134.1742375344 0 3915134.1742375344 -101597534.96404517 0 0 0 -38776130.83172071 -13062757.127928287 -6056505.5581496954 0 -6056505.5581496954 -103060284.92845738 0 0 0 -40643064.719734937 -622719.64363908768 603298.82307630777 0 603298.82307630777 -103097335.34644091 0 0 0 -36302019.24652791 -50545835.01910127 -5294430.6371195428 0 -5294430.6371195428 -93873925.600478306 0 0 0 -50546916.216852851 506294.82230565278 -1030401.9289917946 0 -1030401.9289917946 -89153510.914223239 0 0 0 -31026525.63217118 514573.25066157326 402151.85870015621 0 402151.85870015621 -93563353.779756382 0 0 0 -32567073.185183205 3743297.7934322357 -38494.613575630501 0 -38494.613575630501 -99862087.100544453 0 0 0 -33641576.257489443 -9941754.451113265 11304590.747666791 0 11304590.747666791 -112846370.57649265 0 0 0 -42975843.759662069 -55416940.896995902 -29894872.739960264 0 -29894872.739960264 -102856552.85502285 0 0 0 -55395722.813206553 53278.194668769836 -81870.730719673375 0 -81870.730719673375 -100032033.00286961 0 0 0 -34992564.182870388 -28832.598898649216 80718.290428757668 0 80718.290428757668 -99947752.025724411 0 0 0 -34991804.618618011 -28040.228543578869 -84565.39896440506 0 -84565.39896440506 -99944055.706778631 0 0 0 -34990233.577362835 -55178579.123071283 29849077.714449674 0 29849077.714449674 -102413387.17291953 0 0 0 -55157188.203596771 57295.325255870819 85515.857787317174 0 85515.857787317174 -100031387.5212903 0 0 0 -34990932.268612146 -9913936.9879781716 -11247727.481993183 0 -11247727.481993183 -112900683.77396856 0 0 0 -42985117.266681388 622769.9025053978 -1719496.8051131219 0 -1719496.8051131219 -98665151.664978981 0 0 0 -34314833.616865873 -28213073.616563715 10408965.16489923 0 10408965.16489923 -102345208.20568074 0 0 0 -45695398.637785561 1603688.1297121942 1144041.6594552994 0 1144041.6594552994 -100005037.42721844 0 0 0 -34440472.254127175 -4639940.0179425478 -2068664.8036931381 0 -2068664.8036931381 -100059012.87468171 0 0 0 -36644633.512418449 949905.3705406189 -149324.97811198235 0 -149324.97811198235 -102047275.1846993 0 0 0 -35384079.434955597 -1162922.4033597708 1263231.6512620449 0 1263231.6512620449 -101647938.03248906 0 0 0 -35983801.152547121 -1893827.5832793713 -942420.05366879702 0 -942420.05366879702 -101824233.69268513 0 0 0 -36301321.446587563 -17632259.067875147 -585863.26381760836 0 -585863.26381760836 -103239360.58126289 0 0 0 -42305066.877198279 -1031499.2977085114 -905035.19532204792 0 -905035.19532204792 -102990207.67650151 0 0 0 -36407597.44097352 -8951438.1455253363 260224.59335316718 0 260224.59335316718 -103189337.55374694 0 0 0 -39249271.494745255 -3205286.6124972999 24479.842850327492 0 24479.842850327492 -103648404.39950043 0 0 0 -37398791.854199141 1380460.5295782089 -1077643.4558979273 0 -1077643.4558979273 -100651239.93911529 0 0 0 -34744772.793337822 167250.44581842422 2148867.0663671196 0 2148867.0663671196 -99615850.669892073 0 0 0 -34807010.078425884 -2378122.5647598505 490855.28636850417 0 490855.28636850417 -101170852.03554821 0 0 0 -36242141.110107899 -20776350.166366577 -5364612.1614251137 0 -5364612.1614251137 -98204909.011554718 0 0 0 -41643440.712272465 2788536.4526626766 -256004.75430989265 0 -256004.75430989265 -100243853.22227699 0 0 0 -34109360.869365245 -611530.68167281151 742576.13962265849 0 742576.13962265849 -96077244.517484903 0 0 0 -33841071.319705367 -678563.7349845171 -343215.93189938366 0 -343215.93189938366 -92128896.611345053 0 0 0 -32482611.121215343 -40064326.468892336 -5789141.9665274769 0 -5789141.9665274769 -88182341.631827146 0 0 0 -44886333.835251823 36329.677860617638 -1148784.5707803369 0 -1148784.5707803369 -101964396.29660034 0 0 0 -35674823.316558838 -8492117.3794166446 593688.95014759898 0 593688.95014759898 -103595945.705603 0 0 0 -39230822.079756916 532468.1156680584 -876425.24712064862 0 -876425.24712064862 -102108406.59986687 0 0 0 -35551578.469469547 -301808.79280626774 1417525.0410123467 0 1417525.0410123467 -101951578.15820217 0 0 0 -35788685.432852983 -3646616.6662544608 151008.78334790468 0 151008.78334790468 -103104364.34933484 0 0 0 -37362843.355456173 -9614716.9210352898 -799607.06556907296 0 -799607.06556907296 -102857502.79916942 0 0 0 -39365276.902071655 -43672177.651294224 6469066.9865751714 0 6469066.9865751714 -91971626.549831644 0 0 0 -47475331.47039406 -492600.69254970551 -844835.95706021786 0 -844835.95706021786 -96082968.82647109 0 0 0 -33801449.331657171 458691.15795344114 380146.9992852211 0 380146.9992852211 -90388597.729443669 0 0 0 -31475467.300021589 2810734.8883719444 319874.88443487883 0 319874.88443487883 -100212103.63398743 0 0 0 -34090479.060965538 1350911.3307853639 -161985.63678741455 0 -161985.63678741455 -101283221.3611927 0 0 0 -34976308.510642439 -749800.24550890923 1736854.4346921146 0 1736854.4346921146 -101172120.12960911 0 0 0 -35672672.13129127 -973592.63587224483 -1262873.434761934 0 -1262873.434761934 -101527588.02520227 0 0 0 -35875413.231376171 -16485408.256172761 31427.292624130845 0 31427.292624130845 -100399715.48711592 0 0 0 -40909793.310150966 1361013.1073095798 704431.05436861515 0 704431.05436861515 -101158305.28170156 0 0 0 -34929052.26103723 -2853282.6116635203 431449.19559010863 0 431449.19559010863 -101230102.25445926 0 0 0 -36429184.703143001 123776.93091571331 -1899624.2844000459 0 -1899624.2844000459 -100297775.97456861 0 0 0 -35060899.665278554 -20834344.365435272 3097092.1226112545 0 3097092.1226112545 -101700154.28298646 0 0 0 -42887074.526947647 573014.84208083153 -1900652.8151531219 0 -1900652.8151531219 -100410709.03227186 0 0 0 -34943192.966567039 796124.24238920212 1685078.9759349227 0 1685078.9759349227 -100591226.52769995 0 0 0 -34928285.799858809 -10761210.081895292 5201909.7525966465 0 5201909.7525966465 -100216819.97023058 0 0 0 -38842310.518244028 -7239224.0142664313 -3912707.880094111 0 -3912707.880094111 -101213100.32047904 0 0 0 -37958313.517160892 -612978.00468039513 -19903.078535795212 0 -19903.078535795212 -103173170.24019814 0 0 0 -36325151.885707498 -2540290.8534420729 508432.4214862287 0 508432.4214862287 -103364547.33782864 0 0 0 -37066693.36694479 1454337.5569624417 -1119309.0825203657 0 -1119309.0825203657 -100630382.50300175 0 0 0 -34711615.731113717 391466.67366421223 1943475.501976626 0 1943475.501976626 -99858772.764772654 0 0 0 -34813557.131887913 -4223087.0992001295 830565.98285659775 0 830565.98285659775 -101315635.32178843 0 0 0 -36938552.847346008 -20833231.087893307 -5975616.1426106989 0 -5975616.1426106989 -100974344.23654379 0 0 0 -42632651.363552928 -7867541.0459988713 8274834.7554128245 0 8274834.7554128245 -100736115.28712785 0 0 0 -38011279.716594338 -18495964.675182372 -13558711.390242398 0 -13558711.390242398 -100878561.83176777 0 0 0 -41781084.277432531 -2771596.3355795145 -217288.0127710402 0 -217288.0127710402 -103530172.29535222 0 0 0 -37205619.020825982 -1897816.6846523881 -728319.28691458702 0 -728319.28691458702 -103112398.9759292 0 0 0 -36753575.481203616 2026064.8612029552 -417799.63778805733 0 -417799.63778805733 -100619767.74339497 0 0 0 -34507796.008767128 1943534.7412102818 -390920.39747262001 0 -390920.39747262001 -100709161.69050646 0 0 0 -34567969.43225354 160852.68104696274 2201149.2241809815 0 2201149.2241809815 -97840732.739314795 0 0 0 -34187958.020393848 48109.329774618149 1904518.3072345257 0 1904518.3072345257 -98600763.998472929 0 0 0 -34493429.134044409 -296607.58697378635 -1171699.9056217968 0 -1171699.9056217968 -97712864.616859913 0 0 0 -34303315.271341801 -1029191.2056899071 -1518970.3556693345 0 -1518970.3556693345 -98707651.384712696 0 0 0 -34907894.906641006 -31664239.659196965 -1672211.7530250251 0 -1672211.7530250251 -98684184.333797038 0 0 0 -45621948.397547923 -28020499.938489079 -3120047.3111429513 0 -3120047.3111429513 -98516000.267600924 0 0 0 -44287775.072131485 1950671.1058342457 -996948.04635477066 0 -996948.04635477066 -99983329.220855266 0 0 0 -34311430.340257406 658150.92951893806 1730116.7632558197 0 1730116.7632558197 -97983315.575028896 0 0 0 -34063807.62592864 -2037193.8156312704 1048809.9016734697 0 1048809.9016734697 -97669805.599073887 0 0 0 -34897449.795146823 -32279519.199805543 -9321004.7857117653 0 -9321004.7857117653 -100795603.55593397 0 0 0 -46576292.964508817 840724.463139534 -1748617.2480121851 0 -1748617.2480121851 -99150995.707386017 0 0 0 -34408594.935486078 1277965.157482028 1442861.5533049107 0 1442861.5533049107 -99962002.689988256 0 0 0 -34539413.136377335 -23430251.407460384 9329299.1818450242 0 9329299.1818450242 -104486207.89726509 0 0 0 -44770760.756653897 -9751453.1923928857 -5750128.3575070724 0 -5750128.3575070724 -102840739.77573824 0 0 0 -39407267.538845897 -3399152.1863077879 4331612.0234105997 0 4331612.0234105997 -100023434.23819804 0 0 0 -36197905.248576939 -21040277.207934402 -11511962.38932547 0 -11511962.38932547 -96250269.0898256 0 0 0 -41051691.204215996 1838967.1419882774 146897.78933760524 0 146897.78933760524 -100844937.0904603 0 0 0 -34652089.481965065 -537541.8023121655 1726632.3832834959 0 1726632.3832834959 -98708886.439545274 0 0 0 -34736249.884650022 -131812.43251883984 -1810864.0186553001 0 -1810864.0186553001 -98814082.03034842 0 0 0 -34631063.062003493 -28452717.564621866 1347125.4015564322 0 1347125.4015564322 -99586068.802876174 0 0 0 -44813575.228624284 504924.85925686359 155095.42951714993 0 155095.42951714993 -102335594.10153794 0 0 0 -35640734.234798312 -1622802.1510876417 801600.49723821878 0 801600.49723821878 -102949088.0828898 0 0 0 -36600161.581892252 1879802.5095059872 -801912.96457904577 0 -801912.96457904577 -100351210.05892277 0 0 0 -34464992.642295837 -105068.34915488958 2037419.9929858446 0 2037419.9929858446 -99064531.606341958 0 0 0 -34709359.984423935 -1186508.3259361088 -484122.99418455362 0 -484122.99418455362 -99382862.765515804 0 0 0 -35199279.882008106 -23867216.190035731 -5527657.9287911728 0 -5527657.9287911728 -95020511.305969894 0 0 0 -41610704.623602003 -1818613.1345807314 -860179.15637812018 0 -860179.15637812018 -102977507.93759322 0 0 0 -36678642.37526083 -1292172.8835151196 -385964.888198331 0 -385964.888198331 -103418506.52593541 0 0 0 -36648737.793307543 -3506345.5112371892 -282719.78185892105 0 -282719.78185892105 -103831329.22566633 0 0 0 -37568186.157916114 1994857.1510660648 -688588.74379098415 0 -688588.74379098415 -100518234.18717146 0 0 0 -34483181.962636828 540765.18839001656 2133893.7641173303 0 2133893.7641173303 -97624603.800377607 0 0 0 -33979343.514195681 -920870.83272624016 -681399.43639528751 0 -681399.43639528751 -97504418.298743367 0 0 0 -34448851.196014285 -33376498.581800699 -4238505.6445114613 0 -4238505.6445114613 -100463410.82295048 0 0 0 -46843968.291662887 -1402125.3956658654 712430.6842752099 0 712430.6842752099 -102885724.62451696 0 0 0 -36500747.50706397 1817595.2763357162 442579.04604846239 0 442579.04604846239 -100609934.64849615 0 0 0 -34577318.780256033 -661488.51750522852 1240228.7769238949 0 1240228.7769238949 -99788799.058302045 0 0 0 -35157600.65153259 -106255.08200836182 -2146145.7467079163 0 -2146145.7467079163 -99331373.219060183 0 0 0 -34803169.905373812 -23323934.263602734 2003793.6062488668 0 2003793.6062488668 -96534639.317322493 0 0 0 -41950500.753323823 -1119868.4422143023 2560423.5991392136 0 2560423.5991392136 -98723906.244471505 0 0 0 -34945321.140339963 -5002226.0385435522 5153262.2860316336 0 5153262.2860316336 -101712528.46491653 0 0 0 -37350164.076211005 -28383354.0852139 -13779234.782705776 0 -13779234.782705776 -94657546.122382388 0 0 0 -43064315.072658688 -33961284.474393785 -15336138.203039393 0 -15336138.203039393 -98781204.31427756 0 0 0 -46459871.076034963 -2424075.2096087933 27078.084510564804 0 27078.084510564804 -103565297.48765826 0 0 0 -37096280.444043517 -17445067.011853397 -12378867.277996555 0 -12378867.277996555 -107401707.79642689 0 0 0 -43696371.182898045 -23291297.830392793 14567684.56685178 0 14567684.56685178 -104890102.47564226 0 0 0 -44863490.107112244 1005409.210920034 -1106430.1511073112 0 -1106430.1511073112 -100304774.15958759 0 0 0 -34754777.732033551 1403144.7634316981 -1231615.7274718285 0 -1231615.7274718285 -99813157.028307766 0 0 0 -34443504.292706579 15867.461915016174 1487992.6480277479 0 1487992.6480277479 -99115206.260327816 0 0 0 -34684768.579444647 490568.56525444984 1510061.248958949 0 1510061.248958949 -98983872.505779266 0 0 0 -34472656.379183769 -32232979.864007503 14879009.311651297 0 14879009.311651297 -98538491.57840082 0 0 0 -45770015.004842907 -4637573.1217903793 -5101488.8361551166 0 -5101488.8361551166 -101403955.28622547 0 0 0 -37114534.942805499 243572.6097407937 -1042503.4540789127 0 -1042503.4540789127 -98949932.219602585 0 0 0 -34547225.86345166 1008783.4197795391 827307.61799627542 0 827307.61799627542 -100002549.82409382 0 0 0 -34647818.241510391 -27537498.435530588 13039974.723057702 0 13039974.723057702 -94456299.703081161 0 0 0 -42697829.348514125 -1360516.3854107857 -2479206.1040385067 0 -2479206.1040385067 -100218746.0431391 0 0 0 -35552741.849992514 31855.148964166641 -1231950.7852263451 0 -1231950.7852263451 -99045660.31570673 0 0 0 -34654831.808359385 1147814.2358782291 902994.19191157818 0 902994.19191157818 -100001410.27304053 0 0 0 -34598758.61300683 834041.10909879208 -1779604.8371567726 0 -1779604.8371567726 -100670039.04219484 0 0 0 -34942599.276583672 834912.30439114571 -1698584.3019661307 0 -1698584.3019661307 -100456397.33491802 0 0 0 -34867519.760684252 770451.11336112022 1777728.9375532269 0 1777728.9375532269 -100768938.3154664 0 0 0 -34999470.520736933 1037698.3811126351 1708831.0649069548 0 1708831.0649069548 -100136396.55476558 0 0 0 -34684544.360778272 -8817955.4323036075 3550678.2884731591 0 3550678.2884731591 -101523315.49640882 0 0 0 -38619444.825049341 -12892158.056212187 4957137.4109412432 0 4957137.4109412432 -104173233.44633064 0 0 0 -40972887.025889993 -8463557.7046331763 -3797744.7901419103 0 -3797744.7901419103 -101862685.85853052 0 0 0 -38614185.247107267 -11867489.722194612 -4148501.4896384925 0 -4148501.4896384925 -103260289.03201485 0 0 0 -40294722.563973367 272928.53553688526 -1779448.1575714946 0 -1779448.1575714946 -98422315.822419167 0 0 0 -34352285.550408721 1452299.2837843895 1092918.2167478204 0 1092918.2167478204 -100319884.07423496 0 0 0 -34603654.676657915 -32199404.612293676 9379585.6354243234 0 9379585.6354243234 -98695582.721000552 0 0 0 -45813245.566652998 -2782599.3991348147 -2269305.5063869655 0 -2269305.5063869655 -99525945.409717083 0 0 0 -35807990.683098137 -3476489.6244484186 -9172.5978400707245 0 -9172.5978400707245 -103421392.77108979 0 0 0 -37414258.83843863 -3596520.8732697964 -428103.29930331931 0 -428103.29930331931 -102874053.59210706 0 0 0 -37264701.062881947 -2728662.8427506685 -329046.47632743418 0 -329046.47632743418 -102846721.68790054 0 0 0 -36951384.58572793 868718.15688312054 -1292048.18978405 0 -1292048.18978405 -99715273.392496824 0 0 0 -34596294.332464814 485196.8194963932 1376409.842779845 0 1376409.842779845 -99597473.786236286 0 0 0 -34689296.938358784 -6747353.8377743661 7184793.5270698965 0 7184793.5270698965 -104519912.52324939 0 0 0 -38943543.226358354 -20745045.922448188 -12979018.279072568 0 -12979018.279072568 -96384612.873544931 0 0 0 -40995380.578597575 -22512634.588913664 22844824.647833385 0 22844824.647833385 -98106710.971603036 0 0 0 -42216770.94618085 -8552621.2452989444 -12537730.653592721 0 -12537730.653592721 -106401545.03625058 0 0 0 -40233958.198542289 415790.24138951302 -1990436.1205449104 0 -1990436.1205449104 -97901326.262009621 0 0 0 -34119937.607217073 -32613776.839063212 6207823.8456498086 0 6207823.8456498086 -99487577.894154072 0 0 0 -46235474.156626031 1851340.0206631422 852052.41601586342 0 852052.41601586342 -100489433.42765737 0 0 0 -34523332.692447782 -1932409.9278507233 -84277.193096160889 0 -84277.193096160889 -97972868.850999117 0 0 0 -34966847.572597623 -19842890.160629317 15437895.604016826 0 15437895.604016826 -98802831.66029948 0 0 0 -41526002.637325093 -4925638.2826303244 -9255090.5837688446 0 -9255090.5837688446 -101399558.39275664 0 0 0 -37213818.836385459 2204185.007371664 -291261.41268146038 0 -291261.41268146038 -100074334.49413204 0 0 0 -34254552.320366144 -26522.033105227736 434868.4795088172 0 434868.4795088172 -97342721.937782943 0 0 0 -34079235.389810771 316846.78888935526 -75610.068502992392 0 -75610.068502992392 -86146562.818584412 0 0 0 -30040400.610393219 -51475059.212123461 -12594369.834977513 0 -12594369.834977513 -95601945.506526694 0 0 0 -51476951.651527546 3344458.7110114098 -10338.413486361504 0 -10338.413486361504 -99909239.217384815 0 0 0 -33797673.177230597 642814.5586026907 637410.94060987234 0 637410.94060987234 -93592921.404805899 0 0 0 -32532537.396171212 -162734.90475344658 -996056.93285858631 0 -996056.93285858631 -93064302.952435017 0 0 0 -32629463.250015855 -42658574.510095119 -1916518.2134751417 0 -1916518.2134751417 -91237620.704445332 0 0 0 -46863668.325089157 -7615424.2394967377 226698.21888169646 0 226698.21888169646 -102611097.24975687 0 0 0 -38579282.521238714 54121.139938950539 -1072451.2457362413 0 -1072451.2457362413 -99697851.377712727 0 0 0 -34875305.58322072 490873.97741866112 938103.84787917137 0 938103.84787917137 -100038658.02129984 0 0 0 -34841724.415358067 -2207872.4737398624 -230378.71355959028 0 -230378.71355959028 -103393522.77788377 0 0 0 -36960488.338068128 -648394.17028355598 -1310623.5721527487 0 -1310623.5721527487 -95287904.807339668 0 0 0 -33577704.642168045 148035.32438158989 -1294705.6366720498 0 -1294705.6366720498 -92990649.58194685 0 0 0 -32494914.990147948 908462.54202902317 -322960.00163495541 0 -322960.00163495541 -99856161.937955856 0 0 0 -34631694.788574576 145465.19243121147 353587.18932235241 0 353587.18932235241 -99072611.831700802 0 0 0 -34624501.323744535 521252.13659643382 564700.85884106159 0 564700.85884106159 -100201042.86371511 0 0 0 -34887926.754491575 -197716.34697675705 -639631.68636356667 0 -639631.68636356667 -99493901.707368374 0 0 0 -34892066.319020987 -5150861.8905496299 -7686729.6569071868 0 -7686729.6569071868 -104396939.63157272 0 0 0 -38341730.532742858 -37726264.21636638 19538874.828538574 0 19538874.828538574 -97364932.091461867 0 0 0 -47281918.707739875 1022944.0194059014 352342.61005306244 0 352342.61005306244 -99774636.015098572 0 0 0 -34563092.198492229 244217.93456602097 -388920.29533912241 0 -388920.29533912241 -98923813.916728973 0 0 0 -34537858.593757153 3377748.9108688831 -3093019.8341673836 0 -3093019.8341673836 -95262553.821043849 0 0 0 -32159681.718561292 -39173282.102007248 21595073.101678919 0 21595073.101678919 -95226051.644162387 0 0 0 -47039766.811159372 3150171.5889860392 3035940.3390738666 0 3035940.3390738666 -95030577.947495699 0 0 0 -32158142.225478381 -38878742.147557721 -21525399.418439854 0 -21525399.418439854 -95187254.322576538 0 0 0 -46923098.764546983 -4952552.941644311 7242491.181807965 0 7242491.181807965 -104874704.08853537 0 0 0 -38439539.960562885 -34691866.565107428 -18782342.658992197 0 -18782342.658992197 -96121382.293979615 0 0 0 -45784637.100680448 -79871.412511706352 674929.37245160341 0 674929.37245160341 -102703735.44833374 0 0 0 -35974262.4012959 -1367849.9994392395 -20578.78970927 0 -20578.78970927 -103544726.83643949 0 0 0 -36719401.892557621 -5423166.1883153915 -22189.23941463232 0 -22189.23941463232 -103436701.12451136 0 0 0 -38100953.55948925 -4636010.7662845254 -639254.77678906918 0 -639254.77678906918 -102645730.16328076 0 0 0 -37548609.325347841 -5965828.2413981631 -557953.57032233477 0 -557953.57032233477 -103829699.31931134 0 0 0 -38428434.646248288 -10544128.776104659 549712.81183981895 0 549712.81183981895 -103727927.30762857 0 0 0 -39995219.629306585 105277.38961064816 -1956803.8338986635 0 -1956803.8338986635 -98961661.795208216 0 0 0 -34599734.541959047 -24993546.86021176 7148962.4625246823 0 7148962.4625246823 -95650027.214084506 0 0 0 -42225250.926003665 1675448.6067180634 976489.17233335972 0 976489.17233335972 -100242438.27824974 0 0 0 -34498446.38503623 -1163697.1504902244 -535411.86950194836 0 -535411.86950194836 -99185916.680689216 0 0 0 -35122364.840912879 -1653829.5166781843 831748.92757046223 0 831748.92757046223 -102893187.03616381 0 0 0 -36591455.793494552 1465245.1269085407 733835.69578251243 0 733835.69578251243 -101002731.23221064 0 0 0 -34838120.136855602 36542.477346718311 -2241196.9934561849 0 -2241196.9934561849 -99737636.035854697 0 0 0 -34895382.745477736 -1612981.4543681145 488465.31355208158 0 488465.31355208158 -100902616.62756526 0 0 0 -35880459.328676701 -21387303.174350381 2298347.7884570584 0 2298347.7884570584 -99396045.370353758 0 0 0 -42274171.990646452 719607.87981057167 -587238.80654340982 0 -587238.80654340982 -99877863.729847431 0 0 0 -34705389.54751277 235150.88549876213 648602.42678499222 0 648602.42678499222 -99225869.798587322 0 0 0 -34646751.619580984 648893.7412648201 -678589.90745053533 0 -678589.90745053533 -100114589.88631868 0 0 0 -34812993.650768757 -135432.22227280401 783653.36348748207 0 783653.36348748207 -99442473.219037741 0 0 0 -34852266.904458694 424702.48443865776 -1861931.3057761192 0 -1861931.3057761192 -99980209.846475601 0 0 0 -34844427.576713085 1000453.0559551716 1574044.1215487719 0 1574044.1215487719 -100344577.78789485 0 0 0 -34770443.656178951 -14498781.745587125 7645676.6336216182 0 7645676.6336216182 -99020624.567338079 0 0 0 -39731792.209523842 -5562925.5960082412 -4378431.999606356 0 -4378431.999606356 -101379037.41559339 0 0 0 -37429687.054060578 -5441733.7443484068 -257133.31571665406 0 -257133.31571665406 -103915055.1402483 0 0 0 -38274876.109608889 -4346304.066242218 -359202.80005858839 0 -359202.80005858839 -103808770.22773671 0 0 0 -37854276.002892613 609514.93499112129 -1007124.6280989647 0 -1007124.6280989647 -99974287.568150997 0 0 0 -34777670.421606064 186961.88584017754 1107112.0930804536 0 1107112.0930804536 -99580724.483993053 0 0 0 -34787816.909353495 409675.52928042412 -1723914.2031945586 0 -1723914.2031945586 -99996459.860020161 0 0 0 -34855374.515758753 714281.48618352413 1592151.3122092485 0 1592151.3122092485 -100106033.6436305 0 0 0 -34787113.25510633 -12266243.020187527 8563188.097694084 0 8563188.097694084 -99699855.404137969 0 0 0 -39188134.44851391 -7412069.119625926 -6787687.4736257792 0 -6787687.4736257792 -99838448.07698673 0 0 0 -37537681.018814445 -386810.09890770912 -1468662.7832392752 0 -1468662.7832392752 -102361522.86206532 0 0 0 -35961916.536340475 -11211.775336623192 -1406619.3480026126 0 -1406619.3480026126 -101567455.18692732 0 0 0 -35552533.436792254 -9486408.4989694357 1101001.9511453509 0 1101001.9511453509 -102380370.24033296 0 0 0 -39153372.558755815 -12524060.543679297 1365012.8479536176 0 1365012.8479536176 -103848011.39608115 0 0 0 -40730225.178916156 3026266.6810309887 -260715.35894572735 0 -260715.35894572735 -100150681.82993436 0 0 0 -33993545.302116156 2515376.6552141905 -353296.73379731178 0 -353296.73379731178 -100139390.49698591 0 0 0 -34168404.844619989 444305.02015149593 1336086.9724397957 0 1336086.9724397957 -94729559.443470001 0 0 0 -32999839.048161626 -207823.49162471294 1348347.4301875234 0 1348347.4301875234 -96868108.211605072 0 0 0 -33976576.096130252 -43109482.002659023 -3943510.0058890469 0 -3943510.0058890469 -96020341.94283253 0 0 0 -48695438.380922049 -34861937.343530953 -5097371.8295986131 0 -5097371.8295986131 -91266805.340532064 0 0 0 -44145059.939422056 404913.23555147648 -370682.12685537338 0 -370682.12685537338 -102228935.69153523 0 0 0 -35638407.859594345 -880482.97665572166 1196619.8061628342 0 1196619.8061628342 -102650191.81135297 0 0 0 -36235736.175803065 534910.88420659304 -390700.79524636269 0 -390700.79524636269 -102227350.68502736 0 0 0 -35592353.930287421 -1231077.4058814049 1213290.7888171077 0 1213290.7888171077 -102376543.53851604 0 0 0 -36262667.330539227 521514.69822955132 -592436.98414003849 0 -592436.98414003849 -99955921.944067001 0 0 0 -34802042.536043167 51793.545760631561 615837.84487611055 0 615837.84487611055 -99557767.001523495 0 0 0 -34827090.709517002 -29740357.898213714 23144150.652919248 0 23144150.652919248 -101798034.31935829 0 0 0 -46038437.276150182 -7625605.6230370402 -8887773.6976742744 0 -8887773.6976742744 -101921547.89991868 0 0 0 -38341503.733034492 2205477.2073739767 -711226.638191998 0 -711226.638191998 -99940145.396906137 0 0 0 -34207133.866335988 469677.17566907406 1272580.0752761364 0 1272580.0752761364 -97138727.720096588 0 0 0 -33834167.690549731 -491749.39961856604 -31980.110283195972 0 -31980.110283195972 -93766832.764929056 0 0 0 -32990503.757591784 -40186474.675435729 -11020923.152932413 0 -11020923.152932413 -97985604.372271955 0 0 0 -48360227.666697703 1421131.9182254076 -627553.53596538305 0 -627553.53596538305 -101060380.5409205 0 0 0 -34873737.017943501 -25818.833369612694 1932249.8416832983 0 1932249.8416832983 -101106126.43369508 0 0 0 -35396180.843472838 -1911267.4666013718 -714716.60208672285 0 -714716.60208672285 -101457487.11512578 0 0 0 -36179064.103604555 -15303780.987902045 -2475112.2778773457 0 -2475112.2778773457 -100088549.38069195 0 0 0 -40387315.629007846 -204137.98948121071 -402552.94320619106 0 -402552.94320619106 -102545882.33609843 0 0 0 -35962507.113952875 1000761.9946871996 -840967.76025545597 0 -840967.76025545597 -101361873.12173963 0 0 0 -35126388.894468188 -86900.907614707947 1792594.9891739488 0 1792594.9891739488 -101598763.54467487 0 0 0 -35589982.558301687 -3287639.4610205889 -245180.86447629333 0 -245180.86447629333 -102512925.66250801 0 0 0 -37030197.793234944 -11525835.543230116 -1830403.6864878535 0 -1830403.6864878535 -100695105.38568592 0 0 0 -39277329.325120628 1459530.0292367935 -127761.64484167099 0 -127761.64484167099 -101141245.97261286 0 0 0 -34888600.580181599 -285142.0873632431 1580337.7716607451 0 1580337.7716607451 -100671563.45151901 0 0 0 -35334846.938608646 -1005678.0592137575 -1554065.0261189342 0 -1554065.0261189342 -100586861.75762022 0 0 0 -35557388.935891747 -20868012.557626396 -1339947.9363996536 0 -1339947.9363996536 -101106360.18821663 0 0 0 -42691030.461045116 643947.43895995617 -384257.22895205021 0 -384257.22895205021 -102253119.5502944 0 0 0 -35563210.238966823 -940609.45432054996 1132992.7065297961 0 1132992.7065297961 -102158298.13053131 0 0 0 -36084617.654698133 540630.95501667261 -367398.31952142715 0 -367398.31952142715 -102231051.14512971 0 0 0 -35591647.066539586 -604097.93282198906 1121870.223837886 0 1121870.223837886 -102448420.04065371 0 0 0 -36068381.29071641 2061945.8259323835 -585624.31582009792 0 -585624.31582009792 -100268640.06434298 0 0 0 -34372342.983443856 -108035.66887712479 1812002.6132948995 0 1812002.6132948995 -98147616.31458807 0 0 0 -34389478.194212914 -728058.67818403244 -1191036.7199127078 0 -1191036.7199127078 -97709751.102805376 0 0 0 -34453233.423346281 -29328140.405114353 -5537037.7438290268 0 -5537037.7438290268 -94065432.51520738 0 0 0 -43187750.522112601 -41650885.359445952 1013722.9876395352 0 1013722.9876395352 -92121361.574897811 0 0 0 -46820286.427020319 446394.36151087284 737425.29111325741 0 737425.29111325741 -92697750.734486818 0 0 0 -32287974.730541587 -226861.27480268478 -1445689.872854352 0 -1445689.872854352 -95017129.546503544 0 0 0 -33335396.787457228 3058342.4048458338 212425.50281119347 0 212425.50281119347 -100031586.28889906 0 0 0 -33940635.359418273 1703555.4577801228 -453788.16130971909 0 -453788.16130971909 -100870164.888659 0 0 0 -34708313.300807953 -384472.98080325127 2125938.3475759029 0 2125938.3475759029 -99532259.557551146 0 0 0 -34970856.38842392 -1158626.0559384823 -1235028.9536880851 0 -1235028.9536880851 -100172371.06778193 0 0 0 -35465848.993302107 -22925495.514986128 -2015196.874481231 0 -2015196.874481231 -97054059.639817595 0 0 0 -41992844.304181308 -2077483.7231135368 229529.46105241776 0 229529.46105241776 -103343292.50451601 0 0 0 -36897271.679670274 1098724.1427307129 -1511990.3062837105 0 -1511990.3062837105 -100564811.79414845 0 0 0 -34813130.677996159 769604.26323422417 1852129.6388882995 0 1852129.6388882995 -99662526.732058659 0 0 0 -34612522.864088446 -8352803.9379479978 4408121.4637652934 0 4408121.4637652934 -103251157.11642268 0 0 0 -39061386.369029708 -18835884.377797067 -6785750.1896686107 0 -6785750.1896686107 -102489348.233742 0 0 0 -42463831.414038658 1798898.1158517599 632354.34407299757 0 632354.34407299757 -100532183.23576093 0 0 0 -34556649.791968226 1618649.5297086239 848644.82076072693 0 848644.82076072693 -100873913.84438682 0 0 0 -34739342.510137439 -1240680.5869067907 1076230.9048249722 0 1076230.9048249722 -99899712.624706507 0 0 0 -35399137.624064684 140170.58706474304 -2025940.7369980216 0 -2025940.7369980216 -99383269.991268158 0 0 0 -34735084.791471243 375654.62955331802 -2091071.0387119949 0 -2091071.0387119949 -98660386.454405785 0 0 0 -34399656.138698339 -2544093.2714686394 9619.6027615368366 0 9619.6027615368366 -99911738.431913733 0 0 0 -35859541.096183896 -23248463.546225131 3982419.0863522887 0 3982419.0863522887 -97900117.842111409 0 0 0 -42402003.485917777 -28610561.694325164 4816248.6696117818 0 4816248.6696117818 -101249705.28448811 0 0 0 -45451093.442584619 106135.06874677539 -1580928.5107195973 0 -1580928.5107195973 -102012126.03685056 0 0 0 -35667096.838836342 -7571564.2919019461 1489253.2318394184 0 1489253.2318394184 -101666833.99783564 0 0 0 -38233439.401408136 621476.04973340034 1107854.8382266611 0 1107854.8382266611 -101685275.57383776 0 0 0 -35372329.833436728 761325.00880551338 -916531.42116856575 0 -916531.42116856575 -99233856.526268482 0 0 0 -34465386.031112432 793266.59628725052 896186.93170773983 0 896186.93170773983 -99362467.576899529 0 0 0 -34499220.343214154 -21697793.259326741 17587556.139895245 0 17587556.139895245 -109334509.85723583 0 0 0 -45861306.090796933 -25493772.172573805 -17219389.805370409 0 -17219389.805370409 -108819959.62226105 0 0 0 -47009806.128192216 -2392271.0868650079 762663.41581344604 0 762663.41581344604 -102834367.84060931 0 0 0 -36829323.624616086 371049.12096691132 -1309018.1401129961 0 -1309018.1401129961 -97147314.989840984 0 0 0 -33871693.054105997 -39407397.53623338 10738991.471123494 0 10738991.471123494 -97758879.178891599 0 0 0 -48008196.850293726 2174794.875562191 699982.58465766907 0 699982.58465766907 -100106453.55525732 0 0 0 -34276080.537893295 -1231855.975823313 369419.8543907702 0 369419.8543907702 -94423213.40695703 0 0 0 -33479274.283973187 -1370720.5376417637 264537.67747205496 0 264537.67747205496 -103570592.12531471 0 0 0 -36729459.432034731 -2951499.4785654545 -127603.17743468285 0 -127603.17743468285 -102602587.05530548 0 0 0 -36943930.286854744 244856.95197176933 -585550.57687062025 0 -585550.57687062025 -96676019.547406197 0 0 0 -33750906.908402205 -42381743.953297958 11302296.232110171 0 11302296.232110171 -90442489.255197465 0 0 0 -46488481.622973397 2549407.8308899403 295033.11406743526 0 295033.11406743526 -99882953.788483858 0 0 0 -34066741.085157871 -1126350.9715352058 1186831.6201328337 0 1186831.6201328337 -90626443.558269262 0 0 0 -32113478.085431576 1445431.5322299302 -751640.97158318758 0 -751640.97158318758 -101095581.49587947 0 0 0 -34877552.48727724 1313599.9029698372 -734908.40141224861 0 -734908.40141224861 -101362276.69772649 0 0 0 -35017036.878164768 234499.76313614845 1876362.5683101714 0 1876362.5683101714 -100231703.93009281 0 0 0 -34999021.458435059 -71621.881661653519 2161908.4287906289 0 2161908.4287906289 -99960440.990980387 0 0 0 -35011222.005424738 -3332293.7429797649 -185472.57685133815 0 -185472.57685133815 -101457162.19394112 0 0 0 -36676309.577922344 -2131433.2142500877 -399770.46146565676 0 -399770.46146565676 -101264730.3811872 0 0 0 -36188657.258403063 -20760998.223398209 -3295369.0235310793 0 -3295369.0235310793 -102982219.89728272 0 0 0 -43310126.342238307 -20191465.54915598 -2618323.2730285376 0 -2618323.2730285376 -99284884.522551596 0 0 0 -41816722.525097638 1689727.3870446682 -842384.77892529964 0 -842384.77892529964 -100849582.4723587 0 0 0 -34705949.279859781 382032.89185982943 2065802.8356635571 0 2065802.8356635571 -98809349.083361149 0 0 0 -34449560.667025626 -2580950.8531740308 -107534.06424835324 0 -107534.06424835324 -99645656.946061194 0 0 0 -35779312.729732335 -27212198.345475316 -5076422.8103949353 0 -5076422.8103949353 -101231314.85376775 0 0 0 -44955229.619735122 2331132.0880582333 -296885.53195473552 0 -296885.53195473552 -100232059.06443167 0 0 0 -34265324.441730738 135362.43418222666 1680002.2167080045 0 1680002.2167080045 -97308359.511917591 0 0 0 -34010548.977207482 -151516.05974176526 -1291939.881875515 0 -1291939.881875515 -95025194.912698448 0 0 0 -33311848.840354115 -31638893.125648662 -3616141.9023125991 0 -3616141.9023125991 -94228641.436723202 0 0 0 -44053637.096830145 2458387.3573346138 -479660.95859469473 0 -479660.95859469473 -100373643.89369726 0 0 0 -34270339.787726402 439826.29518857598 1826207.6086066961 0 1826207.6086066961 -96287527.775651574 0 0 0 -33546695.518162102 -488390.8895508647 -1817722.8364399672 0 -1817722.8364399672 -97126574.969169199 0 0 0 -34165238.050551951 -38932780.165915251 -4611007.1858998816 0 -4611007.1858998816 -98629340.530085206 0 0 0 -48146742.243600145 1756273.3556149006 -668143.49241906404 0 -668143.49241906404 -100540326.36271191 0 0 0 -34574418.552484035 57815.854240894318 2173631.320972681 0 2173631.320972681 -99106203.097354889 0 0 0 -34666935.53508985 -980881.77735084295 -936890.41621673107 0 -936890.41621673107 -99732632.381645679 0 0 0 -35249729.955648601 -24921962.493440568 -3513338.1320990063 0 -3513338.1320990063 -96673772.888361037 0 0 0 -42558507.383630574 984893.75444278121 -1748774.7013561726 0 -1748774.7013561726 -99741935.829077959 0 0 0 -34564964.72612229 1063136.1037344933 1587918.9723345041 0 1587918.9723345041 -100237090.41721296 0 0 0 -34710884.009717464 -17638014.295193672 6680754.2947944254 0 6680754.2947944254 -104021608.31325269 0 0 0 -42580867.912956297 -12188242.06405443 -5198354.8719871342 0 -5198354.8719871342 -104279691.79296982 0 0 0 -40763776.849958479 44961.583836078644 -1883567.1154799163 0 -1883567.1154799163 -99612485.960760355 0 0 0 -34848633.531923532 1630265.0866690278 414002.86921644211 0 414002.86921644211 -100966718.57291985 0 0 0 -34767758.720187843 -24549171.885101389 2519693.213321358 0 2519693.213321358 -101053330.30273063 0 0 0 -43960875.765741214 -1284108.7744390965 1245919.1999982372 0 1245919.1999982372 -100057729.40286493 0 0 0 -35469643.362056494 -231058.07505846024 -1057179.2667527497 0 -1057179.2667527497 -97712801.619056702 0 0 0 -34280350.892940283 -39002047.366073206 9188571.7276458144 0 9188571.7276458144 -92590953.113312036 0 0 0 -46057550.167784825 1964420.8241142035 554790.72353303432 0 554790.72353303432 -100189916.23204076 0 0 0 -34378923.392774224 -105620.88310849667 -291328.44717384875 0 -291328.44717384875 -93137279.412994027 0 0 0 -32635015.103635907 728629.17849254608 91215.346578262746 0 91215.346578262746 -102152580.54877138 0 0 0 -35498382.979597569 -2262470.1693678424 829361.74281525612 0 829361.74281525612 -102600882.22642009 0 0 0 -36702173.338525705 2397583.7911790013 -47663.624403715134 0 -47663.624403715134 -100235076.97921252 0 0 0 -34243122.615811527 -83124.21377658844 1615702.3160700053 0 1615702.3160700053 -97038290.096909285 0 0 0 -33992495.008740067 -262980.57874560356 -1925566.6503207684 0 -1925566.6503207684 -97128862.42983079 0 0 0 -34087145.053001642 -31582357.261427976 -1213645.6884085834 0 -1213645.6884085834 -93430978.508790091 0 0 0 -43754667.519576304 -1108554.8631129563 -95608.808823883533 0 -95608.808823883533 -103094939.1148451 0 0 0 -36471222.892285377 1405818.1672394276 -1025345.1477397084 0 -1025345.1477397084 -99544986.482008457 0 0 0 -34348708.910169363 645873.11824774742 1180794.2583389282 0 1180794.2583389282 -98757408.867801189 0 0 0 -34339037.512343645 354971.60526132584 -820442.36654636264 0 -820442.36654636264 -99949377.687974453 0 0 0 -34858042.128949642 162524.85019910336 839516.92989504337 0 839516.92989504337 -99669192.59285152 0 0 0 -34827333.709928393 -27425477.588346094 16985138.394862048 0 16985138.394862048 -103612012.36262059 0 0 0 -45863121.482838333 -11566886.21309597 -11268803.828526109 0 -11268803.828526109 -105220589.34032799 0 0 0 -40875616.443698354 1752167.4299283028 -676991.54308277369 0 -676991.54308277369 -100591430.71301603 0 0 0 -34593742.149080992 347216.74425780773 1914557.5128359795 0 1914557.5128359795 -99423614.762076497 0 0 0 -34676739.306236506 -1448778.8255672455 -1026883.9885320663 0 -1026883.9885320663 -100048998.74738991 0 0 0 -35524222.150534987 -23736889.806254804 -4880801.2675178871 0 -4880801.2675178871 -99553545.90683639 0 0 0 -43151652.499581933 -5605074.4972422719 9029086.8702142686 0 9029086.8702142686 -103582698.59359968 0 0 0 -38215720.581794709 -18507438.622592155 -16086252.210213393 0 -16086252.210213393 -97477855.471783876 0 0 0 -40594852.933031589 -3323441.9236950874 253300.40878304839 0 253300.40878304839 -103596251.46993613 0 0 0 -37421892.687770963 -4212570.8052425385 -232165.68467594683 0 -232165.68467594683 -103705056.2986598 0 0 0 -37771169.486365914 690082.82796049118 -1600044.5883453488 0 -1600044.5883453488 -101220939.04269028 0 0 0 -35185799.67515552 870946.28167235851 1672399.5156110525 0 1672399.5156110525 -100708295.65595222 0 0 0 -34943072.280998111 -7494928.7686269879 2589923.8263395429 0 2589923.8263395429 -102495928.92274821 0 0 0 -38496800.191981494 -8742287.2074835896 -2925236.8915120661 0 -2925236.8915120661 -101520822.49482524 0 0 0 -38592088.39580816 -8724316.0360478759 -1251500.6033421457 0 -1251500.6033421457 -103795860.47222352 0 0 0 -39382061.777894914 2664819.2963886261 -110720.13575899601 0 -110720.13575899601 -100203231.57260625 0 0 0 -34138444.296676159 45196.765041470528 1927458.9900117554 0 1927458.9900117554 -95707228.997698307 0 0 0 -33481711.281429768 629638.72457230091 -1359387.6792432358 0 -1359387.6792432358 -94963867.81883502 0 0 0 -33016980.182991862 -38657553.98457244 621583.22953460366 0 621583.22953460366 -96440216.878712252 0 0 0 -47284219.802149653 583267.43098628521 708996.40822064877 0 708996.40822064877 -101863117.84140778 0 0 0 -35447947.643647432 585379.15232169628 873259.05870008469 0 873259.05870008469 -102141709.90340078 0 0 0 -35544715.762877822 -1778428.553248167 -576378.87601947784 0 -576378.87601947784 -103123078.45396519 0 0 0 -36715527.452524424 938589.75287246704 -278413.72881031036 0 -278413.72881031036 -99932492.250638008 0 0 0 -34647865.874218225 107746.86306667328 321203.01034390926 0 321203.01034390926 -98992239.8183465 0 0 0 -34609572.534347773 -12631.745547727698 2321632.6456961632 0 2321632.6456961632 -87870987.262735322 0 0 0 -30759266.652899161 -53425247.989072055 -20008731.30713227 0 -20008731.30713227 -99207670.011539891 0 0 0 -53421521.300214179 88230.574962986517 -341065.922270298 0 -341065.922270298 -99062043.587735847 0 0 0 -34640834.554470405 -53707251.134724796 20027167.286606148 0 20027167.286606148 -99732230.971477315 0 0 0 -53703818.737170741 877832.31636118889 297677.71362906072 0 297677.71362906072 -99954006.828237534 0 0 0 -34676661.079156637 224028.89478387951 -2291907.0085577965 0 -2291907.0085577965 -87384985.422195569 0 0 0 -30506334.784594093 888131.19950819016 -1418752.2897371948 0 -1418752.2897371948 -101107093.42837572 0 0 0 -35076636.780103683 395425.59631621838 1670983.8439140916 0 1670983.8439140916 -101591928.19848633 0 0 0 -35418775.910759568 -7503260.9037303627 1864960.0769419968 0 1864960.0769419968 -102565095.14781654 0 0 0 -38523924.618041366 -10961018.265282691 -3004120.0025375932 0 -3004120.0025375932 -102718423.6251477 0 0 0 -39787804.661650658 2075800.7663564086 205535.30024397373 0 205535.30024397373 -100464953.25484455 0 0 0 -34436203.370970905 -400090.95857608318 1617273.5128419027 0 1617273.5128419027 -98521089.421378613 0 0 0 -34622413.132984161 -412806.11692559719 -2155757.619789809 0 -2155757.619789809 -98539348.624485016 0 0 0 -34633254.159493804 -27063589.358261973 712132.17196746171 0 712132.17196746171 -94805632.41949001 0 0 0 -42654227.622213185 648202.78034353256 -1632121.4099561572 0 -1632121.4099561572 -100937360.28483653 0 0 0 -35101205.126572847 626089.42108249664 1530515.3516204953 0 1530515.3516204953 -101431791.30411434 0 0 0 -35281995.659061313 -10621036.065342486 2070417.972638607 0 2070417.972638607 -103052509.65362835 0 0 0 -39785741.001639843 -8778172.7330254912 -2712316.5036109984 0 -2712316.5036109984 -103023836.83684015 0 0 0 -39130703.349452972 253033.99512600899 -910232.42188572884 0 -910232.42188572884 -96320642.114944458 0 0 0 -33623662.84193635 -44571744.25971368 8603116.2883293554 0 8603116.2883293554 -95769573.630768895 0 0 0 -49119461.261668906 597.41772711277008 729145.69306486845 0 729145.69306486845 -90573638.90609169 0 0 0 -31700564.520927429 2668439.399758935 390293.8617657423 0 390293.8617657423 -100040475.83105087 0 0 0 -34080212.750952125 -179322.51872980595 -540981.11319792271 0 -540981.11319792271 -96244228.249589443 0 0 0 -33748242.768911719 -49939665.587402746 10091406.086026268 0 10091406.086026268 -92743033.984962076 0 0 0 -49938944.850327685 2823208.7690153122 265799.92078083137 0 265799.92078083137 -100156684.04807329 0 0 0 -34066716.347670078 63064.630504564382 432941.10155963898 0 432941.10155963898 -85418686.619602993 0 0 0 -29874467.696184441 140878.55892739352 906691.32112467289 0 906691.32112467289 -87466419.800415456 0 0 0 -30563939.434520744 3461287.884552002 157619.7117151022 0 157619.7117151022 -99870207.628414154 0 0 0 -33743121.910351753 -49765549.818747997 7688636.8134058407 0 7688636.8134058407 -92424717.586435124 0 0 0 -49766593.591814086 380586.06541546457 -480358.61976003647 0 -480358.61976003647 -94681161.382672876 0 0 0 -33005201.361040153 899365.95304656029 -912675.17148470879 0 -912675.17148470879 -99641075.772746086 0 0 0 -34559598.436894894 490105.35458755493 994400.87079739571 0 994400.87079739571 -99109699.368669033 0 0 0 -34516857.904928684 -19465258.726060122 17087642.752683811 0 17087642.752683811 -99736924.080432832 0 0 0 -41720763.982272536 -9989763.8962886631 -14590860.023846179 0 -14590860.023846179 -108508416.82410443 0 0 0 -41474363.252137497 922370.57049250603 -1047382.6198924184 0 -1047382.6198924184 -101573006.72242248 0 0 0 -35227722.653175473 1025941.1628059298 -1129192.4252181053 0 -1129192.4252181053 -101234260.86275521 0 0 0 -35072911.894982323 283377.39593267441 1844978.5382997543 0 1844978.5382997543 -100749718.34532428 0 0 0 -35163219.332287073 216520.64417004585 1769497.4398025088 0 1769497.4398025088 -101445814.45768642 0 0 0 -35430252.834730625 -4354705.4486738443 925817.14764881134 0 925817.14764881134 -102689695.93763185 0 0 0 -37465540.485207081 -5567800.0359559059 649328.25187580287 0 649328.25187580287 -102872692.95109153 0 0 0 -37954172.545466661 -16993807.448855788 -2077719.4437341988 0 -2077719.4437341988 -103569478.36403757 0 0 0 -42197150.034512669 -11982482.326277852 -2848978.6499712467 0 -2848978.6499712467 -102024622.84895578 0 0 0 -39902486.811331809 963816.86961424351 -1142810.1682213545 0 -1142810.1682213545 -99469116.8657794 0 0 0 -34476854.998657823 882893.5137386322 1221889.4623005986 0 1221889.4623005986 -99147794.730265617 0 0 0 -34392715.425784588 110581.67216968536 -2114471.7512652874 0 -2114471.7512652874 -98261287.800043583 0 0 0 -34352747.14475584 1745228.0024842024 547286.42365801334 0 547286.42365801334 -100901557.31749845 0 0 0 -34704715.260255218 -30810431.183166966 2907654.8416902125 0 2907654.8416902125 -99893775.009152591 0 0 0 -45746472.167311832 -1233353.680627346 985840.09723559022 0 985840.09723559022 -98850797.787345171 0 0 0 -35029453.013790369 -7792459.6197599173 -274178.9971396476 0 -274178.9971396476 -103198603.69217968 0 0 0 -38846872.159178913 -8789300.228053689 -86244.008195489645 0 -86244.008195489645 -103630745.71856928 0 0 0 -39347016.081318021 1995228.5389375687 720675.3234449327 0 720675.3234449327 -100250793.86408901 0 0 0 -34389447.863803148 33218.717565730214 -1998199.8420262933 0 -1998199.8420262933 -98806860.917867512 0 0 0 -34570774.770105764 -986503.33938363194 849794.17633581161 0 849794.17633581161 -98777615.456224084 0 0 0 -34917441.57846275 -25442529.922773123 5112267.9260571906 0 5112267.9260571906 -95044733.720000446 0 0 0 -42170542.27497071 -1747708.8972558975 -698988.68351703882 0 -698988.68351703882 -102854040.06278563 0 0 0 -36610612.136014521 694800.87382149696 -1171613.3630858958 0 -1171613.3630858958 -101836874.61302853 0 0 0 -35399725.808722734 237811.02929592133 1614777.1957685351 0 1614777.1957685351 -101312354.4725042 0 0 0 -35376090.205122709 -4881015.7883868814 1054386.7461173236 0 1054386.7461173236 -102845580.72928154 0 0 0 -37704308.781183898 -11111707.294026375 -1470091.5261183903 0 -1470091.5261183903 -102417438.79116762 0 0 0 -39735201.129817903 1267750.4521148205 1134496.4806485176 0 1134496.4806485176 -101023808.04909432 0 0 0 -34914620.158942699 324989.98383331299 -2107365.3157031834 0 -2107365.3157031834 -100083288.5831089 0 0 0 -34915404.509746552 -2684917.9923334122 -862993.60145837069 0 -862993.60145837069 -101961242.66323781 0 0 0 -36626156.229449987 -17749999.716843158 3648534.7483630776 0 3648534.7483630776 -99845787.885397509 0 0 0 -41158525.660784245 -4003741.9158059806 314298.88066899776 0 314298.88066899776 -103613307.29639827 0 0 0 -37665967.224271461 -13713152.43508321 1227646.6346039474 0 1227646.6346039474 -104039120.80715978 0 0 0 -41213295.634785116 -3011785.047360301 -483179.17424446344 0 -483179.17424446344 -103637632.91376781 0 0 0 -37327296.286394835 199222.66039156914 1403921.0503458381 0 1403921.0503458381 -101843272.70100689 0 0 0 -35575417.514215231 -2206085.9301064014 -254452.44842857122 0 -254452.44842857122 -103527736.19002604 0 0 0 -37006837.742046356 3944000.1606707573 -60987.713125043396 0 -60987.713125043396 -100015837.84378719 0 0 0 -33625143.189090729 -100500.13246304504 664719.91645401716 0 664719.91645401716 -92194789.102912545 0 0 0 -32303351.232381411 457341.94828957651 -574102.0712634325 0 -574102.0712634325 -90436985.623832583 0 0 0 -31492875.286440071 -50075632.99876757 -723708.3645809032 0 -723708.3645809032 -93003730.318470359 0 0 0 -50077777.161033265 -190003.29450517893 -2064691.8263036609 0 -2064691.8263036609 -100300122.0191952 0 0 0 -35171543.859795153 1497546.2196455002 456443.6748765707 0 456443.6748765707 -101131131.04664612 0 0 0 -34871754.689449787 -19831016.235177398 1310936.5226210803 0 1310936.5226210803 -100149311.72065914 0 0 0 -41993114.784542799 -1176128.210924387 1017537.4544020295 0 1017537.4544020295 -101029771.36679244 0 0 0 -35772064.852200747 -9418411.4355838895 422869.67833849229 0 422869.67833849229 -101654502.12639642 0 0 0 -38875519.746693075 -968524.60180878639 360347.08091952652 0 360347.08091952652 -102855334.5164361 0 0 0 -36338350.691385984 -2508529.0276083946 -56836.928264290094 0 -56836.928264290094 -103716929.27596211 0 0 0 -37178910.406249762 -36430592.710780501 -41363626.743673846 0 -41363626.743673846 -170384342.06280512 0 0 0 -72385227.170754969 -74023408.658758253 40770986.322004288 0 40770986.322004288 -137682731.6910924 0 0 0 -74097149.122447729 -36533085.408928536 41495732.832345046 0 41495732.832345046 -170341411.53924137 0 0 0 -72406073.931859463 -73926193.835312858 -40671788.728844814 0 -40671788.728844814 -137500994.37125435 0 0 0 -73999515.872298524 40456.805860996246 -19595.513351613714 0 -19595.513351613714 -100019446.34490681 0 0 0 -34992646.338666439 -18217.843164920807 -19861.926327943802 0 -19861.926327943802 -99958995.609371662 0 0 0 -34992024.708387852 43403.33473443985 19739.730155467987 0 19739.730155467987 -100015882.74516106 0 0 0 -34990367.793649197 -17835.15856707819 19283.55226123333 0 19283.55226123333 -99957685.437821627 0 0 0 -34991432.20873607 -689941.78908765316 898117.50284045935 0 898117.50284045935 -102874225.87776136 0 0 0 -36247458.683397174 -3232318.4780835509 450411.53505435586 0 450411.53505435586 -103235792.81652868 0 0 0 -37263838.953114331 -3756344.9125072956 -205361.29064226151 0 -205361.29064226151 -103337307.42260969 0 0 0 -37482778.317290902 2811645.3186016083 -435707.70025765896 0 -435707.70025765896 -100128811.21486497 0 0 0 -34061008.063692331 267815.69546151161 1342413.4764443636 0 1342413.4764443636 -95735081.020431042 0 0 0 -33413542.863739371 290571.25113928318 -838461.78217476606 0 -838461.78217476606 -91505381.141949177 0 0 0 -31925183.461783528 -44327755.20282051 -5811896.3409049455 0 -5811896.3409049455 -96141701.526228487 0 0 0 -49164309.855167136 997524.02379468083 -1504399.7249712944 0 -1504399.7249712944 -100948215.83664358 0 0 0 -34982742.134497136 623100.37020850182 1966605.2294391245 0 1966605.2294391245 -100295171.12233067 0 0 0 -34885224.76324296 -6699880.515130043 2697045.119042296 0 2697045.119042296 -102921643.8740387 0 0 0 -38367533.536209106 -13536056.160253063 -4304995.0294189155 0 -4304995.0294189155 -101241370.06433286 0 0 0 -40172099.178605095 -4092073.7321996503 231459.46832543612 0 231459.46832543612 -103622630.28516483 0 0 0 -37700146.406077608 -7286160.4057071805 -698797.32559484243 0 -698797.32559484243 -103058879.27595961 0 0 0 -38620763.888583422 2414986.7126195431 -274884.43100631237 0 -274884.43100631237 -99962681.485703468 0 0 0 -34141693.170579433 58897.920983076096 511631.27498620749 0 511631.27498620749 -96930709.362029791 0 0 0 -33905134.004366398 1869597.4733674526 -586611.64443719387 0 -586611.64443719387 -100280375.78647566 0 0 0 -34443772.40958786 -339420.60487174988 1048503.1251454353 0 1048503.1251454353 -97807782.581219435 0 0 0 -34351521.115131974 -1042820.5829628706 -871757.27743834257 0 -871757.27743834257 -91011347.187339425 0 0 0 -32218958.719605684 -41030253.693385564 -11324334.62883408 0 -11324334.62883408 -89466104.977775574 0 0 0 -45673725.534906402 -746217.54728895426 499042.571801126 0 499042.571801126 -93008984.212415993 0 0 0 -32814320.615896821 -40158137.629413575 -9890418.3560541812 0 -9890418.3560541812 -92979590.500042185 0 0 0 -46598204.845309511 628925.72784662247 -1144157.3693900853 0 -1144157.3693900853 -98659538.645313263 0 0 0 -34310714.521113396 1387892.6047167182 980104.66308295727 0 980104.66308295727 -99553844.741957188 0 0 0 -34358083.248034298 436573.85270625353 -1962284.192361474 0 -1962284.192361474 -100318894.31554437 0 0 0 -34958812.161993206 1428584.4599506855 1210759.5140992999 0 1210759.5140992999 -100473925.48556376 0 0 0 -34665869.358964443 -17484994.956317037 5637616.3813973442 0 5637616.3813973442 -101112881.46092331 0 0 0 -41509256.746034116 -3974204.5861722529 -1245774.1206462085 0 -1245774.1206462085 -100947757.36412817 0 0 0 -36722686.682605177 -32453628.791726321 16477646.134277329 0 16477646.134277329 -104300414.36176686 0 0 0 -47863915.103722602 -6730882.3908746243 -6323834.7965993062 0 -6323834.7965993062 -100616939.58033168 0 0 0 -37571737.689922214 -6937290.6162436008 -510322.05036118627 0 -510322.05036118627 -103522115.15365887 0 0 0 -38660792.019465804 2299255.0828821063 190813.4880862236 0 190813.4880862236 -100553073.59603369 0 0 0 -34388836.479602993 -255188.73902535439 1911101.3925401866 0 1911101.3925401866 -96481922.147925615 0 0 0 -33857988.810432792 265210.43856072426 -1788462.0420123637 0 -1788462.0420123637 -96621748.02336669 0 0 0 -33724788.154682159 -35588595.64752087 2465485.4497297108 0 2465485.4497297108 -98535438.383839771 0 0 0 -46943411.910976231 1089984.7867797613 88719.350791454315 0 88719.350791454315 -101476796.34434438 0 0 0 -35135384.045147538 935867.49494659901 260352.92497718334 0 260352.92497718334 -101922889.90187407 0 0 0 -35345457.842424512 -1193312.6486866474 1230604.8253757656 0 1230604.8253757656 -102106916.23265719 0 0 0 -36155080.108470321 -2154679.3705573082 839304.76396262646 0 839304.76396262646 -102049499.25681615 0 0 0 -36471462.519580722 -979886.91022205353 -1392136.2805859149 0 -1392136.2805859149 -102125779.13002563 0 0 0 -36086983.114086628 -840027.55713403225 -1394155.6140078008 0 -1394155.6140078008 -101619627.53458166 0 0 0 -35860879.282100439 2265451.3165163994 -694130.19924598932 0 -694130.19924598932 -100045208.30585432 0 0 0 -34222914.946268082 580885.29193258286 1516086.8444265127 0 1516086.8444265127 -97045887.880978823 0 0 0 -33762750.906166077 -607253.791667521 -639227.46129512787 0 -639227.46129512787 -95288000.187056422 0 0 0 -33563338.892553329 -37339486.701986983 -8640178.0385243483 0 -8640178.0385243483 -98305236.02240473 0 0 0 -47475652.953537092 1795840.5204834938 -904494.31612479687 0 -904494.31612479687 -100547104.76925421 0 0 0 -34562942.487069845 321898.01465499401 2011309.2601885796 0 2011309.2601885796 -98014377.71147871 0 0 0 -34192367.893888235 -2043882.697686553 269290.63464316726 0 269290.63464316726 -98399015.630389929 0 0 0 -35155014.41482687 -32085915.024461061 -6226592.8803859577 0 -6226592.8803859577 -99158132.611589313 0 0 0 -45935416.672617584 -4844711.3823338747 255407.62298920751 0 255407.62298920751 -103695395.96133542 0 0 0 -37989037.570284247 531729.49546504021 -1706475.2853171825 0 -1706475.2853171825 -97952376.245347023 0 0 0 -34097226.362458467 1932565.1720712185 904518.59287691116 0 904518.59287691116 -100046046.36549854 0 0 0 -34339718.417699575 -31625630.8658171 8782775.7972878367 0 8782775.7972878367 -98334721.564403057 0 0 0 -45486123.350577086 -1734065.3666186333 -319312.95026624203 0 -319312.95026624203 -97893890.346551776 0 0 0 -34869784.499609649 821728.82558703423 -1223346.1707847118 0 -1223346.1707847118 -100123738.35782051 0 0 0 -34755703.336281538 328439.99297094345 1393874.5178014636 0 1393874.5178014636 -99321221.689390182 0 0 0 -34647473.593746662 1184238.3668528795 -1295690.1852960587 0 -1295690.1852960587 -100747305.84467578 0 0 0 -34847073.617238164 287393.3988468647 1980210.4191278219 0 1980210.4191278219 -100925534.3684411 0 0 0 -35223349.339358091 -5434664.1722763777 1232213.6661126912 0 1232213.6661126912 -101889699.254758 0 0 0 -37563527.199461997 -14747598.176659495 -3936297.5872441232 0 -3936297.5872441232 -101688228.50145268 0 0 0 -40752539.337339312 320095.00583475828 319633.31316673756 0 319633.31316673756 -102662912.49009931 0 0 0 -35819986.119492352 2943433.5648498535 -249960.52820563316 0 -249960.52820563316 -100028464.01157331 0 0 0 -33979760.656352997 82792.115419300375 513161.25506365299 0 513161.25506365299 -96043699.254131481 0 0 0 -33586317.498549193 35179.452621622266 -573482.48024302721 0 -573482.48024302721 -85081190.962960288 0 0 0 -29766104.028618589 -50250391.551318727 -10154255.757627279 0 -10154255.757627279 -93317619.028094471 0 0 0 -50248803.702794619 -10787221.07660538 141907.16152173281 0 141907.16152173281 -103981372.65374279 0 0 0 -40169007.805621922 4017198.5702390671 41925.353921890259 0 41925.353921890259 -100067099.81318283 0 0 0 -33617465.435029984 107868.73582971096 660405.04685771465 0 660405.04685771465 -90094152.31168437 0 0 0 -31495199.251549006 -52615.573362299285 -640260.48062825203 0 -640260.48062825203 -91972469.057280421 0 0 0 -32208779.620725103 -49738576.471530065 1553247.0330320366 0 1553247.0330320366 -92368607.390510365 0 0 0 -49737514.351714142 -5361153.1542484164 5874218.9439525306 0 5874218.9439525306 -99933431.1854375 0 0 0 -36853104.518890083 -32168165.888824672 -16393314.016132638 0 -16393314.016132638 -104398065.72602087 0 0 0 -47798181.065195948 -10010662.61738807 -250483.35505834222 0 -250483.35505834222 -102001311.52945161 0 0 0 -39204190.951393902 -3050606.9256933481 -447802.37996828556 0 -447802.37996828556 -103302086.56057751 0 0 0 -37223442.720194772 -4399575.8189737797 -44717.352072715759 0 -44717.352072715759 -103540687.6207118 0 0 0 -37779092.203889847 -930113.61454391479 1090947.7608907521 0 1090947.7608907521 -92778674.446011543 0 0 0 -32798075.82119453 3341608.2961821556 -5603.3049714565277 0 -5603.3049714565277 -100068618.86646426 0 0 0 -33854453.699598551 -42889963.886685014 2698258.6185812131 0 2698258.6185812131 -89521443.771743298 0 0 0 -46343992.680449903 103878.93022084236 -558588.65075924993 0 -558588.65075924993 -93667041.572414875 0 0 0 -32747106.924767971 758638.31406593323 -802964.73715275526 0 -802964.73715275526 -101790530.58108091 0 0 0 -35361162.293455362 -84513.88921558857 1399572.9923492074 0 1399572.9923492074 -101891786.30497313 0 0 0 -35691705.067965865 -4970924.3690682054 208359.63008713722 0 208359.63008713722 -103023061.50742579 0 0 0 -37797895.056772947 -12920899.614611447 -1773134.0329724252 0 -1773134.0329724252 -103401320.04855132 0 0 0 -40712776.882107019 -205194.56171292067 1203847.2380114794 0 1203847.2380114794 -102528416.430426 0 0 0 -35956763.847248614 -1146503.2980917692 469574.21355497837 0 469574.21355497837 -102961227.61995578 0 0 0 -36437705.821316719 1250329.782207489 -1439887.8908871412 0 -1439887.8908871412 -100428845.48143482 0 0 0 -34712480.494729519 475914.44544363022 1905962.7566940784 0 1905962.7566940784 -100172574.58700848 0 0 0 -34893831.049547434 -6014624.0296548009 2389130.3992830217 0 2389130.3992830217 -102039768.92965627 0 0 0 -37819037.535758793 -17684896.744590461 -5990710.5774040371 0 -5990710.5774040371 -101242254.9320271 0 0 0 -41624503.086816132 -6942944.5806547403 -983181.18561583757 0 -983181.18561583757 -103692656.07616663 0 0 0 -38722460.229887486 1555743.0837901235 -854949.17457258701 0 -854949.17457258701 -100330822.06741786 0 0 0 -34571277.644269645 -198655.80455136299 1551786.0729896873 0 1551786.0729896873 -98583463.897052765 0 0 0 -34573741.895561457 -1627475.7463294268 562082.7701729089 0 562082.7701729089 -98444110.406565428 0 0 0 -35025055.153513193 -30013239.573018156 -9400900.4587346464 0 -9400900.4587346464 -94112353.431082249 0 0 0 -43443957.55143512 2466150.8803024292 -332918.7060521841 0 -332918.7060521841 -100452615.35167885 0 0 0 -34295262.564981461 -40655.298292398453 1974917.3771538734 0 1974917.3771538734 -96296711.66860795 0 0 0 -33718078.43841517 -38274833.15429157 -1615083.7901188359 0 -1615083.7901188359 -97015488.509319842 0 0 0 -47351612.582263976 -4860241.4274176359 -111403.05632685125 0 -111403.05632685125 -103307270.26090026 0 0 0 -37858629.090911388 -469615.3504806757 -851749.90455627441 0 -851749.90455627441 -93602659.384907722 0 0 0 -32925296.157385707 -42094245.7368339 127499.17808463424 0 127499.17808463424 -88559982.178028584 0 0 0 -45728979.770201862 338787.02721190453 -1125483.3066821098 0 -1125483.3066821098 -93020675.310420513 0 0 0 -32438660.899123192 -44583910.955754295 554981.00658642128 0 554981.00658642128 -93954571.999366954 0 0 0 -48488469.034292445 -26297.855364441872 443816.27246248722 0 443816.27246248722 -92746032.935875416 0 0 0 -32470315.776933908 3397061.7312424183 80705.605347275734 0 80705.605347275734 -100047797.50860548 0 0 0 -33827757.522077322 3280397.4702451229 -8443.2523095607758 0 -8443.2523095607758 -100168489.32179165 0 0 0 -33910832.148041487 -447135.85917949677 1245152.6067515612 0 1245152.6067515612 -93455743.717926741 0 0 0 -32866007.851987123 2731034.7123026848 -181376.81501811743 0 -181376.81501811743 -100149124.73471642 0 0 0 -34096331.507844925 -90757.371417880058 1392514.7717375159 0 1392514.7717375159 -95883717.130084276 0 0 0 -33591066.075525761 -36252349.590041436 -2635748.3047394902 0 -2635748.3047394902 -91405805.913297579 0 0 0 -44680354.426168643 1572168.3631420135 -1220561.6035393476 0 -1220561.6035393476 -100237941.29082155 0 0 0 -34533020.524687529 645664.65568685532 1892779.5862675905 0 1892779.5862675905 -99339713.183960438 0 0 0 -34542916.984895945 -4683214.1226266623 1648626.1377356648 0 1648626.1377356648 -100522019.54074156 0 0 0 -36821831.782178819 -23178626.566407412 -7721378.0976977944 0 -7721378.0976977944 -102264294.32268298 0 0 0 -43905022.311181664 -3577482.7500476837 169897.18685355783 0 169897.18685355783 -103387847.78832388 0 0 0 -37437865.688430071 1250536.4893546104 410134.04026997089 0 410134.04026997089 -101571749.42030311 0 0 0 -35112424.525831938 -284414.1895608902 -1699020.7144181728 0 -1699020.7144181728 -100784324.89436555 0 0 0 -35374058.679374218 -2082544.9264885187 848720.53391996026 0 848720.53391996026 -101203363.0406754 0 0 0 -36150067.788507581 -20705731.215565503 1757835.0221354812 0 1757835.0221354812 -103257381.91356128 0 0 0 -43387089.595194399 2429053.0757888556 -320949.40153777599 0 -320949.40153777599 -100199691.06721807 0 0 0 -34219723.297000051 -429330.20965790749 689057.54256391525 0 689057.54256391525 -96911307.038128376 0 0 0 -34069223.036725283 -690974.55734467506 -120017.18761222064 0 -120017.18761222064 -91067109.061285973 0 0 0 -32115329.266520739 -40682203.553863958 -8399490.1356864497 0 -8399490.1356864497 -88245746.964667186 0 0 0 -45124782.681485899 2684262.4256121218 -402562.77208757401 0 -402562.77208757401 -99827060.970030993 0 0 0 -33999979.490546316 513565.044703722 919739.64723104797 0 919739.64723104797 -96241771.413515568 0 0 0 -33504872.229084015 151441.36856532097 -1163982.8445175514 0 -1163982.8445175514 -91654862.976323605 0 0 0 -32026197.562715411 -42578118.138018996 -9391771.5902005918 0 -9391771.5902005918 -94230137.08417359 0 0 0 -47882889.327767387 -425612.67203038931 -1537294.0083957911 0 -1537294.0083957911 -95250403.847138047 0 0 0 -33486605.781708896 -21543.521009802818 -1220910.3404129744 0 -1220910.3404129744 -95331080.484871984 0 0 0 -33373418.402058661 -297737.61847305298 197792.5814409852 0 197792.5814409852 -102651529.6946578 0 0 0 -36032243.559595704 1267635.4490201473 -554151.88960498571 0 -554151.88960498571 -101413110.0981288 0 0 0 -35050916.127187967 -292638.84739494324 2018116.7539917529 0 2018116.7539917529 -100355957.72156525 0 0 0 -35227008.799136043 -1858953.3229777217 -728071.74320214987 0 -728071.74320214987 -101580779.17722642 0 0 0 -36203906.375071406 -20279485.63407883 -1540897.129859075 0 -1540897.129859075 -100877514.33261448 0 0 0 -42404949.988342613 -1203649.2404385805 -525731.51653677225 0 -525731.51653677225 -103158464.79544568 0 0 0 -36526739.912559509 1940801.9236437082 -752581.12117385864 0 -752581.12117385864 -100231199.19815493 0 0 0 -34401639.046078801 -64007.597165942192 1718717.1910148859 0 1718717.1910148859 -98268656.128043413 0 0 0 -34416432.303823352 -891499.68399643898 -471276.59256690741 0 -471276.59256690741 -97896367.619856954 0 0 0 -34575753.556348681 -29256754.90771465 -7358412.0844554752 0 -7358412.0844554752 -94225438.398741513 0 0 0 -43218767.657259636 -639555.04693806171 284827.54846478254 0 284827.54846478254 -103231190.23246336 0 0 0 -36354760.84779036 -52160.084507226944 -1644127.9927083254 0 -1644127.9927083254 -98243012.405842543 0 0 0 -34403310.371622443 -31587835.397890165 8360712.5485301092 0 8360712.5485301092 -95151787.594336241 0 0 0 -44358868.047279254 1721402.6490645409 839128.59940558672 0 839128.59940558672 -100326210.83615971 0 0 0 -34511682.865483284 -964681.85841739178 -496412.7518530488 0 -496412.7518530488 -97318947.018978119 0 0 0 -34399270.107088506 2467899.9052259922 -482109.46813255548 0 -482109.46813255548 -99958016.623688698 0 0 0 -34121540.851461649 248558.15209233761 1321147.8922703266 0 1321147.8922703266 -96895441.273293257 0 0 0 -33826409.09242022 -277937.91875173151 -1080666.5054850578 0 -1080666.5054850578 -94860517.319775045 0 0 0 -33298459.333484426 -35717382.522735275 -6855919.0291299867 0 -6855919.0291299867 -93030805.43893306 0 0 0 -45061865.786583923 2077595.5155658722 -622853.51836264133 0 -622853.51836264133 -100231661.9536972 0 0 0 -34353923.253345966 -97538.038069605827 1392333.3869874477 0 1392333.3869874477 -97492442.851682186 0 0 0 -34156493.31141293 -365959.69905644655 -131944.64005249739 0 -131944.64005249739 -94226553.937510729 0 0 0 -33107379.772798598 -38092507.154778525 -7486262.8237031996 0 -7486262.8237031996 -94582301.252524987 0 0 0 -46436182.942556247 1685397.0953781605 -432567.12057840824 0 -432567.12057840824 -100770178.78255606 0 0 0 -34679673.590512514 129049.25508195162 1873565.9881967902 0 1873565.9881967902 -99926911.187352061 0 0 0 -34929251.676294506 -1032822.2568067312 -1249540.4341090322 0 -1249540.4341090322 -100169400.51166618 0 0 0 -35420777.96896553 -22682387.296739936 -2572080.8165275753 0 -2572080.8165275753 -100522380.66770625 0 0 0 -43121668.787556171 702797.97674620152 506915.93299502134 0 506915.93299502134 -102156224.49945974 0 0 0 -35508699.282949805 1096241.1780204773 495690.64978706837 0 495690.64978706837 -101424320.55596328 0 0 0 -35114827.782279968 -673924.64543521404 -1207928.5537748933 0 -1207928.5537748933 -102091344.54934192 0 0 0 -35967844.218172073 -3472690.1059967279 239777.6641368866 0 239777.6641368866 -102938398.35717177 0 0 0 -37243880.962109089 -371908.21572709084 -1626176.5553435683 0 -1626176.5553435683 -101842318.04925656 0 0 0 -35774979.192744255 -1919299.1471529007 679813.69999697804 0 679813.69999697804 -102243373.2221725 0 0 0 -36456935.329263687 -6156009.598206684 -342301.79881203175 0 -342301.79881203175 -103741884.87673008 0 0 0 -38464263.066227719 -6965755.1283941418 198707.16822779179 0 198707.16822779179 -103364343.07032153 0 0 0 -38615534.369550362 -12008161.357489526 1096756.2208672762 0 1096756.2208672762 -100898976.38961679 0 0 0 -39517498.211487234 -13668586.603240252 387250.2139368956 0 387250.2139368956 -103463066.03595543 0 0 0 -40996078.423718333 -4768446.2144528627 -279241.16679371893 0 -279241.16679371893 -103524729.13129377 0 0 0 -37902611.371011376 -5115572.624516964 46172.012389183044 0 46172.012389183044 -103562008.75816798 0 0 0 -38037153.483939767 391038.79721665382 -977386.85565286875 0 -977386.85565286875 -92853062.735911846 0 0 0 -32361708.378543377 -42875596.84287326 -968337.62054659054 0 -968337.62054659054 -94573908.778185278 0 0 0 -48107326.967370495 -342544.14262831211 -1568932.4919058681 0 -1568932.4919058681 -95157299.811135054 0 0 0 -33424945.383817315 -38211527.581874654 -747396.18140693568 0 -747396.18140693568 -92079887.044879287 0 0 0 -45601995.119363874 2946604.3755660057 -218980.57754194736 0 -218980.57754194736 -100219704.20082331 0 0 0 -34045584.938839912 -268254.11669033766 1532621.7631405592 0 1532621.7631405592 -95120371.624948502 0 0 0 -33386019.009573638 2897503.3266060352 39537.307796955109 0 39537.307796955109 -100057956.81218433 0 0 0 -34006158.719952345 217887.91756421328 1124712.7483167052 0 1124712.7483167052 -94736540.056313396 0 0 0 -33081528.248562276 994075.85988986492 -1493429.761079073 0 -1493429.761079073 -100762529.41559899 0 0 0 -34918958.744498134 669337.67033672333 1734923.8121805787 0 1734923.8121805787 -100915733.62394571 0 0 0 -35086238.583763123 -9894031.0791351795 2892599.2629118413 0 2892599.2629118413 -102844239.36269832 0 0 0 -39458394.654641628 -14018090.847755417 -4286970.8041085005 0 -4286970.8041085005 -104404204.82684895 0 0 0 -41447803.486111566 -12215436.424581468 69990.096256643534 0 69990.096256643534 -100733936.54148 0 0 0 -39532280.538121462 1241854.0045545101 208346.07782018185 0 208346.07782018185 -101591843.67838097 0 0 0 -35122496.385839224 1282181.8491177559 291211.96075760294 0 291211.96075760294 -101279462.97919226 0 0 0 -34999048.395525694 -449598.92948072031 -1719460.8711683154 0 -1719460.8711683154 -101423286.72343357 0 0 0 -35655509.97852008 -825632.28097903728 -1690366.5310749412 0 -1690366.5310749412 -100816913.12288523 0 0 0 -35574890.891352415 -1182524.4454876781 1138543.0929097533 0 1138543.0929097533 -101216705.76697695 0 0 0 -35839730.574362695 -1328086.9017364699 1194537.0993859768 0 1194537.0993859768 -101602956.46523634 0 0 0 -36025865.17844066 -15491673.701193929 1028607.1245535132 0 1028607.1245535132 -100564334.75695825 0 0 0 -40619602.960353255 -20375986.820355356 235271.97122886032 0 235271.97122886032 -102519860.99414814 0 0 0 -43013546.735076249 -2751860.7542105913 -619361.30356800556 0 -619361.30356800556 -102858763.72129667 0 0 0 -36963718.566427469 1561027.0493299961 119697.53090947866 0 119697.53090947866 -101107478.41821909 0 0 0 -34841257.979111195 -894524.98687791824 1635921.3968877792 0 1635921.3968877792 -100470902.14148974 0 0 0 -35477899.494928479 -393860.68944597244 -1690527.1161117554 0 -1690527.1161117554 -100630521.01176071 0 0 0 -35358533.595422268 -20505242.582809448 1085759.8793278635 0 1085759.8793278635 -100536448.22818208 0 0 0 -42364591.783847034 -16777230.430131018 618391.37427088618 0 618391.37427088618 -102937840.73713923 0 0 0 -41900274.90854454 833898.19679188728 -1368565.4027008414 0 -1368565.4027008414 -101386361.67972589 0 0 0 -35193362.219026804 656420.47669649124 1859802.2530659437 0 1859802.2530659437 -100589970.58769846 0 0 0 -34976742.538850546 -6079956.3642045259 1966380.1284909546 0 1966380.1284909546 -103322710.68625879 0 0 0 -38290933.467662215 -13067042.464251578 -2711012.6428322792 0 -2711012.6428322792 -102576758.11874604 0 0 0 -40475330.20404911 -3052294.2530583143 -254586.357026577 0 -254586.357026577 -103337205.16754544 0 0 0 -37236324.797211409 -308692.07709646225 -567504.91190993786 0 -567504.91190993786 -96660676.999023914 0 0 0 -33939279.176641941 -40000451.035513431 8544671.7391366512 0 8544671.7391366512 -87253766.216834888 0 0 0 -44538976.038321912 2614688.7579302788 235868.31151211262 0 235868.31151211262 -100108544.77707815 0 0 0 -34122849.606701851 -657108.20157396793 468160.06290501356 0 468160.06290501356 -90898497.088258028 0 0 0 -32044461.851441264 1047516.9030284882 -1386338.0009004474 0 -1386338.0009004474 -100829075.27924156 0 0 0 -34923545.43167448 419693.19950258732 2050623.1011821032 0 2050623.1011821032 -99821367.861670971 0 0 0 -34790586.131759167 -4603425.5035784245 2219974.8420786858 0 2219974.8420786858 -102217795.67289138 0 0 0 -37387427.411764443 -17579114.930414647 -5893630.5852281004 0 -5893630.5852281004 -99229721.601094007 0 0 0 -40883092.786027938 781980.05666160583 397746.10608413815 0 397746.10608413815 -101826010.40300465 0 0 0 -35365410.621220112 -2076887.7377218492 658796.92953628302 0 658796.92953628302 -102601803.26278099 0 0 0 -36637541.850175902 -5976503.48202914 20178.481749594212 0 20178.481749594212 -103535809.68628395 0 0 0 -38329309.608909547 -485895.52249360085 941223.79519313574 0 941223.79519313574 -102415226.20566988 0 0 0 -36015392.604857445 2217715.9191288948 -668612.04535150528 0 -668612.04535150528 -100308397.24196196 0 0 0 -34331738.462991714 448060.97194576263 1776504.367200017 0 1776504.367200017 -96947659.853729248 0 0 0 -33774859.608623981 -393697.32964003086 -617005.2667400986 0 -617005.2667400986 -95173439.953490257 0 0 0 -33448498.049095511 -38738946.077933647 -6328542.1222561672 0 -6328542.1222561672 -99082426.871991694 0 0 0 -48237480.532473855 -120253.37165260315 1009171.7745711207 0 1009171.7745711207 -102596642.80048347 0 0 0 -35950913.660247684 
</DataArray>
</CellData>
</Piece>
</UnstructuredGrid>
</VTKFile>
