<?xml version="1.0"?>
<VTKFile type="UnstructuredGrid" version="0.1" byte_order="LittleEndian">
<UnstructuredGrid>
<Piece NumberOfPoints="84" NumberOfCells="28">
<Points>
<DataArray type="Float64" NumberOfComponents="3" format="ascii">
0 1 0 0.29166666666684449 0.7083333333334445 0 0.33333333333472032 1 0 0 0 0 0.29166666666652658 0.2916666666668038 0 0 0.33333333333472032 0 0 1 0 0 0.66666666666759111 0 0.29166666666684449 0.7083333333334445 0 0 0 0 0.33333333333250248 0 0 0.29166666666652658 0.2916666666668038 0 1 1 0 0.66666666666759111 1 0 0.70833333333346027 0.70833333333323512 0 1 1 0 0.70833333333346027 0.70833333333323512 0 1 0.66666666666578889 0 1 0 0 1 0.33333333333250248 0 0.70833333333327586 0.2916666666665107 0 1 0 0 0.70833333333327586 0.2916666666665107 0 0.66666666666578889 0 0 0.50000000000004996 0.49999999999997519 0 0.29166666666652658 0.2916666666668038 0 0.49999999999981742 0.1726190476194705 0 0.50000000000004996 0.49999999999997519 0 0.29166666666684449 0.7083333333334445 0 0.17261904761971569 0.50000000000021494 0 0.50000000000004996 0.49999999999997519 0 0.17261904761971569 0.50000000000021494 0 0.29166666666652658 0.2916666666668038 0 0.50000000000004996 0.49999999999997519 0 0.50000000000021227 0.82738095238030207 0 0.29166666666684449 0.7083333333334445 0 0.50000000000004996 0.49999999999997519 0 0.49999999999981742 0.1726190476194705 0 0.70833333333327586 0.2916666666665107 0 0.50000000000004996 0.49999999999997519 0 0.82738095238054699 0.49999999999982031 0 0.70833333333346027 0.70833333333323512 0 0.50000000000004996 0.49999999999997519 0 0.70833333333327586 0.2916666666665107 0 0.82738095238054699 0.49999999999982031 0 0.50000000000004996 0.49999999999997519 0 0.70833333333346027 0.70833333333323512 0 0.50000000000021227 0.82738095238030207 0 0.33333333333250248 0 0 0.66666666666578889 0 0 0.49999999999981742 0.1726190476194705 0 1 0.33333333333250248 0 1 0.66666666666578889 0 0.82738095238054699 0.49999999999982031 0 0 0.66666666666759111 0 0 0.33333333333472032 0 0.17261904761971569 0.50000000000021494 0 0.66666666666759111 1 0 0.33333333333472032 1 0 0.50000000000021227 0.82738095238030207 0 0 0.66666666666759111 0 0.17261904761971569 0.50000000000021494 0 0.29166666666684449 0.7083333333334445 0 0.66666666666759111 1 0 0.50000000000021227 0.82738095238030207 0 0.70833333333346027 0.70833333333323512 0 0.33333333333250248 0 0 0.49999999999981742 0.1726190476194705 0 0.29166666666652658 0.2916666666668038 0 1 0.33333333333250248 0 0.82738095238054699 0.49999999999982031 0 0.70833333333327586 0.2916666666665107 0 0 0.33333333333472032 0 0.29166666666652658 0.2916666666668038 0 0.17261904761971569 0.50000000000021494 0 0.33333333333472032 1 0 0.29166666666684449 0.7083333333334445 0 0.50000000000021227 0.82738095238030207 0 0.66666666666578889 0 0 0.70833333333327586 0.2916666666665107 0 0.49999999999981742 0.1726190476194705 0 1 0.66666666666578889 0 0.70833333333346027 0.70833333333323512 0 0.82738095238054699 0.49999999999982031 0 
</DataArray>
</Points>
<Cells>
<DataArray type="UInt32" Name="connectivity" format="ascii">
0 1 2 3 4 5 6 7 8 9 10 11 12 13 14 15 16 17 18 19 20 21 22 23 24 25 26 27 28 29 30 31 32 33 34 35 36 37 38 39 40 41 42 43 44 45 46 47 48 49 50 51 52 53 54 55 56 57 58 59 60 61 62 63 64 65 66 67 68 69 70 71 72 73 74 75 76 77 78 79 80 81 82 83 
</DataArray>
<DataArray type="UInt32" Name="offsets" format="ascii">
3 6 9 12 15 18 21 24 27 30 33 36 39 42 45 48 51 54 57 60 63 66 69 72 75 78 81 84 
</DataArray>
<DataArray type="UInt32" Name="types" format="ascii">
5 5 5 5 5 5 5 5 5 5 5 5 5 5 5 5 5 5 5 5 5 5 5 5 5 5 5 5 
</DataArray>
</Cells>
<PointData Scalars="" Vectors="displacement," Tensors="">
<DataArray type="Float64" Name="displacement" NumberOfComponents="3" format="ascii">
2.0644910941808136e-06 -0.94997632451311464 0 0.073484144688716932 -0.67373549798239296 0 0.084894835262131249 -0.95116556584361744 0 -5.3190425667054953e-07 -0.00030057637260538209 0 0.073007774796887581 -0.277662125364181 0 -2.5525180116153483e-07 -0.31706337384906746 0 2.0644910941808136e-06 -0.94997632451311464 0 -5.1104161770617702e-07 -0.63362908163682508 0 0.073484144688716932 -0.67373549798239296 0 -5.3190425667054953e-07 -0.00030057637260538209 0 0.083361124151566574 -0.00030055491982346931 0 0.073007774796887595 -0.277662125364181 0 0.2495723482459217 -0.95697839858867495 0 0.16847211482269459 -0.95415274377686776 0 0.17694826503716082 -0.67594256188310453 0 0.2495723482459217 -0.95697839858867495 0 0.17694826503716082 -0.67594256188310453 0 0.24741800072988807 -0.63779960602972419 0 0.24659246570039295 -0.00029894568384894568 0 0.24660392112558807 -0.31881401679472821 0 0.17609535570070955 -0.27852106995674358 0 0.24659246570039295 -0.00029894568384894568 0 0.17609535570070955 -0.27852106995674358 0 0.16577346049087241 -0.0002996840519494714 0 0.12504319954418774 -0.47638465818959636 0 0.073007774796887595 -0.27766212536418095 0 0.12473565775161559 -0.16467910581375217 0 0.12504319954418774 -0.47638465818959636 0 0.073484144688716932 -0.67373549798239296 0 0.043351849213034817 -0.47549620590636554 0 0.12504319954418774 -0.47638465818959636 0 0.043351849213034817 -0.47549620590636554 0 0.073007774796887595 -0.277662125364181 0 0.12504319954418774 -0.47638465818959636 0 0.12591725192962946 -0.78812138533141018 0 0.073484144688716932 -0.67373549798239296 0 0.12504319954418774 -0.47638465818959636 0 0.12473565775161559 -0.16467910581375217 0 0.17609535570070955 -0.27852106995674358 0 0.12504319954418774 -0.47638465818959636 0 0.20536075399964168 -0.47765922870698863 0 0.17694826503716082 -0.67594256188310453 0 0.12504319954418774 -0.47638465818959636 0 0.17609535570070955 -0.27852106995674358 0 0.20536075399964168 -0.47765922870698863 0 0.12504319954418774 -0.47638465818959636 0 0.17694826503716082 -0.67594256188310453 0 0.12591725192962946 -0.78812138533141018 0 0.083361124151566574 -0.00030055491982342405 0 0.16577346049087241 -0.0002996840519494714 0 0.12473565775161559 -0.16467910581375217 0 0.24660392112558807 -0.31881401679472821 0 0.24741800072988807 -0.63779960602972419 0 0.20536075399964168 -0.47765922870698863 0 -5.1104161770617702e-07 -0.63362908163682508 0 -2.5525180116153483e-07 -0.31706337384906746 0 0.043351849213034817 -0.47549620590636554 0 0.16847211482269459 -0.95415274377686776 0 0.084894835262131249 -0.95116556584361744 0 0.12591725192962946 -0.78812138533141018 0 -5.1104161770617702e-07 -0.63362908163682508 0 0.043351849213034817 -0.47549620590636554 0 0.073484144688716932 -0.67373549798239296 0 0.16847211482269459 -0.95415274377686776 0 0.12591725192962946 -0.78812138533141018 0 0.17694826503716082 -0.67594256188310453 0 0.083361124151566574 -0.00030055491982342405 0 0.12473565775161559 -0.16467910581375217 0 0.073007774796887595 -0.277662125364181 0 0.24660392112558807 -0.31881401679472821 0 0.20536075399964168 -0.47765922870698863 0 0.17609535570070955 -0.27852106995674358 0 -2.5525180116153483e-07 -0.31706337384906746 0 0.073007774796887595 -0.277662125364181 0 0.043351849213034817 -0.47549620590636554 0 0.084894835262131249 -0.95116556584361744 0 0.073484144688716932 -0.67373549798239296 0 0.12591725192962946 -0.78812138533141018 0 0.16577346049087241 -0.0002996840519494714 0 0.17609535570070955 -0.27852106995674358 0 0.12473565775161559 -0.16467910581375217 0 0.24741800072988807 -0.63779960602972419 0 0.17694826503716082 -0.67594256188310453 0 0.20536075399964168 -0.47765922870698863 0 
</DataArray>
</PointData>
<CellData Scalars="displacement_divergence," Vectors="" Tensors="stress,">
<DataArray type="Float64" Name="stress" NumberOfComponents="9" format="ascii">
0.018898366668932964 -0.00034498848202080268 0 -0.00034498848202080268 -0.98556616795781604 0 0 0 -0.19333356025777659 0.014156962600354206 -0.00027694161399410833 0 -0.00027694161399410833 -0.98634450145973696 0 0 0 -0.19443750777187654 0.01631761679741181 -0.00080108199367212585 0 -0.00080108199367212585 -0.98450572979179329 0 0 0 -0.19363762259887632 0.013718312793789766 9.55377476232471e-05 0 9.55377476232471e-05 -0.98714744952522904 0 0 0 -0.19468582734628787 0.0050356459399454323 -0.0011586699958105048 0 -0.0011586699958105048 -0.99361033403336885 0 0 0 -0.19771493761868475 0.0034996886102094393 0.00018665837056264234 0 0.00018665837056264234 -0.99655880459154256 0 0 0 -0.19861182319626658 0.0031693778706163088 -0.00066934207517777011 0 -0.00066934207517777011 -0.99456725275632463 0 0 0 -0.19827957497714169 0.0044238476491633618 0.00031452232937543022 0 0.00031452232937543022 -0.99254217451969284 0 0 0 -0.19762366537410592 0.012001048733918968 -0.0003374912545033304 0 -0.0003374912545033304 -0.98879013174101582 0 0 0 -0.19535781660141935 0.013367200675521829 -0.00027805765010924244 0 -0.00027805765010924244 -0.98623929242364627 0 0 0 -0.19457441834962491 0.01304595323388702 -0.0010307174697442175 0 -0.0010307174697442175 -0.98752428219017974 0 0 0 -0.19489566579125855 0.013444217022613076 -0.00094172465085629042 0 -0.00094172465085629042 -0.98852853210655611 0 0 0 -0.19501686301678864 0.0088445059932931724 -0.00059756427750501384 0 -0.00059756427750501384 -0.98957926742617153 0 0 0 -0.19614695228657569 0.0075971609393079564 -3.4391707137548126e-05 0 -3.4391707137548126e-05 -0.99183477658633867 0 0 0 -0.19684752312940612 0.0076933406755207434 -0.0015041509374295048 0 -0.0015041509374295048 -0.99145005764148031 0 0 0 -0.19675134339319192 0.0093566454426465828 -0.0012475425335765067 0 -0.0012475425335765067 -0.98955042500154744 0 0 0 -0.19603875591178022 0.010189878765025584 0.00040748789918971314 0 0.00040748789918971314 -0.98939468918136508 0 0 0 -0.1958409620832679 0.0022719616108006248 -0.00054553116399413959 0 -0.00054553116399413959 -0.99626197595680277 0 0 0 -0.19879800286920041 0.015244095479523545 -0.00036233599595503208 0 -0.00036233599595503208 -0.98545681296823462 0 0 0 -0.19404254349774219 0.013817509720096988 -0.0018844683518065182 0 -0.0018844683518065182 -0.98944595562810278 0 0 0 -0.19512568918160134 0.015779275381176294 -0.00041156283912724412 0 -0.00041156283912724412 -0.98623262391064004 0 0 0 -0.19409066970589267 0.011018724437629301 -0.00030619798404118992 0 -0.00030619798404118992 -0.99192360801685941 0 0 0 -0.19618097671584611 0.011662912060672687 -0.00050379989496868172 0 -0.00050379989496868172 -0.98783691961738951 0 0 0 -0.19523480151134337 0.0029587308183190442 0.0003354302246368901 0 0.0003354302246368901 -0.99391707751659464 0 0 0 -0.19819166933965515 0.014367801883807596 5.4461355132845446e-05 0 5.4461355132845446e-05 -0.98594638029453896 0 0 0 -0.19431571568214623 0.013472077323571668 -0.0010650979350326217 0 -0.0010650979350326217 -0.98655988774667602 0 0 0 -0.1946175620846208 0.0088857606985908374 -0.0005368923662668057 0 -0.0005368923662668057 -0.99120686623292442 0 0 0 -0.1964642211068667 0.00347226955437685 -0.0015909832312313577 0 -0.0015909832312313577 -0.99391240023062943 0 0 0 -0.19808802613525056 
</DataArray>
<DataArray type="Float64" Name="displacement_divergence" format="ascii">
-0.6960008169279952 -0.69997502797875555 -0.69709544135595503 -0.70086897844663643 -0.7117737754272655 -0.71500256350655955 -0.71380646991771002 -0.7114451953467813 -0.70328813976510995 -0.70046790605864939 -0.70162439684853073 -0.70206070686043909 -0.70612902823167223 -0.7086510832658619 -0.70830483621549067 -0.70573952128240847 -0.70502746349976431 -0.71567281032912144 -0.69855315659187167 -0.70245248105376401 -0.69872641094121368 -0.70625151617704596 -0.70284528544083624 -0.71349000962275844 -0.69953657645572642 -0.70062322350463502 -0.70727119598472021 -0.71311689408690171 
</DataArray>
</CellData>
</Piece>
</UnstructuredGrid>
</VTKFile>
