<?xml version="1.0"?>
<VTKFile type="UnstructuredGrid" version="0.1" byte_order="LittleEndian">
<UnstructuredGrid>
<Piece NumberOfPoints="3162" NumberOfCells="1054">
<Points>
<DataArray type="Float64" NumberOfComponents="3" format="ascii">
0.39507969989512881 0.74417394063201048 0 0.42715538333808079 0.70077759375307946 0 0.44764943295894188 0.73752415265401661 0 0.74417394063200648 0.6049203001048884 0 0.70087539567735502 0.57165914616526226 0 0.73752415265401194 0.55235056704108476 0 0.25582605936799319 0.39507969989513358 0 0.2963043386970643 0.4298320229681446 0 0.26247584734598628 0.44764943295894732 0 0.60492030010488373 0.25582605936799729 0 0.57188338999077359 0.29874123486230147 0 0.55175647814720108 0.26104505532086641 0 0.56566515596461675 0.63670464971409091 0 0.61233489393901674 0.60846740003560018 0 0.60879112811253555 0.66592422311595834 0 0.6519524273377173 0.64249931920594539 0 0.60879112811253555 0.66592422311595834 0 0.61233489393901674 0.60846740003560018 0 0.640156794425081 0.43301393728221721 0 0.60122390529523662 0.39097801071820221 0 0.66346942254826746 0.391530810754116 0 0.6424993192059415 0.3480475726622802 0 0.66346942254826746 0.391530810754116 0 0.60122390529523662 0.39097801071820221 0 0.74198804864688339 0.90892718720327403 0 0.77688977118331393 0.94706199857866258 0 0.71789175274016548 0.95136708251202151 0 0.091072812796719582 0.74198804864687795 0 0.052938001421335763 0.77688977118331159 0 0.04863291748797445 0.71789175274016204 0 0.89586000931544074 0.25714619498770419 0 0.94465622530468663 0.23167460333446291 0 0.94915666091748963 0.28320804985299752 0 0.25714619498771307 0.1041399906845497 0 0.23167460333446299 0.05534377469531044 0 0.28320804985300141 0.050843339082505573 0 0.89999999999958358 1 0 0.84999999999965292 1 0 0.90554214442080472 0.95994154153067524 0 0 0.89999999999958358 0 0 0.84999999999965292 0 0.040058458469322648 0.90554214442079806 0 0.040058458469319477 0.094457855579157729 0 0 0.15000000000062411 0 0 0.10000000000041601 0 0.094457855579188163 0.95994154153068711 0 0.15000000000062411 1 0 0.10000000000041601 1 0 0.90554214442081604 0.040058458469347469 0 0.84999999999960507 0 0 0.89999999999973679 0 0 0.95994154153065969 0.90554214442078618 0 1 0.84999999999960507 0 1 0.89999999999973679 0 1 0.099999999999814668 0 1 0.14999999999970359 0 0.95994154153057998 0.094457855579277675 0 0.099999999999814668 0 0 0.14999999999970359 0 0 0.094457855579284614 0.040058458469418363 0 1 0.19999999999955789 0 0.94465622530468663 0.23167460333446291 0 0.96080966346491015 0.18035159017841959 0 0.19999999999955789 0 0 0.23167460333446299 0.05534377469531044 0 0.18035159017842109 0.039190336535090492 0 0.79999999999999982 1 0 0.77688977118331393 0.94706199857866258 0 0.82675923981951416 0.95611053755456221 0 0 0.79999999999999982 0 0.052938001421335763 0.77688977118331159 0 0.043889462445437968 0.82675923981951283 0 1 0.79999999999947335 0 0.96071093996985157 0.81954008780615684 0 0.9442075111696665 0.76777356182390766 0 0.79999999999947335 0 0 0.82050174006822896 0.038839999600956771 0 0.76543419162344684 0.056452228708420968 0 0.20000000000083221 1 0 0.18045991219397989 0.960710939969875 0 0.23222643817617661 0.94420751116970569 0 0 0.20000000000083221 0 0.038839999600931263 0.17949825993190149 0 0.056452228708379938 0.23456580837661581 0 0.50000000000002642 0.7803135888501761 0 0.53770425635794761 0.80104587463999666 0 0.49771727055908782 0.83998685797641781 0 0.2196864111498267 0.50000000000003153 0 0.1989632851005598 0.53769147668950479 0 0.16001314202358469 0.49771727055909287 0 0.78031358885017377 0.49999999999997569 0 0.80106707846564795 0.46230714888029367 0 0.83998574657308889 0.50228528270184081 0 0.49999999999997108 0.21968641114982909 0 0.46229330881044273 0.19890916456654811 0 0.50228272944093777 0.16001314202359701 0 0.79999999999999982 1 0 0.75000000000034661 1 0 0.77688977118331393 0.94706199857866258 0 0 0.79999999999999982 0 0 0.75000000000034661 0 0.052938001421335763 0.77688977118331159 0 1 0.19999999999955789 0 1 0.24999999999941211 0 0.94465622530468663 0.23167460333446291 0 0.19999999999955789 0 0 0.24999999999941211 0 0 0.23167460333446299 0.05534377469531044 0 1 0.74999999999934175 0 1 0.79999999999947335 0 0.9442075111696665 0.76777356182390766 0 0.74999999999934175 0 0 0.79999999999947335 0 0 0.76543419162344684 0.056452228708420968 0 0.25000000000104028 1 0 0.20000000000083221 1 0 0.23222643817617661 0.94420751116970569 0 0 0.25000000000104028 0 0 0.20000000000083221 0 0.056452228708379938 0.23456580837661581 0 1 0.74999999999934175 0 0.9442075111696665 0.76777356182390766 0 0.94635952848698612 0.71209247961721311 0 0.74999999999934175 0 0 0.76543419162344684 0.056452228708420968 0 0.71174922810186925 0.053730171687687178 0 0.25000000000104028 1 0 0.23222643817617661 0.94420751116970569 0 0.28790752038294382 0.94635952848702642 0 0 0.25000000000104028 0 0.056452228708379938 0.23456580837661581 0 0.053730171687646627 0.28825077189828552 0 0.8289812646369813 0.82898126463698818 0 0.87660297360393757 0.8104127896505644 0 0.88962265630811221 0.85311725681459705 0 0.17101873536300011 0.82898126463696109 0 0.18958721034944021 0.87660297360394568 0 0.14688274318541941 0.88962265630811932 0 0.39507969989512881 0.74417394063201048 0 0.44764943295894188 0.73752415265401661 0 0.43306783640023289 0.78031198216144404 0 0.74417394063200648 0.6049203001048884 0 0.73752415265401194 0.55235056704108476 0 0.78031198216143516 0.56693216359979737 0 0.25582605936799319 0.39507969989513358 0 0.26247584734598628 0.44764943295894732 0 0.21968801783855879 0.43306783640023788 0 0.60492030010488373 0.25582605936799729 0 0.55175647814720108 0.26104505532086641 0 0.56683314878414581 0.21944955250104689 0 0.90554214442080472 0.95994154153067524 0 0.84999999999965292 1 0 0.86696410734367158 0.94753096683315619 0 0.040058458469322648 0.90554214442079806 0 0 0.84999999999965292 0 0.052469033166843738 0.86696410734366991 0 0.054872692726595548 0.13410685639845171 0 0 0.15000000000062411 0 0.040058458469319477 0.094457855579157729 0 0.13834721989462789 0.94095916274077984 0 0.15000000000062411 1 0 0.094457855579188163 0.95994154153068711 0 0.86589314360155567 0.054872692726639853 0 0.84999999999960507 0 0 0.90554214442081604 0.040058458469347469 0 0.94095916274074942 0.86165278010542579 0 1 0.84999999999960507 0 0.95994154153065969 0.90554214442078618 0 0.95994154153057998 0.094457855579277675 0 1 0.14999999999970359 0 0.94100406608115506 0.1383574446607955 0 0.094457855579284614 0.040058458469418363 0 0.14999999999970359 0 0 0.1383574446607988 0.058995933918849157 0 0.1104775404132264 0.2631175359816938 0 0.099694771212264055 0.22074048840547039 0 0.15899695163321451 0.22783674912227669 0 0.73688246401832591 0.11047754041323141 0 0.77925951159456153 0.09969477121230251 0 0.77216325087772952 0.15899695163319821 0 0.88949062093135778 0.73694585442531257 0 0.9041449437197947 0.7786886066890556 0 0.839908789927305 0.77106070975262608 0 0.26305414557470391 0.88949062093136155 0 0.22131139331094829 0.9041449437198319 0 0.22893929024737289 0.83990878992727813 0 0.74198804864688339 0.90892718720327403 0 0.71789175274016548 0.95136708251202151 0 0.70475631558365914 0.90098127745102974 0 0.091072812796719582 0.74198804864687795 0 0.04863291748797445 0.71789175274016204 0 0.099018722548963364 0.70475631558365193 0 0.89586000931544074 0.25714619498770419 0 0.94915666091748963 0.28320804985299752 0 0.89886191075654698 0.29506339503703172 0 0.25714619498771307 0.1041399906845497 0 0.28320804985300141 0.050843339082505573 0 0.29506339503703888 0.1011380892434444 0 0.65773042910151891 0.073296788161472337 0 0.62160809078275991 0.1093532031139005 0 0.6048537357103756 0.060530514380187868 0 0.92670321183853355 0.65773042910151081 0 0.89064679688610338 0.6216080907827598 0 0.93946948561981514 0.60485373571037115 0 0.073296788161418117 0.34226957089850552 0 0.10935320311385981 0.37839190921727089 0 0.06053051438015096 0.39514626428972788 0 0.3422695708985129 0.92670321183858773 0 0.37839190921727062 0.89064679688614412 0 0.39514626428973221 0.93946948561985189 0 0.49771727055908782 0.83998685797641781 0 0.53770425635794761 0.80104587463999666 0 0.54047998161173716 0.84333512669480526 0 0.16001314202358469 0.49771727055909287 0 0.1989632851005598 0.53769147668950479 0 0.1566648733051971 0.54047998161174216 0 0.83998574657308889 0.50228528270184081 0 0.80106707846564795 0.46230714888029367 0 0.84333218736938698 0.4595365182652234 0 0.50228272944093777 0.16001314202359701 0 0.46229330881044273 0.19890916456654811 0 0.45952001838826873 0.15666487330524251 0 0.8289812646369813 0.82898126463698818 0 0.88962265630811221 0.85311725681459705 0 0.85174853583809862 0.87705234031428159 0 0.17101873536300011 0.82898126463696109 0 0.14688274318541941 0.88962265630811932 0 0.1229476596857173 0.85174853583809695 0 0.83199780613337848 0.1690131600686714 0 0.8517485358380722 0.12294765968568611 0 0.88777909259956078 0.1484760565886154 0 0.16901316006868169 0.16800219386663079 0 0.12294765968567151 0.14825146416195439 0 0.1484760565886207 0.1122209074004519 0 0.15899695163321451 0.22783674912227669 0 0.099694771212264055 0.22074048840547039 0 0.12587517708284679 0.1889683322666954 0 0.77216325087772952 0.15899695163319821 0 0.77925951159456153 0.09969477121230251 0 0.8110316677333288 0.125875177082863 0 0.83199780613337848 0.1690131600686714 0 0.88777909259956078 0.1484760565886154 0 0.87355793346388477 0.18922011052113649 0 0.16901316006868169 0.16800219386663079 0 0.1484760565886207 0.1122209074004519 0 0.18922011052115781 0.12644206653611201 0 0.32191828326940508 0.76395804595204586 0 0.34270280102445921 0.71672416762035873 0 0.35837423432538362 0.77730446904312345 0 0.76395804595204597 0.67808171673060369 0 0.71518943060973483 0.65679402931717101 0 0.77730446904309636 0.64162576567462737 0 0.2360419540479583 0.32191828326940741 0 0.28473805236128291 0.34355768118673757 0 0.22269553095687891 0.35837423432538801 0 0.67808171673060202 0.23604195404795861 0 0.65679402931716913 0.28481056939027388 0 0.64162576567462404 0.22269553095690481 0 0.26305414557470391 0.88949062093136155 0 0.28790752038294382 0.94635952848702642 0 0.23222643817617661 0.94420751116970569 0 0.1104775404132264 0.2631175359816938 0 0.053730171687646627 0.28825077189828552 0 0.056452228708379938 0.23456580837661581 0 0.88949062093135778 0.73694585442531257 0 0.94635952848698612 0.71209247961721311 0 0.9442075111696665 0.76777356182390766 0 0.73688246401832591 0.11047754041323141 0 0.71174922810186925 0.053730171687687178 0 0.76543419162344684 0.056452228708420968 0 0.22893929024737289 0.83990878992727813 0 0.22131139331094829 0.9041449437198319 0 0.18958721034944021 0.87660297360394568 0 0.839908789927305 0.77106070975262608 0 0.9041449437197947 0.7786886066890556 0 0.87660297360393757 0.8104127896505644 0 0.35837423432538362 0.77730446904312345 0 0.34270280102445921 0.71672416762035873 0 0.39507969989512881 0.74417394063201048 0 0.77730446904309636 0.64162576567462737 0 0.71518943060973483 0.65679402931717101 0 0.74417394063200648 0.6049203001048884 0 0.22269553095687891 0.35837423432538801 0 0.28473805236128291 0.34355768118673757 0 0.25582605936799319 0.39507969989513358 0 0.64162576567462404 0.22269553095690481 0 0.65679402931716913 0.28481056939027388 0 0.60492030010488373 0.25582605936799729 0 0.57484409313590223 0.58437321637184114 0 0.53542397956703913 0.60119875982347493 0 0.53087311892591971 0.55299263141448529 0 1 0.59999999999894682 0 0.93946948561981514 0.60485373571037115 0 0.95638719633882641 0.5599388881718611 0 0.59999999999894682 0 0 0.6048537357103756 0.060530514380187868 0 0.55993888817186677 0.043612803661174412 0 0.40000000000166441 1 0 0.39514626428973221 0.93946948561985189 0 0.44006111182840962 0.9563871963389079 0 0 0.40000000000166441 0 0.06053051438015096 0.39514626428972788 0 0.043612803661092707 0.44006111182840391 0 0.43590673999053309 0.90289902042279657 0 0.48669777060454272 0.93510666819646593 0 0.44006111182840962 0.9563871963389079 0 0.097100979577207341 0.43590673999053198 0 0.064893331803534807 0.48669777060454478 0 0.043612803661092707 0.44006111182840391 0 0.90289902042272274 0.56409326000946114 0 0.93510666819640953 0.51330222939551939 0 0.95638719633882641 0.5599388881718611 0 0.56409326000946236 0.097100979577281268 0 0.5133022293955174 0.064893331803591428 0 0.55993888817186677 0.043612803661174412 0 0.57387636360620708 0.54318431390135336 0 0.57484409313590223 0.58437321637184114 0 0.53087311892591971 0.55299263141448529 0 1 0.69999999999921003 0 1 0.74999999999934175 0 0.94635952848698612 0.71209247961721311 0 0.69999999999921003 0 0 0.74999999999934175 0 0 0.71174922810186925 0.053730171687687178 0 0.30000000000124832 1 0 0.25000000000104028 1 0 0.28790752038294382 0.94635952848702642 0 0 0.30000000000124832 0 0 0.25000000000104028 0 0.053730171687646627 0.28825077189828552 0 0.90289902042272274 0.56409326000946114 0 0.85130417396420255 0.59518556406638579 0 0.85551478316835361 0.54646211938695222 0 0.43590673999053309 0.90289902042279657 0 0.40481452396081791 0.85130421228141606 0 0.45353891581270822 0.85551523377818905 0 0.56409326000946236 0.097100979577281268 0 0.59518547603920147 0.14869578771864489 0 0.54646108418729233 0.1444847662218687 0 0.097100979577207341 0.43590673999053198 0 0.14869578771858949 0.40481452396082068 0 0.1444847662218138 0.45353891581271188 0 0.90289902042272274 0.56409326000946114 0 0.89064679688610338 0.6216080907827598 0 0.85130417396420255 0.59518556406638579 0 0.56409326000946236 0.097100979577281268 0 0.62160809078275991 0.1093532031139005 0 0.59518547603920147 0.14869578771864489 0 0.43590673999053309 0.90289902042279657 0 0.37839190921727062 0.89064679688614412 0 0.40481452396081791 0.85130421228141606 0 0.097100979577207341 0.43590673999053198 0 0.10935320311385981 0.37839190921727089 0 0.14869578771858949 0.40481452396082068 0 0.74417394063200648 0.6049203001048884 0 0.69288637798153729 0.61204665218001397 0 0.70087539567735502 0.57165914616526226 0 0.39507969989512881 0.74417394063201048 0 0.38642358467307758 0.69286258923597266 0 0.42715538333808079 0.70077759375307946 0 0.60492030010488373 0.25582605936799729 0 0.61204665218000809 0.30711362201846659 0 0.57188338999077359 0.29874123486230147 0 0.25582605936799319 0.39507969989513358 0 0.30597655500381687 0.3934681685211931 0 0.2963043386970643 0.4298320229681446 0 0.51484304721220842 0.69707233951836334 0 0.57051182622447827 0.69668652018496713 0 0.54465502325161819 0.74717983044080061 0 0.30292766048163949 0.51484304721221474 0 0.30429740679959738 0.56913905146460098 0 0.25287139441262568 0.54458355434492378 0 0.70015119067225129 0.48481914991727459 0 0.69595787604187809 0.43071000156707989 0 0.74730218607442667 0.45539100053644521 0 0.48378871228000903 0.29745177826977359 0 0.43059486795334201 0.30395973419063538 0 0.45533136021725079 0.2525687312087147 0 0.91838802593870927 0.18172590289757809 0 0.96080966346491015 0.18035159017841959 0 0.94465622530468663 0.23167460333446291 0 0.18172590289758209 0.08161197406129285 0 0.18035159017842109 0.039190336535090492 0 0.23167460333446299 0.05534377469531044 0 0.81709574086843206 0.91318696080656769 0 0.82675923981951416 0.95611053755456221 0 0.77688977118331393 0.94706199857866258 0 0.086813039193431391 0.81709574086842884 0 0.043889462445437968 0.82675923981951283 0 0.052938001421335763 0.77688977118331159 0 0.91838802593884228 0.81827409710237209 0 0.9442075111696665 0.76777356182390766 0 0.96071093996985157 0.81954008780615684 0 0.82118136511706341 0.082875076569723011 0 0.76543419162344684 0.056452228708420968 0 0.82050174006822896 0.038839999600956771 0 0.1817259028976386 0.91838802593888857 0 0.23222643817617661 0.94420751116970569 0 0.18045991219397989 0.960710939969875 0 0.08287507656968085 0.1788186348829835 0 0.056452228708379938 0.23456580837661581 0 0.038839999600931263 0.17949825993190149 0 0.59819537371016407 0.74380966024143391 0 0.54465502325161819 0.74717983044080061 0 0.57051182622447827 0.69668652018496713 0 0.25619033975856881 0.59819537371016862 0 0.25287139441262568 0.54458355434492378 0 0.30429740679959738 0.56913905146460098 0 0.74380966024142703 0.40180462628984132 0 0.74730218607442667 0.45539100053644521 0 0.69595787604187809 0.43071000156707989 0 0.40180462628983732 0.2561903397585753 0 0.45533136021725079 0.2525687312087147 0 0.43059486795334201 0.30395973419063538 0 0.8312019486901514 0.72745002167959472 0 0.77998481823117694 0.71397317153691997 0 0.80847852346122429 0.67208120229789559 0 0.27254997832041528 0.8312019486901443 0 0.28602682846308641 0.77998481823117594 0 0.32791879770213411 0.80847852346120164 0 0.72767516840721058 0.16853767177393791 0 0.71397317153692708 0.22001518176882201 0 0.67208120229787616 0.1915214765387884 0 0.1685376717739448 0.27232483159280108 0 0.22001518176882229 0.28602682846307981 0 0.19152147653881049 0.32791879770215432 0 0.85607519768343354 0.69380468830529196 0 0.8312019486901514 0.72745002167959472 0 0.80847852346122429 0.67208120229789559 0 0.69379929796456197 0.14392209494791061 0 0.72767516840721058 0.16853767177393791 0 0.67208120229787616 0.1915214765387884 0 0.30619531169472608 0.85607519768342955 0 0.27254997832041528 0.8312019486901443 0 0.32791879770213411 0.80847852346120164 0 0.14392209494791439 0.30620070203545702 0 0.1685376717739448 0.27232483159280108 0 0.19152147653881049 0.32791879770215432 0 0.6519524273377173 0.64249931920594539 0 0.69288637798153729 0.61204665218001397 0 0.71518943060973483 0.65679402931717101 0 0.35944937237716967 0.65164789808436319 0 0.38642358467307758 0.69286258923597266 0 0.34270280102445921 0.71672416762035873 0 0.6424993192059415 0.3480475726622802 0 0.61204665218000809 0.30711362201846659 0 0.65679402931716913 0.28481056939027388 0 0.34804757266227387 0.35750068079406011 0 0.30597655500381687 0.3934681685211931 0 0.28473805236128291 0.34355768118673757 0 0.66919832404887702 0.81820888699730587 0 0.66923299355723143 0.8804077449518628 0 0.63969251517836323 0.84598529912890386 0 0.70085728320704077 0.84350379029875056 0 0.66923299355723143 0.8804077449518628 0 0.66919832404887702 0.81820888699730587 0 0.1817911130026923 0.66919832404888702 0 0.1195922550481313 0.66923299355722787 0 0.1540147008710982 0.63969251517836956 0 0.1564962097012354 0.70085728320703999 0 0.1195922550481313 0.66923299355722787 0 0.1817911130026923 0.66919832404888702 0 0.8182088869973061 0.33080167595111531 0 0.88040774495187946 0.33076700644278889 0 0.84598529912889664 0.36030748482164038 0 0.84350379029877964 0.29914271679296989 0 0.88040774495187946 0.33076700644278889 0 0.8182088869973061 0.33080167595111531 0 0.33080167595110582 0.18179111300269291 0 0.33076700644279272 0.1195922550481146 0 0.3603074848216346 0.15401470087110539 0 0.29914271679297122 0.15649620970120659 0 0.33076700644279272 0.1195922550481146 0 0.33080167595110582 0.18179111300269291 0 0.49189101320880302 0.59024331187324797 0 0.51172471858873747 0.64015771271794875 0 0.45517457031814612 0.62743100079604397 0 0.54901591374940373 0.42306523525165751 0 0.5047849391802508 0.40719950955717021 0 0.54715635490880632 0.37829016026862072 0 0.43590673999053309 0.90289902042279657 0 0.48758069708049379 0.89080072540186539 0 0.48669777060454272 0.93510666819646593 0 0.097100979577207341 0.43590673999053198 0 0.1091992745981364 0.48758069708049778 0 0.064893331803534807 0.48669777060454478 0 0.90289902042272274 0.56409326000946114 0 0.89079805168298443 0.51242544533572376 0 0.93510666819640953 0.51330222939551939 0 0.56409326000946236 0.097100979577281268 0 0.51241930291950477 0.1091992745981813 0 0.5133022293955174 0.064893331803591428 0 0.49189101320880302 0.59024331187324797 0 0.53542397956703913 0.60119875982347493 0 0.51172471858873747 0.64015771271794875 0 0.56566515596461675 0.63670464971409091 0 0.51172471858873747 0.64015771271794875 0 0.53542397956703913 0.60119875982347493 0 0.65773042910151891 0.073296788161472337 0 0.66251865414987876 0.1160340021949529 0 0.62160809078275991 0.1093532031139005 0 0.92670321183853355 0.65773042910151081 0 0.88396545633132484 0.6625197322180193 0 0.89064679688610338 0.6216080907827598 0 0.3422695708985129 0.92670321183858773 0 0.33748026778199908 0.88396545633134682 0 0.37839190921727062 0.89064679688614412 0 0.073296788161418117 0.34226957089850552 0 0.11603400219493119 0.33748134585014028 0 0.10935320311385981 0.37839190921727089 0 0.8289812646369813 0.82898126463698818 0 0.79422489417873421 0.79640925234634441 0 0.839908789927305 0.77106070975262608 0 0.17101873536300011 0.82898126463696109 0 0.20359074765364421 0.79422489417871855 0 0.22893929024737289 0.83990878992727813 0 0.83199780613337848 0.1690131600686714 0 0.80027482104603809 0.20596721135052129 0 0.77216325087772952 0.15899695163319821 0 0.16901316006868169 0.16800219386663079 0 0.20596721135052939 0.19972517895396219 0 0.15899695163321451 0.22783674912227669 0 0.84598529912884157 0.63969251517827153 0 0.80847852346122429 0.67208120229789559 0 0.8028306815476034 0.61296984760642026 0 0.36030748482174152 0.84598529912882459 0 0.32791879770213411 0.80847852346120164 0 0.38703015239361932 0.80283068154761972 0 0.63969251517826664 0.15401470087115929 0 0.67208120229787616 0.1915214765387884 0 0.61296984760641449 0.19716931845240021 0 0.15401470087117619 0.36030748482174652 0 0.19152147653881049 0.32791879770215432 0 0.197169318452384 0.38703015239362498 0 0.61233489393901674 0.60846740003560018 0 0.61866949026800744 0.55492322767366287 0 0.65501639383771026 0.594528181397324 0 0.74198804864688339 0.90892718720327403 0 0.78020430794084783 0.88768307197553598 0 0.77688977118331393 0.94706199857866258 0 0.091072812796719582 0.74198804864687795 0 0.11231692802445629 0.78020430794084028 0 0.052938001421335763 0.77688977118331159 0 0.81709574086843206 0.91318696080656769 0 0.77688977118331393 0.94706199857866258 0 0.78020430794084783 0.88768307197553598 0 0.086813039193431391 0.81709574086842884 0 0.052938001421335763 0.77688977118331159 0 0.11231692802445629 0.78020430794084028 0 0.73982803480991577 0.79629608696991705 0 0.79422489417873421 0.79640925234634441 0 0.78284912262770068 0.83746308049763585 0 0.8289812646369813 0.82898126463698818 0 0.78284912262770068 0.83746308049763585 0 0.79422489417873421 0.79640925234634441 0 0.20370391303007401 0.73982803480989479 0 0.20359074765364421 0.79422489417871855 0 0.16253691950235041 0.78284912262768558 0 0.17101873536300011 0.82898126463696109 0 0.16253691950235041 0.78284912262768558 0 0.20359074765364421 0.79422489417871855 0 0.79629608696994103 0.26017196519011448 0 0.80027482104603809 0.20596721135052129 0 0.84534053180161173 0.2262639405833009 0 0.83199780613337848 0.1690131600686714 0 0.84534053180161173 0.2262639405833009 0 0.80027482104603809 0.20596721135052129 0 0.26017196519013502 0.20370391303005 0 0.20596721135052939 0.19972517895396219 0 0.22626394058331961 0.15465946819838111 0 0.16901316006868169 0.16800219386663079 0 0.22626394058331961 0.15465946819838111 0 0.20596721135052939 0.19972517895396219 0 0.90045039720880915 0.9020090423547924 0 0.94156647488775558 0.94156647488774259 0 0.90554214442080472 0.95994154153067524 0 0.90082758526900886 0.098076845682916511 0 0.94156647488778256 0.058433525112256718 0 0.95994154153057998 0.094457855579277675 0 0.90082758526900886 0.098076845682916511 0 0.90554214442081604 0.040058458469347469 0 0.94156647488778256 0.058433525112256718 0 0.097990957645208238 0.90045039720880915 0 0.058433525112254137 0.94156647488774581 0 0.040058458469322648 0.90554214442079806 0 0.90045039720880915 0.9020090423547924 0 0.95994154153065969 0.90554214442078618 0 0.94156647488775558 0.94156647488774259 0 0.098076845682915317 0.099172414730993488 0 0.058433525112266523 0.058433525112214509 0 0.094457855579284614 0.040058458469418363 0 0.098076845682915317 0.099172414730993488 0 0.040058458469319477 0.094457855579157729 0 0.058433525112266523 0.058433525112214509 0 0.097990957645208238 0.90045039720880915 0 0.094457855579188163 0.95994154153068711 0 0.058433525112254137 0.94156647488774581 0 0.90289902042272274 0.56409326000946114 0 0.93946948561981514 0.60485373571037115 0 0.89064679688610338 0.6216080907827598 0 0.43590673999053309 0.90289902042279657 0 0.39514626428973221 0.93946948561985189 0 0.37839190921727062 0.89064679688614412 0 0.56409326000946236 0.097100979577281268 0 0.6048537357103756 0.060530514380187868 0 0.62160809078275991 0.1093532031139005 0 0.097100979577207341 0.43590673999053198 0 0.06053051438015096 0.39514626428972788 0 0.10935320311385981 0.37839190921727089 0 0.6519524273377173 0.64249931920594539 0 0.64518564541690571 0.69601563325001548 0 0.60879112811253555 0.66592422311595834 0 0.35944937237716967 0.65164789808436319 0 0.30421635384321521 0.64514939193436716 0 0.33231497408081678 0.60779218732873663 0 0.6424993192059415 0.3480475726622802 0 0.69601563325001248 0.35481435458309712 0 0.66346942254826746 0.391530810754116 0 0.34804757266227387 0.35750068079406011 0 0.35481435458309307 0.30398436674998969 0 0.39120887188745579 0.33407577688404289 0 1 0.5499999999988151 0 1 0.59999999999894682 0 0.95638719633882641 0.5599388881718611 0 0.5499999999988151 0 0 0.59999999999894682 0 0 0.55993888817186677 0.043612803661174412 0 0.45000000000187229 1 0 0.40000000000166441 1 0 0.44006111182840962 0.9563871963389079 0 0 0.45000000000187229 0 0 0.40000000000166441 0 0.043612803661092707 0.44006111182840391 0 1 0.049999999999899652 0 0.95994154153057998 0.094457855579277675 0 0.94156647488778256 0.058433525112256718 0 0.049999999999899652 0 0 0.094457855579284614 0.040058458469418363 0 0.058433525112266523 0.058433525112214509 0 0.94999999999986839 0 0 0.94156647488778256 0.058433525112256718 0 0.90554214442081604 0.040058458469347469 0 1 0.94999999999986839 0 0.94156647488775558 0.94156647488774259 0 0.95994154153065969 0.90554214442078618 0 0.94999999999979179 1 0 0.90554214442080472 0.95994154153067524 0 0.94156647488775558 0.94156647488774259 0 0 0.94999999999979179 0 0.040058458469322648 0.90554214442079806 0 0.058433525112254137 0.94156647488774581 0 0 0.050000000000207989 0 0.058433525112266523 0.058433525112214509 0 0.040058458469319477 0.094457855579157729 0 0.050000000000207989 1 0 0.058433525112254137 0.94156647488774581 0 0.094457855579188163 0.95994154153068711 0 0.55000000000173355 1 0 0.55307204985744796 0.94819812235491685 0 0.5931441817276254 0.95886012268751675 0 0 0.55000000000173355 0 0.051801877645083663 0.55307204985745195 0 0.041139877312483641 0.59314418172763017 0 1 0.44999999999882923 0 0.94812782820415209 0.44708943904932719 0 0.95886012268748921 0.4068558182724159 0 0.44999999999882923 0 0 0.44692795014265252 0.051801877645060238 0 0.40685581827241191 0.041139877312511682 0 0.83199780613337848 0.1690131600686714 0 0.77216325087772952 0.15899695163319821 0 0.8110316677333288 0.125875177082863 0 0.16901316006868169 0.16800219386663079 0 0.15899695163321451 0.22783674912227669 0 0.12587517708284679 0.1889683322666954 0 0.73982803480991577 0.79629608696991705 0 0.74154628962857594 0.86274820500026039 0 0.70085728320704077 0.84350379029875056 0 0.20370391303007401 0.73982803480989479 0 0.13725179499972981 0.74154628962856628 0 0.1564962097012354 0.70085728320703999 0 0.79629608696994103 0.26017196519011448 0 0.85389826602741015 0.26318949769600392 0 0.84350379029877964 0.29914271679296989 0 0.26017196519013502 0.20370391303005 0 0.26318949769601319 0.14610173397257309 0 0.29914271679297122 0.15649620970120659 0 0.53432142347292233 0.88563193847251998 0 0.48758069708049379 0.89080072540186539 0 0.49771727055908782 0.83998685797641781 0 0.1143680615274819 0.53432142347292733 0 0.1091992745981364 0.48758069708049778 0 0.16001314202358469 0.49771727055909287 0 0.88561059063756964 0.46572761956237563 0 0.89079805168298443 0.51242544533572376 0 0.83998574657308889 0.50228528270184081 0 0.46567857652706018 0.1143680615275231 0 0.51241930291950477 0.1091992745981813 0 0.50228272944093777 0.16001314202359701 0 0.1104775404132264 0.2631175359816938 0 0.099492119481027347 0.30746398533281638 0 0.053730171687646627 0.28825077189828552 0 0.26305414557470391 0.88949062093136155 0 0.30738136326657722 0.90051880305435028 0 0.28790752038294382 0.94635952848702642 0 0.73688246401832591 0.11047754041323141 0 0.69253601466723103 0.09949211948105087 0 0.71174922810186925 0.053730171687687178 0 0.88949062093135778 0.73694585442531257 0 0.90051880305432697 0.69261863673346957 0 0.94635952848698612 0.71209247961721311 0 0.77998481823117694 0.71397317153691997 0 0.76395804595204597 0.67808171673060369 0 0.80847852346122429 0.67208120229789559 0 0.28602682846308641 0.77998481823117594 0 0.32191828326940508 0.76395804595204586 0 0.32791879770213411 0.80847852346120164 0 0.71397317153692708 0.22001518176882201 0 0.67808171673060202 0.23604195404795861 0 0.67208120229787616 0.1915214765387884 0 0.22001518176882229 0.28602682846307981 0 0.2360419540479583 0.32191828326940741 0 0.19152147653881049 0.32791879770215432 0 0.8289812646369813 0.82898126463698818 0 0.839908789927305 0.77106070975262608 0 0.87660297360393757 0.8104127896505644 0 0.17101873536300011 0.82898126463696109 0 0.22893929024737289 0.83990878992727813 0 0.18958721034944021 0.87660297360394568 0 0.66548584431530877 0.55616712808283064 0 0.64455163611866495 0.50369301794551069 0 0.69798396601998558 0.5289734597937793 0 0.70015119067225129 0.48481914991727459 0 0.69798396601998558 0.5289734597937793 0 0.64455163611866495 0.50369301794551069 0 0.77998481823117694 0.71397317153691997 0 0.73984939806388494 0.70740600291923139 0 0.76395804595204597 0.67808171673060369 0 0.28602682846308641 0.77998481823117594 0 0.2925512105451914 0.73997990291173188 0 0.32191828326940508 0.76395804595204586 0 0.71397317153692708 0.22001518176882201 0 0.70740600291923772 0.26015060193611528 0 0.67808171673060202 0.23604195404795861 0 0.22001518176882229 0.28602682846307981 0 0.26014443552207939 0.29262390443653519 0 0.2360419540479583 0.32191828326940741 0 0.90045039720880915 0.9020090423547924 0 0.90554214442080472 0.95994154153067524 0 0.86696410734367158 0.94753096683315619 0 0.097990957645208238 0.90045039720880915 0 0.040058458469322648 0.90554214442079806 0 0.052469033166843738 0.86696410734366991 0 0.90082758526900886 0.098076845682916511 0 0.95994154153057998 0.094457855579277675 0 0.94100406608115506 0.1383574446607955 0 0.90045039720880915 0.9020090423547924 0 0.94095916274074942 0.86165278010542579 0 0.95994154153065969 0.90554214442078618 0 0.90082758526900886 0.098076845682916511 0 0.86589314360155567 0.054872692726639853 0 0.90554214442081604 0.040058458469347469 0 0.098076845682915317 0.099172414730993488 0 0.094457855579284614 0.040058458469418363 0 0.1383574446607988 0.058995933918849157 0 0.097990957645208238 0.90045039720880915 0 0.13834721989462789 0.94095916274077984 0 0.094457855579188163 0.95994154153068711 0 0.098076845682915317 0.099172414730993488 0 0.054872692726595548 0.13410685639845171 0 0.040058458469319477 0.094457855579157729 0 0.54901591374940373 0.42306523525165751 0 0.54715635490880632 0.37829016026862072 0 0.60122390529523662 0.39097801071820221 0 0.49854341599767982 0.37075914768127122 0 0.54715635490880632 0.37829016026862072 0 0.5047849391802508 0.40719950955717021 0 0.66548584431530877 0.55616712808283064 0 0.65501639383771026 0.594528181397324 0 0.61866949026800744 0.55492322767366287 0 0.50000000000002642 0.7803135888501761 0 0.49771727055908782 0.83998685797641781 0 0.46593838964869061 0.80781872835503554 0 0.2196864111498267 0.50000000000003153 0 0.16001314202358469 0.49771727055909287 0 0.19218127164496679 0.46593838964869538 0 0.78031358885017377 0.49999999999997569 0 0.83998574657308889 0.50228528270184081 0 0.80781854240107975 0.53406203754901738 0 0.49999999999997108 0.21968641114982909 0 0.50228272944093777 0.16001314202359701 0 0.53404982287327418 0.19215288291432539 0 0.70085728320704077 0.84350379029875056 0 0.74154628962857594 0.86274820500026039 0 0.70475631558365914 0.90098127745102974 0 0.1564962097012354 0.70085728320703999 0 0.13725179499972981 0.74154628962856628 0 0.099018722548963364 0.70475631558365193 0 0.84350379029877964 0.29914271679296989 0 0.85389826602741015 0.26318949769600392 0 0.89886191075654698 0.29506339503703172 0 0.29914271679297122 0.15649620970120659 0 0.26318949769601319 0.14610173397257309 0 0.29506339503703888 0.1011380892434444 0 0.74417394063200648 0.6049203001048884 0 0.71518943060973483 0.65679402931717101 0 0.69288637798153729 0.61204665218001397 0 0.39507969989512881 0.74417394063201048 0 0.34270280102445921 0.71672416762035873 0 0.38642358467307758 0.69286258923597266 0 0.60492030010488373 0.25582605936799729 0 0.65679402931716913 0.28481056939027388 0 0.61204665218000809 0.30711362201846659 0 0.25582605936799319 0.39507969989513358 0 0.28473805236128291 0.34355768118673757 0 0.30597655500381687 0.3934681685211931 0 0.88949062093135778 0.73694585442531257 0 0.839908789927305 0.77106070975262608 0 0.8312019486901514 0.72745002167959472 0 0.73688246401832591 0.11047754041323141 0 0.77216325087772952 0.15899695163319821 0 0.72767516840721058 0.16853767177393791 0 0.26305414557470391 0.88949062093136155 0 0.22893929024737289 0.83990878992727813 0 0.27254997832041528 0.8312019486901443 0 0.1104775404132264 0.2631175359816938 0 0.15899695163321451 0.22783674912227669 0 0.1685376717739448 0.27232483159280108 0 0.61233489393901674 0.60846740003560018 0 0.57484409313590223 0.58437321637184114 0 0.61866949026800744 0.55492322767366287 0 0.43565339604028508 0.55159384357101338 0 0.39982789553993509 0.53462762214740622 0 0.45293656999117771 0.51494832297079129 0 0.41009598069569558 0.49083935749285379 0 0.45293656999117771 0.51494832297079129 0 0.39982789553993509 0.53462762214740622 0 0.4434591735942961 0.66641640622551224 0 0.40564717507982689 0.65626423320524974 0 0.45517457031814612 0.62743100079604397 0 0.40653508887824003 0.61580573377480397 0 0.45517457031814612 0.62743100079604397 0 0.40564717507982689 0.65626423320524974 0 0.89586000931544074 0.25714619498770419 0 0.84534053180161173 0.2262639405833009 0 0.89556054516486661 0.21720615046483649 0 0.25714619498771307 0.1041399906845497 0 0.22626394058331961 0.15465946819838111 0 0.21720615046484709 0.1044394548351292 0 0.41009598069569558 0.49083935749285379 0 0.35815651743779398 0.51113440447909086 0 0.37702386074717259 0.45819417564476811 0 0.75000000000034661 1 0 0.71789175274016548 0.95136708251202151 0 0.77688977118331393 0.94706199857866258 0 0 0.75000000000034661 0 0.04863291748797445 0.71789175274016204 0 0.052938001421335763 0.77688977118331159 0 1 0.24999999999941211 0 0.94915666091748963 0.28320804985299752 0 0.94465622530468663 0.23167460333446291 0 0.24999999999941211 0 0 0.28320804985300141 0.050843339082505573 0 0.23167460333446299 0.05534377469531044 0 0.90289902042272274 0.56409326000946114 0 0.95638719633882641 0.5599388881718611 0 0.93946948561981514 0.60485373571037115 0 0.56409326000946236 0.097100979577281268 0 0.55993888817186677 0.043612803661174412 0 0.6048537357103756 0.060530514380187868 0 0.43590673999053309 0.90289902042279657 0 0.44006111182840962 0.9563871963389079 0 0.39514626428973221 0.93946948561985189 0 0.097100979577207341 0.43590673999053198 0 0.043612803661092707 0.44006111182840391 0 0.06053051438015096 0.39514626428972788 0 0.40653508887824003 0.61580573377480397 0 0.40468198875170619 0.57637931869191572 0 0.45030222762303879 0.58443295115431027 0 0.43301393728221038 0.35984320557492139 0 0.43059486795334201 0.30395973419063538 0 0.47253211736503098 0.34081710830804929 0 0.48378871228000903 0.29745177826977359 0 0.47253211736503098 0.34081710830804929 0 0.43059486795334201 0.30395973419063538 0 0.65000000000104008 1 0 0.60000000000138687 1 0 0.63753756910470316 0.95578163339252209 0 0 0.65000000000104008 0 0 0.60000000000138687 0 0.04421836660747535 0.63753756910470205 0 1 0.34999999999912063 0 1 0.3999999999989749 0 0.95581270756939096 0.36248656652865863 0 0.34999999999912063 0 0 0.3999999999989749 0 0 0.36246243089534252 0.044218366607477223 0 0.73982803480991577 0.79629608696991705 0 0.74917861927654894 0.74229989257760443 0 0.78651189793386345 0.75664155808652755 0 0.20370391303007401 0.73982803480989479 0 0.25770010742238642 0.74917861927655205 0 0.24335844191347281 0.78651189793387466 0 0.79629608696994103 0.26017196519011448 0 0.74229989257762263 0.250821380723454 0 0.7582555232258138 0.2115548431873896 0 0.26017196519013502 0.20370391303005 0 0.25082138072344978 0.25770010742236849 0 0.2115548431873881 0.2417444767741872 0 1 0.049999999999899652 0 0.94156647488778256 0.058433525112256718 0 0.96763014295114425 0.032369857048773903 0 0.049999999999899652 0 0 0.058433525112266523 0.058433525112214509 0 0.032369857048753323 0.032369857048862027 0 0.94999999999986839 0 0 0.96763014295114425 0.032369857048773903 0 0.94156647488778256 0.058433525112256718 0 0 0.050000000000207989 0 0.032369857048753323 0.032369857048862027 0 0.058433525112266523 0.058433525112214509 0 1 0.94999999999986839 0 0.96763014295120153 0.96763014295122851 0 0.94156647488775558 0.94156647488774259 0 0.94999999999979179 1 0 0.94156647488775558 0.94156647488774259 0 0.96763014295120153 0.96763014295122851 0 0.050000000000207989 1 0 0.030452409610489669 0.96954759038951022 0 0.058433525112254137 0.94156647488774581 0 0 0.94999999999979179 0 0.058433525112254137 0.94156647488774581 0 0.030452409610489669 0.96954759038951022 0 0.90045039720880915 0.9020090423547924 0 0.88962265630811221 0.85311725681459705 0 0.94095916274074942 0.86165278010542579 0 0.097990957645208238 0.90045039720880915 0 0.14688274318541941 0.88962265630811932 0 0.13834721989462789 0.94095916274077984 0 0.91838802593884228 0.81827409710237209 0 0.94095916274074942 0.86165278010542579 0 0.88962265630811221 0.85311725681459705 0 0.91838802593870927 0.18172590289757809 0 0.88777909259956078 0.1484760565886154 0 0.94100406608115506 0.1383574446607955 0 0.1817259028976386 0.91838802593888857 0 0.13834721989462789 0.94095916274077984 0 0.14688274318541941 0.88962265630811932 0 0.18172590289758209 0.08161197406129285 0 0.1484760565886207 0.1122209074004519 0 0.1383574446607988 0.058995933918849157 0 0.90082758526900886 0.098076845682916511 0 0.94100406608115506 0.1383574446607955 0 0.88777909259956078 0.1484760565886154 0 0.098076845682915317 0.099172414730993488 0 0.1383574446607988 0.058995933918849157 0 0.1484760565886207 0.1122209074004519 0 0.57387636360620708 0.54318431390135336 0 0.61866949026800744 0.55492322767366287 0 0.57484409313590223 0.58437321637184114 0 0.60122390529523662 0.39097801071820221 0 0.54715635490880632 0.37829016026862072 0 0.59596170682035776 0.34609402305862419 0 0.38703015239361932 0.80283068154761972 0 0.32791879770213411 0.80847852346120164 0 0.35837423432538362 0.77730446904312345 0 0.8028306815476034 0.61296984760642026 0 0.80847852346122429 0.67208120229789559 0 0.77730446904309636 0.64162576567462737 0 0.197169318452384 0.38703015239362498 0 0.19152147653881049 0.32791879770215432 0 0.22269553095687891 0.35837423432538801 0 0.61296984760641449 0.19716931845240021 0 0.67208120229787616 0.1915214765387884 0 0.64162576567462404 0.22269553095690481 0 0.39419886675318527 0.41912225240070788 0 0.37702386074717259 0.45819417564476811 0 0.35481422397128459 0.40312981465069342 0 0.33382663527330159 0.44130125047503482 0 0.35481422397128459 0.40312981465069342 0 0.37702386074717259 0.45819417564476811 0 0.40653508887824003 0.61580573377480397 0 0.40564717507982689 0.65626423320524974 0 0.35944937237716967 0.65164789808436319 0 0.53432142347292233 0.88563193847251998 0 0.49771727055908782 0.83998685797641781 0 0.54047998161173716 0.84333512669480526 0 0.1143680615274819 0.53432142347292733 0 0.16001314202358469 0.49771727055909287 0 0.1566648733051971 0.54047998161174216 0 0.88561059063756964 0.46572761956237563 0 0.83998574657308889 0.50228528270184081 0 0.84333218736938698 0.4595365182652234 0 0.46567857652706018 0.1143680615275231 0 0.50228272944093777 0.16001314202359701 0 0.45952001838826873 0.15666487330524251 0 0.37104651296145419 0.60545170748311072 0 0.40653508887824003 0.61580573377480397 0 0.35944937237716967 0.65164789808436319 0 0.6519524273377173 0.64249931920594539 0 0.71518943060973483 0.65679402931717101 0 0.6768914574865772 0.67861120078714243 0 0.35944937237716967 0.65164789808436319 0 0.34270280102445921 0.71672416762035873 0 0.32259853082073792 0.67670072609835186 0 0.6424993192059415 0.3480475726622802 0 0.65679402931716913 0.28481056939027388 0 0.6786112007871401 0.32310854251343019 0 0.34804757266227387 0.35750068079406011 0 0.28473805236128291 0.34355768118673757 0 0.3231032570156932 0.32141443408924047 0 0.73982803480991577 0.79629608696991705 0 0.70085728320704077 0.84350379029875056 0 0.69892030930712212 0.7971997999085858 0 0.20370391303007401 0.73982803480989479 0 0.1564962097012354 0.70085728320703999 0 0.2028002000914135 0.69892030930711557 0 0.79629608696994103 0.26017196519011448 0 0.84350379029877964 0.29914271679296989 0 0.7971997999085878 0.3010796906928917 0 0.26017196519013502 0.20370391303005 0 0.29914271679297122 0.15649620970120659 0 0.30107969069289831 0.20280020009141189 0 0.43301393728221038 0.35984320557492139 0 0.42930823106401639 0.40626685012722968 0 0.39222057657781068 0.38067796690227418 0 0.73982803480991577 0.79629608696991705 0 0.78284912262770068 0.83746308049763585 0 0.74154628962857594 0.86274820500026039 0 0.20370391303007401 0.73982803480989479 0 0.16253691950235041 0.78284912262768558 0 0.13725179499972981 0.74154628962856628 0 0.79629608696994103 0.26017196519011448 0 0.84534053180161173 0.2262639405833009 0 0.85389826602741015 0.26318949769600392 0 0.26017196519013502 0.20370391303005 0 0.22626394058331961 0.15465946819838111 0 0.26318949769601319 0.14610173397257309 0 0.56566515596461675 0.63670464971409091 0 0.57484409313590223 0.58437321637184114 0 0.61233489393901674 0.60846740003560018 0 0.84598529912884157 0.63969251517827153 0 0.85607519768343354 0.69380468830529196 0 0.80847852346122429 0.67208120229789559 0 0.63969251517826664 0.15401470087115929 0 0.69379929796456197 0.14392209494791061 0 0.67208120229787616 0.1915214765387884 0 0.36030748482174152 0.84598529912882459 0 0.30619531169472608 0.85607519768342955 0 0.32791879770213411 0.80847852346120164 0 0.15401470087117619 0.36030748482174652 0 0.14392209494791439 0.30620070203545702 0 0.19152147653881049 0.32791879770215432 0 0.20370391303007401 0.73982803480989479 0 0.24335844191347281 0.78651189793387466 0 0.20359074765364421 0.79422489417871855 0 0.73982803480991577 0.79629608696991705 0 0.78651189793386345 0.75664155808652755 0 0.79422489417873421 0.79640925234634441 0 0.26017196519013502 0.20370391303005 0 0.2115548431873881 0.2417444767741872 0 0.20596721135052939 0.19972517895396219 0 0.79629608696994103 0.26017196519011448 0 0.7582555232258138 0.2115548431873896 0 0.80027482104603809 0.20596721135052129 0 0.51172471858873747 0.64015771271794875 0 0.47818752133962877 0.66454462905280853 0 0.45517457031814612 0.62743100079604397 0 0.54901591374940373 0.42306523525165751 0 0.60122390529523662 0.39097801071820221 0 0.59313386551587477 0.43977047843653239 0 0.640156794425081 0.43301393728221721 0 0.59313386551587477 0.43977047843653239 0 0.60122390529523662 0.39097801071820221 0 0.70252050881959183 0.70358884261915833 0 0.71518943060973483 0.65679402931717101 0 0.73984939806388494 0.70740600291923139 0 0.29641115738084339 0.70252050881958938 0 0.34270280102445921 0.71672416762035873 0 0.2925512105451914 0.73997990291173188 0 0.76395804595204597 0.67808171673060369 0 0.73984939806388494 0.70740600291923139 0 0.71518943060973483 0.65679402931717101 0 0.32191828326940508 0.76395804595204586 0 0.2925512105451914 0.73997990291173188 0 0.34270280102445921 0.71672416762035873 0 0.70358884261915744 0.29747949118041561 0 0.65679402931716913 0.28481056939027388 0 0.70740600291923772 0.26015060193611528 0 0.29747949118041711 0.2964111573808435 0 0.28473805236128291 0.34355768118673757 0 0.26014443552207939 0.29262390443653519 0 0.67808171673060202 0.23604195404795861 0 0.70740600291923772 0.26015060193611528 0 0.65679402931716913 0.28481056939027388 0 0.2360419540479583 0.32191828326940741 0 0.26014443552207939 0.29262390443653519 0 0.28473805236128291 0.34355768118673757 0 0.74198804864688339 0.90892718720327403 0 0.70475631558365914 0.90098127745102974 0 0.74154628962857594 0.86274820500026039 0 0.091072812796719582 0.74198804864687795 0 0.099018722548963364 0.70475631558365193 0 0.13725179499972981 0.74154628962856628 0 0.89586000931544074 0.25714619498770419 0 0.89886191075654698 0.29506339503703172 0 0.85389826602741015 0.26318949769600392 0 0.25714619498771307 0.1041399906845497 0 0.29506339503703888 0.1011380892434444 0 0.26318949769601319 0.14610173397257309 0 0.59819537371016407 0.74380966024143391 0 0.64203711532612107 0.74316477213290444 0 0.61896574319320252 0.795216048370321 0 0.66820316019503978 0.77769800602796979 0 0.61896574319320252 0.795216048370321 0 0.64203711532612107 0.74316477213290444 0 0.25619033975856881 0.59819537371016862 0 0.25684529255773247 0.64203554247963057 0 0.2047839516296828 0.61896574319320252 0 0.22230199397202771 0.66820316019503168 0 0.2047839516296828 0.61896574319320252 0 0.25684529255773247 0.64203554247963057 0 0.74380966024142703 0.40180462628984132 0 0.74316477213289889 0.35796288467388632 0 0.79521604837030013 0.38103425680679831 0 0.77769800602796679 0.33179683980497482 0 0.79521604837030013 0.38103425680679831 0 0.74316477213289889 0.35796288467388632 0 0.40180462628983732 0.2561903397585753 0 0.3579628846738841 0.25683522786710378 0 0.38103425680679859 0.2047839516297037 0 0.33179683980498331 0.2223019939720311 0 0.38103425680679859 0.2047839516297037 0 0.3579628846738841 0.25683522786710378 0 0.92670321183853355 0.65773042910151081 0 0.93946948561981514 0.60485373571037115 0 0.96654491682122368 0.6363613838740827 0 0.65773042910151891 0.073296788161472337 0 0.6048537357103756 0.060530514380187868 0 0.63635157668793507 0.033457646040912177 0 0.3422695708985129 0.92670321183858773 0 0.39514626428973221 0.93946948561985189 0 0.36363861612613613 0.96654491682121313 0 0.073296788161418117 0.34226957089850552 0 0.06053051438015096 0.39514626428972788 0 0.033457646040922301 0.36364842331228431 0 0.6519524273377173 0.64249931920594539 0 0.6768914574865772 0.67861120078714243 0 0.64518564541690571 0.69601563325001548 0 0.35944937237716967 0.65164789808436319 0 0.32259853082073792 0.67670072609835186 0 0.30421635384321521 0.64514939193436716 0 0.6424993192059415 0.3480475726622802 0 0.6786112007871401 0.32310854251343019 0 0.69601563325001248 0.35481435458309712 0 0.34804757266227387 0.35750068079406011 0 0.3231032570156932 0.32141443408924047 0 0.35481435458309307 0.30398436674998969 0 0.73982803480991577 0.79629608696991705 0 0.71159714897733284 0.75039044679290845 0 0.74917861927654894 0.74229989257760443 0 0.20370391303007401 0.73982803480989479 0 0.249609553207091 0.71159714897732929 0 0.25770010742238642 0.74917861927655205 0 0.79629608696994103 0.26017196519011448 0 0.75039044679291111 0.28840285102267788 0 0.74229989257762263 0.250821380723454 0 0.26017196519013502 0.20370391303005 0 0.28840285102268098 0.24960955320708811 0 0.25082138072344978 0.25770010742236849 0 0.43565339604028508 0.55159384357101338 0 0.45030222762303879 0.58443295115431027 0 0.40468198875170619 0.57637931869191572 0 0.3999999999989749 0 0 0.44999999999882923 0 0 0.40685581827241191 0.041139877312511682 0 1 0.3999999999989749 0 1 0.44999999999882923 0 0.95886012268748921 0.4068558182724159 0 0 0.60000000000138687 0 0 0.55000000000173355 0 0.041139877312483641 0.59314418172763017 0 0.60000000000138687 1 0 0.55000000000173355 1 0 0.5931441817276254 0.95886012268751675 0 1 0.049999999999899652 0 1 0.099999999999814668 0 0.95994154153057998 0.094457855579277675 0 0.049999999999899652 0 0 0.099999999999814668 0 0 0.094457855579284614 0.040058458469418363 0 0.94999999999979179 1 0 0.89999999999958358 1 0 0.90554214442080472 0.95994154153067524 0 0 0.94999999999979179 0 0 0.89999999999958358 0 0.040058458469322648 0.90554214442079806 0 1 0.89999999999973679 0 1 0.94999999999986839 0 0.95994154153065969 0.90554214442078618 0 0.89999999999973679 0 0 0.94999999999986839 0 0 0.90554214442081604 0.040058458469347469 0 0.10000000000041601 1 0 0.050000000000207989 1 0 0.094457855579188163 0.95994154153068711 0 0 0.10000000000041601 0 0 0.050000000000207989 0 0.040058458469319477 0.094457855579157729 0 0.88949062093135778 0.73694585442531257 0 0.8312019486901514 0.72745002167959472 0 0.85607519768343354 0.69380468830529196 0 0.73688246401832591 0.11047754041323141 0 0.72767516840721058 0.16853767177393791 0 0.69379929796456197 0.14392209494791061 0 0.26305414557470391 0.88949062093136155 0 0.27254997832041528 0.8312019486901443 0 0.30619531169472608 0.85607519768342955 0 0.1104775404132264 0.2631175359816938 0 0.1685376717739448 0.27232483159280108 0 0.14392209494791439 0.30620070203545702 0 0.51484304721220842 0.69707233951836334 0 0.54465502325161819 0.74717983044080061 0 0.49073113440598592 0.73759004618730417 0 0.30292766048163949 0.51484304721221474 0 0.25287139441262568 0.54458355434492378 0 0.262418491288269 0.49071922292154141 0 0.70015119067225129 0.48481914991727459 0 0.74730218607442667 0.45539100053644521 0 0.73815142352639962 0.50697050072007344 0 0.48378871228000903 0.29745177826977359 0 0.45533136021725079 0.2525687312087147 0 0.50732841191799194 0.2613117081243182 0 0.66548584431530877 0.55616712808283064 0 0.61866949026800744 0.55492322767366287 0 0.64455163611866495 0.50369301794551069 0 0.5586987495249669 0.33382663527330653 0 0.59596170682035776 0.34609402305862419 0 0.54715635490880632 0.37829016026862072 0 0.41009598069569558 0.49083935749285379 0 0.42340342337193693 0.44762131874855388 0 0.46152714345798918 0.47344359412352599 0 0.63969251517836323 0.84598529912890386 0 0.61896574319320252 0.795216048370321 0 0.66919832404887702 0.81820888699730587 0 0.1540147008710982 0.63969251517836956 0 0.2047839516296828 0.61896574319320252 0 0.1817911130026923 0.66919832404888702 0 0.84598529912889664 0.36030748482164038 0 0.79521604837030013 0.38103425680679831 0 0.8182088869973061 0.33080167595111531 0 0.3603074848216346 0.15401470087110539 0 0.38103425680679859 0.2047839516297037 0 0.33080167595110582 0.18179111300269291 0 0.60000000000138687 1 0 0.5931441817276254 0.95886012268751675 0 0.63753756910470316 0.95578163339252209 0 0 0.60000000000138687 0 0.041139877312483641 0.59314418172763017 0 0.04421836660747535 0.63753756910470205 0 1 0.3999999999989749 0 0.95886012268748921 0.4068558182724159 0 0.95581270756939096 0.36248656652865863 0 0.3999999999989749 0 0 0.40685581827241191 0.041139877312511682 0 0.36246243089534252 0.044218366607477223 0 0.6519524273377173 0.64249931920594539 0 0.61233489393901674 0.60846740003560018 0 0.65501639383771026 0.594528181397324 0 0.6424993192059415 0.3480475726622802 0 0.60122390529523662 0.39097801071820221 0 0.59596170682035776 0.34609402305862419 0 0.56566515596461675 0.63670464971409091 0 0.60879112811253555 0.66592422311595834 0 0.57051182622447827 0.69668652018496713 0 0.35984320557492089 0.56698606271778873 0 0.33231497408081678 0.60779218732873663 0 0.30429740679959738 0.56913905146460098 0 0.640156794425081 0.43301393728221721 0 0.66346942254826746 0.391530810754116 0 0.69595787604187809 0.43071000156707989 0 0.43301393728221038 0.35984320557492139 0 0.39120887188745579 0.33407577688404289 0 0.43059486795334201 0.30395973419063538 0 0.59999999999894682 0 0 0.63635157668793507 0.033457646040912177 0 0.6048537357103756 0.060530514380187868 0 1 0.59999999999894682 0 0.96654491682122368 0.6363613838740827 0 0.93946948561981514 0.60485373571037115 0 0 0.40000000000166441 0 0.033457646040922301 0.36364842331228431 0 0.06053051438015096 0.39514626428972788 0 0.40000000000166441 1 0 0.36363861612613613 0.96654491682121313 0 0.39514626428973221 0.93946948561985189 0 0.50000000000002642 0.7803135888501761 0 0.49073113440598592 0.73759004618730417 0 0.54465502325161819 0.74717983044080061 0 0.2196864111498267 0.50000000000003153 0 0.262418491288269 0.49071922292154141 0 0.25287139441262568 0.54458355434492378 0 0.78031358885017377 0.49999999999997569 0 0.73815142352639962 0.50697050072007344 0 0.74730218607442667 0.45539100053644521 0 0.49999999999997108 0.21968641114982909 0 0.50732841191799194 0.2613117081243182 0 0.45533136021725079 0.2525687312087147 0 0.39507969989512881 0.74417394063201048 0 0.43306783640023289 0.78031198216144404 0 0.38703015239361932 0.80283068154761972 0 0.25582605936799319 0.39507969989513358 0 0.21968801783855879 0.43306783640023788 0 0.197169318452384 0.38703015239362498 0 0.74417394063200648 0.6049203001048884 0 0.78031198216143516 0.56693216359979737 0 0.8028306815476034 0.61296984760642026 0 0.60492030010488373 0.25582605936799729 0 0.56683314878414581 0.21944955250104689 0 0.61296984760641449 0.19716931845240021 0 0.77998481823117694 0.71397317153691997 0 0.74917861927654894 0.74229989257760443 0 0.73984939806388494 0.70740600291923139 0 0.28602682846308641 0.77998481823117594 0 0.25770010742238642 0.74917861927655205 0 0.2925512105451914 0.73997990291173188 0 0.71397317153692708 0.22001518176882201 0 0.74229989257762263 0.250821380723454 0 0.70740600291923772 0.26015060193611528 0 0.22001518176882229 0.28602682846307981 0 0.25082138072344978 0.25770010742236849 0 0.26014443552207939 0.29262390443653519 0 0.49189101320880302 0.59024331187324797 0 0.53087311892591971 0.55299263141448529 0 0.53542397956703913 0.60119875982347493 0 0.41009598069569558 0.49083935749285379 0 0.46152714345798918 0.47344359412352599 0 0.45293656999117771 0.51494832297079129 0 0.66820316019503978 0.77769800602796979 0 0.66919832404887702 0.81820888699730587 0 0.61896574319320252 0.795216048370321 0 0.22230199397202771 0.66820316019503168 0 0.1817911130026923 0.66919832404888702 0 0.2047839516296828 0.61896574319320252 0 0.77769800602796679 0.33179683980497482 0 0.8182088869973061 0.33080167595111531 0 0.79521604837030013 0.38103425680679831 0 0.33179683980498331 0.2223019939720311 0 0.33080167595110582 0.18179111300269291 0 0.38103425680679859 0.2047839516297037 0 0.83199780613337848 0.1690131600686714 0 0.87355793346388477 0.18922011052113649 0 0.84534053180161173 0.2262639405833009 0 0.16901316006868169 0.16800219386663079 0 0.18922011052115781 0.12644206653611201 0 0.22626394058331961 0.15465946819838111 0 0.58981073711177334 0.48140931020849848 0 0.62619054498681193 0.46482944251856079 0 0.64455163611866495 0.50369301794551069 0 0.59621567360238914 0.5184866806641607 0 0.58981073711177334 0.48140931020849848 0 0.64455163611866495 0.50369301794551069 0 0.53432142347292233 0.88563193847251998 0 0.54047998161173716 0.84333512669480526 0 0.58267137064684116 0.87013301365640838 0 0.56759263990989184 0.81794319034601648 0 0.58267137064684116 0.87013301365640838 0 0.54047998161173716 0.84333512669480526 0 0.1143680615274819 0.53432142347292733 0 0.1566648733051971 0.54047998161174216 0 0.12986698634359389 0.58267137064684615 0 0.18205680965398621 0.56759263990989739 0 0.12986698634359389 0.58267137064684615 0 0.1566648733051971 0.54047998161174216 0 0.88561059063756964 0.46572761956237563 0 0.84333218736938698 0.4595365182652234 0 0.87012666750595846 0.41743873185103042 0 0.81794319034597418 0.43240736009009317 0 0.87012666750595846 0.41743873185103042 0 0.84333218736938698 0.4595365182652234 0 0.46567857652706018 0.1143680615275231 0 0.45952001838826873 0.15666487330524251 0 0.41732862935313042 0.12986698634362279 0 0.43240736009008851 0.18205680965402779 0 0.41732862935313042 0.12986698634362279 0 0.45952001838826873 0.15666487330524251 0 0.70085728320704077 0.84350379029875056 0 0.70475631558365914 0.90098127745102974 0 0.66923299355723143 0.8804077449518628 0 0.1564962097012354 0.70085728320703999 0 0.099018722548963364 0.70475631558365193 0 0.1195922550481313 0.66923299355722787 0 0.84350379029877964 0.29914271679296989 0 0.89886191075654698 0.29506339503703172 0 0.88040774495187946 0.33076700644278889 0 0.29914271679297122 0.15649620970120659 0 0.29506339503703888 0.1011380892434444 0 0.33076700644279272 0.1195922550481146 0 0.839908789927305 0.77106070975262608 0 0.78651189793386345 0.75664155808652755 0 0.8312019486901514 0.72745002167959472 0 0.22893929024737289 0.83990878992727813 0 0.24335844191347281 0.78651189793387466 0 0.27254997832041528 0.8312019486901443 0 0.77216325087772952 0.15899695163319821 0 0.7582555232258138 0.2115548431873896 0 0.72767516840721058 0.16853767177393791 0 0.15899695163321451 0.22783674912227669 0 0.2115548431873881 0.2417444767741872 0 0.1685376717739448 0.27232483159280108 0 0.89586000931544074 0.25714619498770419 0 0.85389826602741015 0.26318949769600392 0 0.84534053180161173 0.2262639405833009 0 0.25714619498771307 0.1041399906845497 0 0.26318949769601319 0.14610173397257309 0 0.22626394058331961 0.15465946819838111 0 0.49771727055908782 0.83998685797641781 0 0.45353891581270822 0.85551523377818905 0 0.46593838964869061 0.80781872835503554 0 0.16001314202358469 0.49771727055909287 0 0.1444847662218138 0.45353891581271188 0 0.19218127164496679 0.46593838964869538 0 0.83998574657308889 0.50228528270184081 0 0.85551478316835361 0.54646211938695222 0 0.80781854240107975 0.53406203754901738 0 0.50228272944093777 0.16001314202359701 0 0.54646108418729233 0.1444847662218687 0 0.53404982287327418 0.19215288291432539 0 0.51484304721220842 0.69707233951836334 0 0.47818752133962877 0.66454462905280853 0 0.51172471858873747 0.64015771271794875 0 0.30292766048163949 0.51484304721221474 0 0.33436424489304489 0.47849603121740791 0 0.35815651743779398 0.51113440447909086 0 0.6027107599280892 0.83436006790502326 0 0.63969251517836323 0.84598529912890386 0 0.62483828039315681 0.8780818733396436 0 0.1656399320949789 0.60271075992809464 0 0.1540147008710982 0.63969251517836956 0 0.1219181266603569 0.62483828039315903 0 0.83436006790498052 0.39728924007189959 0 0.84598529912889664 0.36030748482164038 0 0.87815187193233801 0.37523526017134418 0 0.3972892400718947 0.16563993209502181 0 0.3603074848216346 0.15401470087110539 0 0.37516171960683908 0.121918126660369 0 0.70015119067225129 0.48481914991727459 0 0.64455163611866495 0.50369301794551069 0 0.66329969176266512 0.46626046872004567 0 0.57387636360620708 0.54318431390135336 0 0.53087311892591971 0.55299263141448529 0 0.554170140907293 0.50922353359177785 0 0.50333998054938722 0.50119715791968966 0 0.50753758205811061 0.4506562873613274 0 0.54783891860069212 0.46640164214823893 0 0.58267137064684116 0.87013301365640838 0 0.6027107599280892 0.83436006790502326 0 0.62483828039315681 0.8780818733396436 0 0.12986698634359389 0.58267137064684615 0 0.1656399320949789 0.60271075992809464 0 0.1219181266603569 0.62483828039315903 0 0.87012666750595846 0.41743873185103042 0 0.83436006790498052 0.39728924007189959 0 0.87815187193233801 0.37523526017134418 0 0.41732862935313042 0.12986698634362279 0 0.3972892400718947 0.16563993209502181 0 0.37516171960683908 0.121918126660369 0 0.35984320557492089 0.56698606271778873 0 0.35815651743779398 0.51113440447909086 0 0.39982789553993509 0.53462762214740622 0 0.43087117257049001 0.8215422551712771 0 0.46593838964869061 0.80781872835503554 0 0.45353891581270822 0.85551523377818905 0 0.17845774482872559 0.43087117257049429 0 0.19218127164496679 0.46593838964869538 0 0.1444847662218138 0.45353891581271188 0 0.8215422551712277 0.56912882742954496 0 0.80781854240107975 0.53406203754901738 0 0.85551478316835361 0.54646211938695222 0 0.56912882742954041 0.17845774482877461 0 0.53404982287327418 0.19215288291432539 0 0.54646108418729233 0.1444847662218687 0 0.89586000931544074 0.25714619498770419 0 0.89556054516486661 0.21720615046483649 0 0.94465622530468663 0.23167460333446291 0 0.91838802593870927 0.18172590289757809 0 0.94465622530468663 0.23167460333446291 0 0.89556054516486661 0.21720615046483649 0 0.25714619498771307 0.1041399906845497 0 0.21720615046484709 0.1044394548351292 0 0.23167460333446299 0.05534377469531044 0 0.18172590289758209 0.08161197406129285 0 0.23167460333446299 0.05534377469531044 0 0.21720615046484709 0.1044394548351292 0 0.50333998054938722 0.50119715791968966 0 0.54783891860069212 0.46640164214823893 0 0.554170140907293 0.50922353359177785 0 0.16901316006868169 0.16800219386663079 0 0.12587517708284679 0.1889683322666954 0 0.12294765968567151 0.14825146416195439 0 0.83199780613337848 0.1690131600686714 0 0.8110316677333288 0.125875177082863 0 0.8517485358380722 0.12294765968568611 0 0.74198804864688339 0.90892718720327403 0 0.74154628962857594 0.86274820500026039 0 0.78020430794084783 0.88768307197553598 0 0.78284912262770068 0.83746308049763585 0 0.78020430794084783 0.88768307197553598 0 0.74154628962857594 0.86274820500026039 0 0.091072812796719582 0.74198804864687795 0 0.13725179499972981 0.74154628962856628 0 0.11231692802445629 0.78020430794084028 0 0.16253691950235041 0.78284912262768558 0 0.11231692802445629 0.78020430794084028 0 0.13725179499972981 0.74154628962856628 0 0.82118136511706341 0.082875076569723011 0 0.77925951159456153 0.09969477121230251 0 0.76543419162344684 0.056452228708420968 0 0.08287507656968085 0.1788186348829835 0 0.099694771212264055 0.22074048840547039 0 0.056452228708379938 0.23456580837661581 0 0.91838802593884228 0.81827409710237209 0 0.9041449437197947 0.7786886066890556 0 0.9442075111696665 0.76777356182390766 0 0.1817259028976386 0.91838802593888857 0 0.22131139331094829 0.9041449437198319 0 0.23222643817617661 0.94420751116970569 0 0.73688246401832591 0.11047754041323141 0 0.76543419162344684 0.056452228708420968 0 0.77925951159456153 0.09969477121230251 0 0.1104775404132264 0.2631175359816938 0 0.056452228708379938 0.23456580837661581 0 0.099694771212264055 0.22074048840547039 0 0.88949062093135778 0.73694585442531257 0 0.9442075111696665 0.76777356182390766 0 0.9041449437197947 0.7786886066890556 0 0.26305414557470391 0.88949062093136155 0 0.23222643817617661 0.94420751116970569 0 0.22131139331094829 0.9041449437198319 0 0.73984939806388494 0.70740600291923139 0 0.71159714897733284 0.75039044679290845 0 0.70252050881959183 0.70358884261915833 0 0.74917861927654894 0.74229989257760443 0 0.71159714897733284 0.75039044679290845 0 0.73984939806388494 0.70740600291923139 0 0.2925512105451914 0.73997990291173188 0 0.249609553207091 0.71159714897732929 0 0.29641115738084339 0.70252050881958938 0 0.25770010742238642 0.74917861927655205 0 0.249609553207091 0.71159714897732929 0 0.2925512105451914 0.73997990291173188 0 0.70740600291923772 0.26015060193611528 0 0.75039044679291111 0.28840285102267788 0 0.70358884261915744 0.29747949118041561 0 0.74229989257762263 0.250821380723454 0 0.75039044679291111 0.28840285102267788 0 0.70740600291923772 0.26015060193611528 0 0.26014443552207939 0.29262390443653519 0 0.28840285102268098 0.24960955320708811 0 0.29747949118041711 0.2964111573808435 0 0.25082138072344978 0.25770010742236849 0 0.28840285102268098 0.24960955320708811 0 0.26014443552207939 0.29262390443653519 0 0.88949062093135778 0.73694585442531257 0 0.85607519768343354 0.69380468830529196 0 0.90051880305432697 0.69261863673346957 0 0.26305414557470391 0.88949062093136155 0 0.30619531169472608 0.85607519768342955 0 0.30738136326657722 0.90051880305435028 0 0.73688246401832591 0.11047754041323141 0 0.69379929796456197 0.14392209494791061 0 0.69253601466723103 0.09949211948105087 0 0.1104775404132264 0.2631175359816938 0 0.14392209494791439 0.30620070203545702 0 0.099492119481027347 0.30746398533281638 0 0.58981073711177334 0.48140931020849848 0 0.54783891860069212 0.46640164214823893 0 0.59313386551587477 0.43977047843653239 0 0.640156794425081 0.43301393728221721 0 0.69595787604187809 0.43071000156707989 0 0.66329969176266512 0.46626046872004567 0 0.70015119067225129 0.48481914991727459 0 0.66329969176266512 0.46626046872004567 0 0.69595787604187809 0.43071000156707989 0 0.8289812646369813 0.82898126463698818 0 0.81306033001437827 0.8677384967307622 0 0.78284912262770068 0.83746308049763585 0 0.17101873536300011 0.82898126463696109 0 0.1322615032692282 0.8130603300143705 0 0.16253691950235041 0.78284912262768558 0 0.84534053180161173 0.2262639405833009 0 0.87355793346388477 0.18922011052113649 0 0.89556054516486661 0.21720615046483649 0 0.22626394058331961 0.15465946819838111 0 0.18922011052115781 0.12644206653611201 0 0.21720615046484709 0.1044394548351292 0 0.90082758526900886 0.098076845682916511 0 0.86148619541339633 0.089689702191568438 0 0.86589314360155567 0.054872692726639853 0 0.098076845682915317 0.099172414730993488 0 0.089689702191541126 0.13851380458662241 0 0.054872692726595548 0.13410685639845171 0 0.84598529912884157 0.63969251517827153 0 0.89064679688610338 0.6216080907827598 0 0.88396545633132484 0.6625197322180193 0 0.63969251517826664 0.15401470087115929 0 0.62160809078275991 0.1093532031139005 0 0.66251865414987876 0.1160340021949529 0 0.36030748482174152 0.84598529912882459 0 0.37839190921727062 0.89064679688614412 0 0.33748026778199908 0.88396545633134682 0 0.15401470087117619 0.36030748482174652 0 0.10935320311385981 0.37839190921727089 0 0.11603400219493119 0.33748134585014028 0 0.82118136511706341 0.082875076569723011 0 0.8517485358380722 0.12294765968568611 0 0.8110316677333288 0.125875177082863 0 0.08287507656968085 0.1788186348829835 0 0.12294765968567151 0.14825146416195439 0 0.12587517708284679 0.1889683322666954 0 0.75000000000034661 1 0 0.7000000000006934 1 0 0.71789175274016548 0.95136708251202151 0 0 0.75000000000034661 0 0 0.7000000000006934 0 0.04863291748797445 0.71789175274016204 0 1 0.24999999999941211 0 1 0.29999999999926641 0 0.94915666091748963 0.28320804985299752 0 0.24999999999941211 0 0 0.29999999999926641 0 0 0.28320804985300141 0.050843339082505573 0 0.55000000000173355 1 0 0.51507566941747085 0.9626786017237855 0 0.55307204985744796 0.94819812235491685 0 0 0.55000000000173355 0 0.037321398276215258 0.51507566941747263 0 0.051801877645083663 0.55307204985745195 0 1 0.44999999999882923 0 0.96266688603193029 0.48495124540067203 0 0.94812782820415209 0.44708943904932719 0 0.44999999999882923 0 0 0.48492433058289169 0.037321398276272413 0 0.44692795014265252 0.051801877645060238 0 0.49854341599767982 0.37075914768127122 0 0.51491507395299929 0.3326740076510219 0 0.54715635490880632 0.37829016026862072 0 0.91838802593884228 0.81827409710237209 0 0.88962265630811221 0.85311725681459705 0 0.87660297360393757 0.8104127896505644 0 0.1817259028976386 0.91838802593888857 0 0.14688274318541941 0.88962265630811932 0 0.18958721034944021 0.87660297360394568 0 0.50333998054938722 0.50119715791968966 0 0.554170140907293 0.50922353359177785 0 0.53087311892591971 0.55299263141448529 0 0.91890123454466932 0.39094742729597309 0 0.95886012268748921 0.4068558182724159 0 0.90991454156957952 0.4312731559748802 0 0.94812782820415209 0.44708943904932719 0 0.90991454156957952 0.4312731559748802 0 0.95886012268748921 0.4068558182724159 0 0.84999999999965292 1 0 0.82675923981951416 0.95611053755456221 0 0.86696410734367158 0.94753096683315619 0 0 0.84999999999965292 0 0.043889462445437968 0.82675923981951283 0 0.052469033166843738 0.86696410734366991 0 0.1817259028976386 0.91838802593888857 0 0.18045991219397989 0.960710939969875 0 0.13834721989462789 0.94095916274077984 0 0.91838802593884228 0.81827409710237209 0 0.96071093996985157 0.81954008780615684 0 0.94095916274074942 0.86165278010542579 0 0.08287507656968085 0.1788186348829835 0 0.038839999600931263 0.17949825993190149 0 0.054872692726595548 0.13410685639845171 0 0.82118136511706341 0.082875076569723011 0 0.82050174006822896 0.038839999600956771 0 0.86589314360155567 0.054872692726639853 0 0.15000000000062411 1 0 0.13834721989462789 0.94095916274077984 0 0.18045991219397989 0.960710939969875 0 1 0.84999999999960507 0 0.94095916274074942 0.86165278010542579 0 0.96071093996985157 0.81954008780615684 0 0 0.15000000000062411 0 0.054872692726595548 0.13410685639845171 0 0.038839999600931263 0.17949825993190149 0 0.84999999999960507 0 0 0.86589314360155567 0.054872692726639853 0 0.82050174006822896 0.038839999600956771 0 1 0.14999999999970359 0 0.96080966346491015 0.18035159017841959 0 0.94100406608115506 0.1383574446607955 0 0.14999999999970359 0 0 0.18035159017842109 0.039190336535090492 0 0.1383574446607988 0.058995933918849157 0 0.91838802593870927 0.18172590289757809 0 0.94100406608115506 0.1383574446607955 0 0.96080966346491015 0.18035159017841959 0 0.18172590289758209 0.08161197406129285 0 0.1383574446607988 0.058995933918849157 0 0.18035159017842109 0.039190336535090492 0 0.40653508887824003 0.61580573377480397 0 0.45030222762303879 0.58443295115431027 0 0.45517457031814612 0.62743100079604397 0 0.50333998054938722 0.50119715791968966 0 0.53087311892591971 0.55299263141448529 0 0.47974773860103892 0.54872726831320284 0 0.33382663527330159 0.44130125047503482 0 0.30597655500381687 0.3934681685211931 0 0.35481422397128459 0.40312981465069342 0 0.34804757266227387 0.35750068079406011 0 0.35481422397128459 0.40312981465069342 0 0.30597655500381687 0.3934681685211931 0 0.39419886675318527 0.41912225240070788 0 0.39222057657781068 0.38067796690227418 0 0.42930823106401639 0.40626685012722968 0 0.5586987495249669 0.33382663527330653 0 0.54715635490880632 0.37829016026862072 0 0.51491507395299929 0.3326740076510219 0 0.84598529912884157 0.63969251517827153 0 0.88396545633132484 0.6625197322180193 0 0.85607519768343354 0.69380468830529196 0 0.63969251517826664 0.15401470087115929 0 0.66251865414987876 0.1160340021949529 0 0.69379929796456197 0.14392209494791061 0 0.36030748482174152 0.84598529912882459 0 0.33748026778199908 0.88396545633134682 0 0.30619531169472608 0.85607519768342955 0 0.15401470087117619 0.36030748482174652 0 0.11603400219493119 0.33748134585014028 0 0.14392209494791439 0.30620070203545702 0 0.41009598069569558 0.49083935749285379 0 0.39982789553993509 0.53462762214740622 0 0.35815651743779398 0.51113440447909086 0 0.43087117257049001 0.8215422551712771 0 0.38703015239361932 0.80283068154761972 0 0.43306783640023289 0.78031198216144404 0 0.8215422551712277 0.56912882742954496 0 0.8028306815476034 0.61296984760642026 0 0.78031198216143516 0.56693216359979737 0 0.17845774482872559 0.43087117257049429 0 0.197169318452384 0.38703015239362498 0 0.21968801783855879 0.43306783640023788 0 0.56912882742954041 0.17845774482877461 0 0.61296984760641449 0.19716931845240021 0 0.56683314878414581 0.21944955250104689 0 0.86696410734367158 0.94753096683315619 0 0.82675923981951416 0.95611053755456221 0 0.85382799508926477 0.91295829388058414 0 0.052469033166843738 0.86696410734366991 0 0.043889462445437968 0.82675923981951283 0 0.087041706119416085 0.85382799508926188 0 0.81709574086843206 0.91318696080656769 0 0.85382799508926477 0.91295829388058414 0 0.82675923981951416 0.95611053755456221 0 0.086813039193431391 0.81709574086842884 0 0.087041706119416085 0.85382799508926188 0 0.043889462445437968 0.82675923981951283 0 0.77998481823117694 0.71397317153691997 0 0.8312019486901514 0.72745002167959472 0 0.78651189793386345 0.75664155808652755 0 0.28602682846308641 0.77998481823117594 0 0.27254997832041528 0.8312019486901443 0 0.24335844191347281 0.78651189793387466 0 0.71397317153692708 0.22001518176882201 0 0.72767516840721058 0.16853767177393791 0 0.7582555232258138 0.2115548431873896 0 0.22001518176882229 0.28602682846307981 0 0.1685376717739448 0.27232483159280108 0 0.2115548431873881 0.2417444767741872 0 0.54901591374940373 0.42306523525165751 0 0.50753758205811061 0.4506562873613274 0 0.5047849391802508 0.40719950955717021 0 0.54901591374940373 0.42306523525165751 0 0.59313386551587477 0.43977047843653239 0 0.54783891860069212 0.46640164214823893 0 0.81709574086843206 0.91318696080656769 0 0.81306033001437827 0.8677384967307622 0 0.85174853583809862 0.87705234031428159 0 0.086813039193431391 0.81709574086842884 0 0.1322615032692282 0.8130603300143705 0 0.1229476596857173 0.85174853583809695 0 0.839908789927305 0.77106070975262608 0 0.79422489417873421 0.79640925234634441 0 0.78651189793386345 0.75664155808652755 0 0.22893929024737289 0.83990878992727813 0 0.20359074765364421 0.79422489417871855 0 0.24335844191347281 0.78651189793387466 0 0.77216325087772952 0.15899695163319821 0 0.80027482104603809 0.20596721135052129 0 0.7582555232258138 0.2115548431873896 0 0.15899695163321451 0.22783674912227669 0 0.20596721135052939 0.19972517895396219 0 0.2115548431873881 0.2417444767741872 0 0.70087539567735502 0.57165914616526226 0 0.65501639383771026 0.594528181397324 0 0.66548584431530877 0.55616712808283064 0 0.69288637798153729 0.61204665218001397 0 0.65501639383771026 0.594528181397324 0 0.70087539567735502 0.57165914616526226 0 0.57188338999077359 0.29874123486230147 0 0.59596170682035776 0.34609402305862419 0 0.5586987495249669 0.33382663527330653 0 0.61204665218000809 0.30711362201846659 0 0.59596170682035776 0.34609402305862419 0 0.57188338999077359 0.29874123486230147 0 0.55307204985744796 0.94819812235491685 0 0.56877264426066887 0.91182300080710277 0 0.5931441817276254 0.95886012268751675 0 0.60938371359314658 0.91847489683800321 0 0.5931441817276254 0.95886012268751675 0 0.56877264426066887 0.91182300080710277 0 0.051801877645083663 0.55307204985745195 0 0.088176999192898689 0.56877264426067353 0 0.041139877312483641 0.59314418172763017 0 0.081525103161997597 0.6093837135931508 0 0.041139877312483641 0.59314418172763017 0 0.088176999192898689 0.56877264426067353 0 0.44692795014265252 0.051801877645060238 0 0.43122735573933979 0.088176999192917438 0 0.40685581827241191 0.041139877312511682 0 0.39061628640684498 0.081525103161991672 0 0.40685581827241191 0.041139877312511682 0 0.43122735573933979 0.088176999192917438 0 0.56566515596461675 0.63670464971409091 0 0.54058719659441246 0.66889411379075558 0 0.51172471858873747 0.64015771271794875 0 0.35984320557492089 0.56698606271778873 0 0.331306197573488 0.54052564146842386 0 0.35815651743779398 0.51113440447909086 0 0.51484304721220842 0.69707233951836334 0 0.51172471858873747 0.64015771271794875 0 0.54058719659441246 0.66889411379075558 0 0.30292766048163949 0.51484304721221474 0 0.35815651743779398 0.51113440447909086 0 0.331306197573488 0.54052564146842386 0 0.90045039720880915 0.9020090423547924 0 0.86696410734367158 0.94753096683315619 0 0.85382799508926477 0.91295829388058414 0 0.097990957645208238 0.90045039720880915 0 0.052469033166843738 0.86696410734366991 0 0.087041706119416085 0.85382799508926188 0 0.82118136511706341 0.082875076569723011 0 0.86589314360155567 0.054872692726639853 0 0.86148619541339633 0.089689702191568438 0 0.08287507656968085 0.1788186348829835 0 0.054872692726595548 0.13410685639845171 0 0.089689702191541126 0.13851380458662241 0 0.67757268808231397 0.93106206656183088 0 0.70475631558365914 0.90098127745102974 0 0.71789175274016548 0.95136708251202151 0 0.068937933438162791 0.67757268808231053 0 0.099018722548963364 0.70475631558365193 0 0.04863291748797445 0.71789175274016204 0 0.93106206656185309 0.32242731191769503 0 0.89886191075654698 0.29506339503703172 0 0.94915666091748963 0.28320804985299752 0 0.32242731191769902 0.068937933438140794 0 0.29506339503703888 0.1011380892434444 0 0.28320804985300141 0.050843339082505573 0 0.59819537371016407 0.74380966024143391 0 0.57578062281532438 0.77751665353176347 0 0.54465502325161819 0.74717983044080061 0 0.25619033975856881 0.59819537371016862 0 0.2224870800581388 0.57577541371134155 0 0.25287139441262568 0.54458355434492378 0 0.74380966024142703 0.40180462628984132 0 0.77752557158083724 0.42422273168818408 0 0.74730218607442667 0.45539100053644521 0 0.40180462628983732 0.2561903397585753 0 0.42421838472613971 0.22246502005787769 0 0.45533136021725079 0.2525687312087147 0 0.56566515596461675 0.63670464971409091 0 0.53542397956703913 0.60119875982347493 0 0.57484409313590223 0.58437321637184114 0 0.59819537371016407 0.74380966024143391 0 0.57051182622447827 0.69668652018496713 0 0.6083790122881827 0.70496300707145865 0 0.25619033975856881 0.59819537371016862 0 0.30429740679959738 0.56913905146460098 0 0.29503699292854352 0.60837901228818936 0 0.74380966024142703 0.40180462628984132 0 0.69595787604187809 0.43071000156707989 0 0.70496300707145554 0.39162098771181952 0 0.40180462628983732 0.2561903397585753 0 0.43059486795334201 0.30395973419063538 0 0.39162098771181342 0.29503699292854563 0 0.50000000000002642 0.7803135888501761 0 0.54465502325161819 0.74717983044080061 0 0.53770425635794761 0.80104587463999666 0 0.2196864111498267 0.50000000000003153 0 0.25287139441262568 0.54458355434492378 0 0.1989632851005598 0.53769147668950479 0 0.78031358885017377 0.49999999999997569 0 0.74730218607442667 0.45539100053644521 0 0.80106707846564795 0.46230714888029367 0 0.49999999999997108 0.21968641114982909 0 0.45533136021725079 0.2525687312087147 0 0.46229330881044273 0.19890916456654811 0 0.51484304721220842 0.69707233951836334 0 0.54058719659441246 0.66889411379075558 0 0.57051182622447827 0.69668652018496713 0 0.30292766048163949 0.51484304721221474 0 0.331306197573488 0.54052564146842386 0 0.30429740679959738 0.56913905146460098 0 0.56566515596461675 0.63670464971409091 0 0.57051182622447827 0.69668652018496713 0 0.54058719659441246 0.66889411379075558 0 0.35984320557492089 0.56698606271778873 0 0.30429740679959738 0.56913905146460098 0 0.331306197573488 0.54052564146842386 0 0.60938371359314658 0.91847489683800321 0 0.58267137064684116 0.87013301365640838 0 0.62483828039315681 0.8780818733396436 0 0.081525103161997597 0.6093837135931508 0 0.12986698634359389 0.58267137064684615 0 0.1219181266603569 0.62483828039315903 0 0.91890123454466932 0.39094742729597309 0 0.87012666750595846 0.41743873185103042 0 0.87815187193233801 0.37523526017134418 0 0.39061628640684498 0.081525103161991672 0 0.41732862935313042 0.12986698634362279 0 0.37516171960683908 0.121918126660369 0 0.5133022293955174 0.064893331803591428 0 0.52499999999875446 0.029444907164469181 0 0.55993888817186677 0.043612803661174412 0 0.064893331803534807 0.48669777060454478 0 0.029444907164209121 0.47500000000196552 0 0.043612803661092707 0.44006111182840391 0 0.93510666819640953 0.51330222939551939 0 0.97055509283553232 0.52499999999875435 0 0.95638719633882641 0.5599388881718611 0 0.48669777060454272 0.93510666819646593 0 0.47500000000196563 0.970555092835793 0 0.44006111182840962 0.9563871963389079 0 0.56759263990989184 0.81794319034601648 0 0.54047998161173716 0.84333512669480526 0 0.53770425635794761 0.80104587463999666 0 0.18205680965398621 0.56759263990989739 0 0.1566648733051971 0.54047998161174216 0 0.1989632851005598 0.53769147668950479 0 0.81794319034597418 0.43240736009009317 0 0.84333218736938698 0.4595365182652234 0 0.80106707846564795 0.46230714888029367 0 0.43240736009008851 0.18205680965402779 0 0.45952001838826873 0.15666487330524251 0 0.46229330881044273 0.19890916456654811 0 0.50333998054938722 0.50119715791968966 0 0.47974773860103892 0.54872726831320284 0 0.45293656999117771 0.51494832297079129 0 0.73982803480991577 0.79629608696991705 0 0.69892030930712212 0.7971997999085858 0 0.71159714897733284 0.75039044679290845 0 0.20370391303007401 0.73982803480989479 0 0.2028002000914135 0.69892030930711557 0 0.249609553207091 0.71159714897732929 0 0.79629608696994103 0.26017196519011448 0 0.7971997999085878 0.3010796906928917 0 0.75039044679291111 0.28840285102267788 0 0.26017196519013502 0.20370391303005 0 0.30107969069289831 0.20280020009141189 0 0.28840285102268098 0.24960955320708811 0 0.43087117257049001 0.8215422551712771 0 0.40481452396081791 0.85130421228141606 0 0.38703015239361932 0.80283068154761972 0 0.36030748482174152 0.84598529912882459 0 0.38703015239361932 0.80283068154761972 0 0.40481452396081791 0.85130421228141606 0 0.17845774482872559 0.43087117257049429 0 0.14869578771858949 0.40481452396082068 0 0.197169318452384 0.38703015239362498 0 0.8215422551712277 0.56912882742954496 0 0.85130417396420255 0.59518556406638579 0 0.8028306815476034 0.61296984760642026 0 0.84598529912884157 0.63969251517827153 0 0.8028306815476034 0.61296984760642026 0 0.85130417396420255 0.59518556406638579 0 0.15401470087117619 0.36030748482174652 0 0.197169318452384 0.38703015239362498 0 0.14869578771858949 0.40481452396082068 0 0.56912882742954041 0.17845774482877461 0 0.59518547603920147 0.14869578771864489 0 0.61296984760641449 0.19716931845240021 0 0.63969251517826664 0.15401470087115929 0 0.61296984760641449 0.19716931845240021 0 0.59518547603920147 0.14869578771864489 0 0.6519524273377173 0.64249931920594539 0 0.65501639383771026 0.594528181397324 0 0.69288637798153729 0.61204665218001397 0 0.6424993192059415 0.3480475726622802 0 0.59596170682035776 0.34609402305862419 0 0.61204665218000809 0.30711362201846659 0 0.35944937237716967 0.65164789808436319 0 0.40564717507982689 0.65626423320524974 0 0.38642358467307758 0.69286258923597266 0 0.90045039720880915 0.9020090423547924 0 0.85174853583809862 0.87705234031428159 0 0.88962265630811221 0.85311725681459705 0 0.097990957645208238 0.90045039720880915 0 0.1229476596857173 0.85174853583809695 0 0.14688274318541941 0.88962265630811932 0 0.90082758526900886 0.098076845682916511 0 0.88777909259956078 0.1484760565886154 0 0.8517485358380722 0.12294765968568611 0 0.098076845682915317 0.099172414730993488 0 0.1484760565886207 0.1122209074004519 0 0.12294765968567151 0.14825146416195439 0 0.35815651743779398 0.51113440447909086 0 0.33436424489304489 0.47849603121740791 0 0.37702386074717259 0.45819417564476811 0 0.92670321183853355 0.65773042910151081 0 0.94635952848698612 0.71209247961721311 0 0.90051880305432697 0.69261863673346957 0 0.65773042910151891 0.073296788161472337 0 0.71174922810186925 0.053730171687687178 0 0.69253601466723103 0.09949211948105087 0 0.3422695708985129 0.92670321183858773 0 0.28790752038294382 0.94635952848702642 0 0.30738136326657722 0.90051880305435028 0 0.073296788161418117 0.34226957089850552 0 0.053730171687646627 0.28825077189828552 0 0.099492119481027347 0.30746398533281638 0 0.43565339604028508 0.55159384357101338 0 0.45293656999117771 0.51494832297079129 0 0.47974773860103892 0.54872726831320284 0 0.33382663527330159 0.44130125047503482 0 0.2963043386970643 0.4298320229681446 0 0.30597655500381687 0.3934681685211931 0 1 0.69999999999921003 0 0.94635952848698612 0.71209247961721311 0 0.96779701826738695 0.67105375815842694 0 0.69999999999921003 0 0 0.71174922810186925 0.053730171687687178 0 0.67098510785536181 0.032220921767549461 0 0.30000000000124832 1 0 0.28790752038294382 0.94635952848702642 0 0.32894624184180998 0.96779701826738929 0 0 0.30000000000124832 0 0.053730171687646627 0.28825077189828552 0 0.032220921767546963 0.32901489214487523 0 0.56759263990989184 0.81794319034601648 0 0.57578062281532438 0.77751665353176347 0 0.61896574319320252 0.795216048370321 0 0.59819537371016407 0.74380966024143391 0 0.61896574319320252 0.795216048370321 0 0.57578062281532438 0.77751665353176347 0 0.25619033975856881 0.59819537371016862 0 0.2047839516296828 0.61896574319320252 0 0.2224870800581388 0.57577541371134155 0 0.18205680965398621 0.56759263990989739 0 0.2224870800581388 0.57577541371134155 0 0.2047839516296828 0.61896574319320252 0 0.74380966024142703 0.40180462628984132 0 0.79521604837030013 0.38103425680679831 0 0.77752557158083724 0.42422273168818408 0 0.81794319034597418 0.43240736009009317 0 0.77752557158083724 0.42422273168818408 0 0.79521604837030013 0.38103425680679831 0 0.40180462628983732 0.2561903397585753 0 0.38103425680679859 0.2047839516297037 0 0.42421838472613971 0.22246502005787769 0 0.43240736009008851 0.18205680965402779 0 0.42421838472613971 0.22246502005787769 0 0.38103425680679859 0.2047839516297037 0 0.63969251517836323 0.84598529912890386 0 0.6027107599280892 0.83436006790502326 0 0.61896574319320252 0.795216048370321 0 0.1540147008710982 0.63969251517836956 0 0.1656399320949789 0.60271075992809464 0 0.2047839516296828 0.61896574319320252 0 0.84598529912889664 0.36030748482164038 0 0.83436006790498052 0.39728924007189959 0 0.79521604837030013 0.38103425680679831 0 0.3603074848216346 0.15401470087110539 0 0.3972892400718947 0.16563993209502181 0 0.38103425680679859 0.2047839516297037 0 0.53432142347292233 0.88563193847251998 0 0.58267137064684116 0.87013301365640838 0 0.56877264426066887 0.91182300080710277 0 0.1143680615274819 0.53432142347292733 0 0.12986698634359389 0.58267137064684615 0 0.088176999192898689 0.56877264426067353 0 0.91890123454466932 0.39094742729597309 0 0.90991454156957952 0.4312731559748802 0 0.87012666750595846 0.41743873185103042 0 0.46567857652706018 0.1143680615275231 0 0.41732862935313042 0.12986698634362279 0 0.43122735573933979 0.088176999192917438 0 0.60938371359314658 0.91847489683800321 0 0.56877264426066887 0.91182300080710277 0 0.58267137064684116 0.87013301365640838 0 0.081525103161997597 0.6093837135931508 0 0.088176999192898689 0.56877264426067353 0 0.12986698634359389 0.58267137064684615 0 0.88561059063756964 0.46572761956237563 0 0.87012666750595846 0.41743873185103042 0 0.90991454156957952 0.4312731559748802 0 0.39061628640684498 0.081525103161991672 0 0.43122735573933979 0.088176999192917438 0 0.41732862935313042 0.12986698634362279 0 0.56759263990989184 0.81794319034601648 0 0.6027107599280892 0.83436006790502326 0 0.58267137064684116 0.87013301365640838 0 0.18205680965398621 0.56759263990989739 0 0.1656399320949789 0.60271075992809464 0 0.12986698634359389 0.58267137064684615 0 0.81794319034597418 0.43240736009009317 0 0.83436006790498052 0.39728924007189959 0 0.87012666750595846 0.41743873185103042 0 0.43240736009008851 0.18205680965402779 0 0.3972892400718947 0.16563993209502181 0 0.41732862935313042 0.12986698634362279 0 0.77998481823117694 0.71397317153691997 0 0.78651189793386345 0.75664155808652755 0 0.74917861927654894 0.74229989257760443 0 0.28602682846308641 0.77998481823117594 0 0.24335844191347281 0.78651189793387466 0 0.25770010742238642 0.74917861927655205 0 0.71397317153692708 0.22001518176882201 0 0.7582555232258138 0.2115548431873896 0 0.74229989257762263 0.250821380723454 0 0.22001518176882229 0.28602682846307981 0 0.2115548431873881 0.2417444767741872 0 0.25082138072344978 0.25770010742236849 0 0.8215422551712277 0.56912882742954496 0 0.78031198216143516 0.56693216359979737 0 0.80781854240107975 0.53406203754901738 0 0.43087117257049001 0.8215422551712771 0 0.43306783640023289 0.78031198216144404 0 0.46593838964869061 0.80781872835503554 0 0.56912882742954041 0.17845774482877461 0 0.56683314878414581 0.21944955250104689 0 0.53404982287327418 0.19215288291432539 0 0.17845774482872559 0.43087117257049429 0 0.21968801783855879 0.43306783640023788 0 0.19218127164496679 0.46593838964869538 0 0.92670321183853355 0.65773042910151081 0 0.96779701826738695 0.67105375815842694 0 0.94635952848698612 0.71209247961721311 0 0.65773042910151891 0.073296788161472337 0 0.67098510785536181 0.032220921767549461 0 0.71174922810186925 0.053730171687687178 0 0.3422695708985129 0.92670321183858773 0 0.32894624184180998 0.96779701826738929 0 0.28790752038294382 0.94635952848702642 0 0.073296788161418117 0.34226957089850552 0 0.032220921767546963 0.32901489214487523 0 0.053730171687646627 0.28825077189828552 0 0.51484304721220842 0.69707233951836334 0 0.46736891737654429 0.70015537930374983 0 0.47818752133962877 0.66454462905280853 0 0.30292766048163949 0.51484304721221474 0 0.29988655052531688 0.46700727827593119 0 0.33436424489304489 0.47849603121740791 0 0.53432142347292233 0.88563193847251998 0 0.52425337578225772 0.9223731761594427 0 0.48758069708049379 0.89080072540186539 0 0.1143680615274819 0.53432142347292733 0 0.07762682384055844 0.52425337578226128 0 0.1091992745981364 0.48758069708049778 0 0.88561059063756964 0.46572761956237563 0 0.92203742772043751 0.47579485578641628 0 0.89079805168298443 0.51242544533572376 0 0.46567857652706018 0.1143680615275231 0 0.47574662421782782 0.077626823840590969 0 0.51241930291950477 0.1091992745981813 0 0.49189101320880302 0.59024331187324797 0 0.47974773860103892 0.54872726831320284 0 0.53087311892591971 0.55299263141448529 0 0.81709574086843206 0.91318696080656769 0 0.78020430794084783 0.88768307197553598 0 0.81306033001437827 0.8677384967307622 0 0.086813039193431391 0.81709574086842884 0 0.11231692802445629 0.78020430794084028 0 0.1322615032692282 0.8130603300143705 0 0.90045039720880915 0.9020090423547924 0 0.85382799508926477 0.91295829388058414 0 0.85174853583809862 0.87705234031428159 0 0.097990957645208238 0.90045039720880915 0 0.087041706119416085 0.85382799508926188 0 0.1229476596857173 0.85174853583809695 0 0.82118136511706341 0.082875076569723011 0 0.86148619541339633 0.089689702191568438 0 0.8517485358380722 0.12294765968568611 0 0.08287507656968085 0.1788186348829835 0 0.089689702191541126 0.13851380458662241 0 0.12294765968567151 0.14825146416195439 0 0.56759263990989184 0.81794319034601648 0 0.61896574319320252 0.795216048370321 0 0.6027107599280892 0.83436006790502326 0 0.18205680965398621 0.56759263990989739 0 0.2047839516296828 0.61896574319320252 0 0.1656399320949789 0.60271075992809464 0 0.81794319034597418 0.43240736009009317 0 0.79521604837030013 0.38103425680679831 0 0.83436006790498052 0.39728924007189959 0 0.43240736009008851 0.18205680965402779 0 0.38103425680679859 0.2047839516297037 0 0.3972892400718947 0.16563993209502181 0 0.91838802593870927 0.18172590289757809 0 0.87355793346388477 0.18922011052113649 0 0.88777909259956078 0.1484760565886154 0 0.18172590289758209 0.08161197406129285 0 0.18922011052115781 0.12644206653611201 0 0.1484760565886207 0.1122209074004519 0 0.50333998054938722 0.50119715791968966 0 0.46152714345798918 0.47344359412352599 0 0.50753758205811061 0.4506562873613274 0 0.46102425708533701 0.43254199134332588 0 0.50753758205811061 0.4506562873613274 0 0.46152714345798918 0.47344359412352599 0 0.70252050881959183 0.70358884261915833 0 0.67626275269587088 0.72713741921009012 0 0.6768914574865772 0.67861120078714243 0 0.29641115738084339 0.70252050881958938 0 0.27349656744860212 0.67581741996408695 0 0.32259853082073792 0.67670072609835186 0 0.70358884261915744 0.29747949118041561 0 0.72713741921008324 0.32373724730413678 0 0.6786112007871401 0.32310854251343019 0 0.29747949118041711 0.2964111573808435 0 0.32373692627050221 0.27286413781593999 0 0.3231032570156932 0.32141443408924047 0 0.43301393728221038 0.35984320557492139 0 0.39222057657781068 0.38067796690227418 0 0.39120887188745579 0.33407577688404289 0 0.48669777060454272 0.93510666819646593 0 0.48758069708049379 0.89080072540186539 0 0.52425337578225772 0.9223731761594427 0 0.064893331803534807 0.48669777060454478 0 0.1091992745981364 0.48758069708049778 0 0.07762682384055844 0.52425337578226128 0 0.93510666819640953 0.51330222939551939 0 0.89079805168298443 0.51242544533572376 0 0.92203742772043751 0.47579485578641628 0 0.5133022293955174 0.064893331803591428 0 0.51241930291950477 0.1091992745981813 0 0.47574662421782782 0.077626823840590969 0 0.4434591735942961 0.66641640622551224 0 0.42715538333808079 0.70077759375307946 0 0.40564717507982689 0.65626423320524974 0 0.38642358467307758 0.69286258923597266 0 0.40564717507982689 0.65626423320524974 0 0.42715538333808079 0.70077759375307946 0 0.57387636360620708 0.54318431390135336 0 0.554170140907293 0.50922353359177785 0 0.59621567360238914 0.5184866806641607 0 0.84999999999965292 1 0 0.79999999999999982 1 0 0.82675923981951416 0.95611053755456221 0 0 0.84999999999965292 0 0 0.79999999999999982 0 0.043889462445437968 0.82675923981951283 0 1 0.14999999999970359 0 1 0.19999999999955789 0 0.96080966346491015 0.18035159017841959 0 0.14999999999970359 0 0 0.19999999999955789 0 0 0.18035159017842109 0.039190336535090492 0 1 0.79999999999947335 0 1 0.84999999999960507 0 0.96071093996985157 0.81954008780615684 0 0.79999999999947335 0 0 0.84999999999960507 0 0 0.82050174006822896 0.038839999600956771 0 0.20000000000083221 1 0 0.15000000000062411 1 0 0.18045991219397989 0.960710939969875 0 0 0.20000000000083221 0 0 0.15000000000062411 0 0.038839999600931263 0.17949825993190149 0 0.64518564541690571 0.69601563325001548 0 0.6768914574865772 0.67861120078714243 0 0.67626275269587088 0.72713741921009012 0 0.30421635384321521 0.64514939193436716 0 0.32259853082073792 0.67670072609835186 0 0.27349656744860212 0.67581741996408695 0 0.69601563325001248 0.35481435458309712 0 0.6786112007871401 0.32310854251343019 0 0.72713741921008324 0.32373724730413678 0 0.35481435458309307 0.30398436674998969 0 0.3231032570156932 0.32141443408924047 0 0.32373692627050221 0.27286413781593999 0 0.49771727055908782 0.83998685797641781 0 0.48758069708049379 0.89080072540186539 0 0.45353891581270822 0.85551523377818905 0 0.16001314202358469 0.49771727055909287 0 0.1091992745981364 0.48758069708049778 0 0.1444847662218138 0.45353891581271188 0 0.83998574657308889 0.50228528270184081 0 0.89079805168298443 0.51242544533572376 0 0.85551478316835361 0.54646211938695222 0 0.50228272944093777 0.16001314202359701 0 0.51241930291950477 0.1091992745981813 0 0.54646108418729233 0.1444847662218687 0 0.70252050881959183 0.70358884261915833 0 0.6768914574865772 0.67861120078714243 0 0.71518943060973483 0.65679402931717101 0 0.29641115738084339 0.70252050881958938 0 0.32259853082073792 0.67670072609835186 0 0.34270280102445921 0.71672416762035873 0 0.70358884261915744 0.29747949118041561 0 0.6786112007871401 0.32310854251343019 0 0.65679402931716913 0.28481056939027388 0 0.29747949118041711 0.2964111573808435 0 0.3231032570156932 0.32141443408924047 0 0.28473805236128291 0.34355768118673757 0 0.92670321183853355 0.65773042910151081 0 0.96654491682122368 0.6363613838740827 0 0.96779701826738695 0.67105375815842694 0 0.65773042910151891 0.073296788161472337 0 0.63635157668793507 0.033457646040912177 0 0.67098510785536181 0.032220921767549461 0 0.073296788161418117 0.34226957089850552 0 0.033457646040922301 0.36364842331228431 0 0.032220921767546963 0.32901489214487523 0 0.3422695708985129 0.92670321183858773 0 0.36363861612613613 0.96654491682121313 0 0.32894624184180998 0.96779701826738929 0 1 0.64999999999907843 0 1 0.69999999999921003 0 0.96779701826738695 0.67105375815842694 0 0.64999999999907843 0 0 0.69999999999921003 0 0 0.67098510785536181 0.032220921767549461 0 0.35000000000145642 1 0 0.30000000000124832 1 0 0.32894624184180998 0.96779701826738929 0 0 0.35000000000145642 0 0 0.30000000000124832 0 0.032220921767546963 0.32901489214487523 0 0 0.40000000000166441 0 0 0.35000000000145642 0 0.033457646040922301 0.36364842331228431 0 0.40000000000166441 1 0 0.35000000000145642 1 0 0.36363861612613613 0.96654491682121313 0 0.59999999999894682 0 0 0.64999999999907843 0 0 0.63635157668793507 0.033457646040912177 0 1 0.59999999999894682 0 1 0.64999999999907843 0 0.96654491682122368 0.6363613838740827 0 0.81709574086843206 0.91318696080656769 0 0.85174853583809862 0.87705234031428159 0 0.85382799508926477 0.91295829388058414 0 0.086813039193431391 0.81709574086842884 0 0.1229476596857173 0.85174853583809695 0 0.087041706119416085 0.85382799508926188 0 0.90082758526900886 0.098076845682916511 0 0.8517485358380722 0.12294765968568611 0 0.86148619541339633 0.089689702191568438 0 0.098076845682915317 0.099172414730993488 0 0.12294765968567151 0.14825146416195439 0 0.089689702191541126 0.13851380458662241 0 0.59819537371016407 0.74380966024143391 0 0.6083790122881827 0.70496300707145865 0 0.64203711532612107 0.74316477213290444 0 0.64518564541690571 0.69601563325001548 0 0.64203711532612107 0.74316477213290444 0 0.6083790122881827 0.70496300707145865 0 0.25619033975856881 0.59819537371016862 0 0.29503699292854352 0.60837901228818936 0 0.25684529255773247 0.64203554247963057 0 0.30421635384321521 0.64514939193436716 0 0.25684529255773247 0.64203554247963057 0 0.29503699292854352 0.60837901228818936 0 0.74380966024142703 0.40180462628984132 0 0.70496300707145554 0.39162098771181952 0 0.74316477213289889 0.35796288467388632 0 0.69601563325001248 0.35481435458309712 0 0.74316477213289889 0.35796288467388632 0 0.70496300707145554 0.39162098771181952 0 0.40180462628983732 0.2561903397585753 0 0.39162098771181342 0.29503699292854563 0 0.3579628846738841 0.25683522786710378 0 0.35481435458309307 0.30398436674998969 0 0.3579628846738841 0.25683522786710378 0 0.39162098771181342 0.29503699292854563 0 0.8289812646369813 0.82898126463698818 0 0.85174853583809862 0.87705234031428159 0 0.81306033001437827 0.8677384967307622 0 0.17101873536300011 0.82898126463696109 0 0.1229476596857173 0.85174853583809695 0 0.1322615032692282 0.8130603300143705 0 0.8215422551712277 0.56912882742954496 0 0.85551478316835361 0.54646211938695222 0 0.85130417396420255 0.59518556406638579 0 0.43087117257049001 0.8215422551712771 0 0.45353891581270822 0.85551523377818905 0 0.40481452396081791 0.85130421228141606 0 0.56912882742954041 0.17845774482877461 0 0.54646108418729233 0.1444847662218687 0 0.59518547603920147 0.14869578771864489 0 0.17845774482872559 0.43087117257049429 0 0.1444847662218138 0.45353891581271188 0 0.14869578771858949 0.40481452396082068 0 0.49854341599767982 0.37075914768127122 0 0.46543211128216788 0.38788423543681888 0 0.47253211736503098 0.34081710830804929 0 0.43301393728221038 0.35984320557492139 0 0.47253211736503098 0.34081710830804929 0 0.46543211128216788 0.38788423543681888 0 0.36030748482174152 0.84598529912882459 0 0.40481452396081791 0.85130421228141606 0 0.37839190921727062 0.89064679688614412 0 0.84598529912884157 0.63969251517827153 0 0.85130417396420255 0.59518556406638579 0 0.89064679688610338 0.6216080907827598 0 0.15401470087117619 0.36030748482174652 0 0.14869578771858949 0.40481452396082068 0 0.10935320311385981 0.37839190921727089 0 0.63969251517826664 0.15401470087115929 0 0.59518547603920147 0.14869578771864489 0 0.62160809078275991 0.1093532031139005 0 0.64455163611866495 0.50369301794551069 0 0.61866949026800744 0.55492322767366287 0 0.59621567360238914 0.5184866806641607 0 0.64518564541690571 0.69601563325001548 0 0.6083790122881827 0.70496300707145865 0 0.60879112811253555 0.66592422311595834 0 0.30421635384321521 0.64514939193436716 0 0.29503699292854352 0.60837901228818936 0 0.33231497408081678 0.60779218732873663 0 0.69601563325001248 0.35481435458309712 0 0.70496300707145554 0.39162098771181952 0 0.66346942254826746 0.391530810754116 0 0.35481435458309307 0.30398436674998969 0 0.39162098771181342 0.29503699292854563 0 0.39120887188745579 0.33407577688404289 0 0.39507969989512881 0.74417394063201048 0 0.38703015239361932 0.80283068154761972 0 0.35837423432538362 0.77730446904312345 0 0.74417394063200648 0.6049203001048884 0 0.8028306815476034 0.61296984760642026 0 0.77730446904309636 0.64162576567462737 0 0.25582605936799319 0.39507969989513358 0 0.197169318452384 0.38703015239362498 0 0.22269553095687891 0.35837423432538801 0 0.60492030010488373 0.25582605936799729 0 0.61296984760641449 0.19716931845240021 0 0.64162576567462404 0.22269553095690481 0 0.46102425708533701 0.43254199134332588 0 0.46152714345798918 0.47344359412352599 0 0.42340342337193693 0.44762131874855388 0 0.5586987495249669 0.33382663527330653 0 0.52929435216580312 0.29671213472503383 0 0.57188338999077359 0.29874123486230147 0 0.58981073711177334 0.48140931020849848 0 0.554170140907293 0.50922353359177785 0 0.54783891860069212 0.46640164214823893 0 0.35944937237716967 0.65164789808436319 0 0.33231497408081678 0.60779218732873663 0 0.37104651296145419 0.60545170748311072 0 0.58981073711177334 0.48140931020849848 0 0.59621567360238914 0.5184866806641607 0 0.554170140907293 0.50922353359177785 0 0.55000000000173355 1 0 0.50000000000205869 1 0 0.51507566941747085 0.9626786017237855 0 0 0.55000000000173355 0 0 0.50000000000205869 0 0.037321398276215258 0.51507566941747263 0 1 0.44999999999882923 0 1 0.49999999999869432 0 0.96266688603193029 0.48495124540067203 0 0.44999999999882923 0 0 0.49999999999869432 0 0 0.48492433058289169 0.037321398276272413 0 0.78031198216143516 0.56693216359979737 0 0.76797069865873757 0.53315993670164308 0 0.80781854240107975 0.53406203754901738 0 0.43306783640023289 0.78031198216144404 0 0.46634612187967051 0.76767585524061377 0 0.46593838964869061 0.80781872835503554 0 0.56683314878414581 0.21944955250104689 0 0.53265327255359129 0.23135454206919101 0 0.53404982287327418 0.19215288291432539 0 0.21968801783855879 0.43306783640023788 0 0.23232476702437141 0.46634525369567709 0 0.19218127164496679 0.46593838964869538 0 0.5586987495249669 0.33382663527330653 0 0.51491507395299929 0.3326740076510219 0 0.52929435216580312 0.29671213472503383 0 0.43565339604028508 0.55159384357101338 0 0.47974773860103892 0.54872726831320284 0 0.45030222762303879 0.58443295115431027 0 0.50333998054938722 0.50119715791968966 0 0.45293656999117771 0.51494832297079129 0 0.46152714345798918 0.47344359412352599 0 0 0 0 0.032369857048753323 0.032369857048862027 0 0 0.050000000000207989 0 1 0 0 0.96763014295114425 0.032369857048773903 0 0.94999999999986839 0 0 1 0 0 1 0.049999999999899652 0 0.96763014295114425 0.032369857048773903 0 0 0 0 0.049999999999899652 0 0 0.032369857048753323 0.032369857048862027 0 1 1 0 0.94999999999979179 1 0 0.96763014295120153 0.96763014295122851 0 1 1 0 0.96763014295120153 0.96763014295122851 0 1 0.94999999999986839 0 0 1 0 0.030452409610489669 0.96954759038951022 0 0.050000000000207989 1 0 0 1 0 0 0.94999999999979179 0 0.030452409610489669 0.96954759038951022 0 0.35984320557492089 0.56698606271778873 0 0.39982789553993509 0.53462762214740622 0 0.40468198875170619 0.57637931869191572 0 0.41009598069569558 0.49083935749285379 0 0.37702386074717259 0.45819417564476811 0 0.42340342337193693 0.44762131874855388 0 0.39419886675318527 0.41912225240070788 0 0.42340342337193693 0.44762131874855388 0 0.37702386074717259 0.45819417564476811 0 0.60938371359314658 0.91847489683800321 0 0.63753756910470316 0.95578163339252209 0 0.5931441817276254 0.95886012268751675 0 0.081525103161997597 0.6093837135931508 0 0.04421836660747535 0.63753756910470205 0 0.041139877312483641 0.59314418172763017 0 0.91890123454466932 0.39094742729597309 0 0.95581270756939096 0.36248656652865863 0 0.95886012268748921 0.4068558182724159 0 0.39061628640684498 0.081525103161991672 0 0.36246243089534252 0.044218366607477223 0 0.40685581827241191 0.041139877312511682 0 0.66820316019503978 0.77769800602796979 0 0.67626275269587088 0.72713741921009012 0 0.71159714897733284 0.75039044679290845 0 0.22230199397202771 0.66820316019503168 0 0.27349656744860212 0.67581741996408695 0 0.249609553207091 0.71159714897732929 0 0.77769800602796679 0.33179683980497482 0 0.72713741921008324 0.32373724730413678 0 0.75039044679291111 0.28840285102267788 0 0.33179683980498331 0.2223019939720311 0 0.32373692627050221 0.27286413781593999 0 0.28840285102268098 0.24960955320708811 0 0.54901591374940373 0.42306523525165751 0 0.54783891860069212 0.46640164214823893 0 0.50753758205811061 0.4506562873613274 0 0.34804757266227387 0.35750068079406011 0 0.39120887188745579 0.33407577688404289 0 0.39222057657781068 0.38067796690227418 0 0.7000000000006934 1 0 0.6766004019857832 0.9676421564932749 0 0.71789175274016548 0.95136708251202151 0 0 0.7000000000006934 0 0.032357843506722522 0.67660040198578164 0 0.04863291748797445 0.71789175274016204 0 0.67757268808231397 0.93106206656183088 0 0.71789175274016548 0.95136708251202151 0 0.6766004019857832 0.9676421564932749 0 0.068937933438162791 0.67757268808231053 0 0.04863291748797445 0.71789175274016204 0 0.032357843506722522 0.67660040198578164 0 1 0.29999999999926641 0 0.96720628700974665 0.32362438565954771 0 0.94915666091748963 0.28320804985299752 0 0.29999999999926641 0 0 0.32361955853288599 0.032799927825624707 0 0.28320804985300141 0.050843339082505573 0 0.93106206656185309 0.32242731191769503 0 0.94915666091748963 0.28320804985299752 0 0.96720628700974665 0.32362438565954771 0 0.32242731191769902 0.068937933438140794 0 0.28320804985300141 0.050843339082505573 0 0.32361955853288599 0.032799927825624707 0 0.91838802593884228 0.81827409710237209 0 0.87660297360393757 0.8104127896505644 0 0.9041449437197947 0.7786886066890556 0 0.1817259028976386 0.91838802593888857 0 0.18958721034944021 0.87660297360394568 0 0.22131139331094829 0.9041449437198319 0 0.76395804595204597 0.67808171673060369 0 0.77730446904309636 0.64162576567462737 0 0.80847852346122429 0.67208120229789559 0 0.32191828326940508 0.76395804595204586 0 0.35837423432538362 0.77730446904312345 0 0.32791879770213411 0.80847852346120164 0 0.67808171673060202 0.23604195404795861 0 0.64162576567462404 0.22269553095690481 0 0.67208120229787616 0.1915214765387884 0 0.2360419540479583 0.32191828326940741 0 0.22269553095687891 0.35837423432538801 0 0.19152147653881049 0.32791879770215432 0 0.82118136511706341 0.082875076569723011 0 0.8110316677333288 0.125875177082863 0 0.77925951159456153 0.09969477121230251 0 0.08287507656968085 0.1788186348829835 0 0.12587517708284679 0.1889683322666954 0 0.099694771212264055 0.22074048840547039 0 0.43301393728221038 0.35984320557492139 0 0.46543211128216788 0.38788423543681888 0 0.42930823106401639 0.40626685012722968 0 0.43590673999053309 0.90289902042279657 0 0.45353891581270822 0.85551523377818905 0 0.48758069708049379 0.89080072540186539 0 0.097100979577207341 0.43590673999053198 0 0.1444847662218138 0.45353891581271188 0 0.1091992745981364 0.48758069708049778 0 0.90289902042272274 0.56409326000946114 0 0.85551478316835361 0.54646211938695222 0 0.89079805168298443 0.51242544533572376 0 0.56409326000946236 0.097100979577281268 0 0.54646108418729233 0.1444847662218687 0 0.51241930291950477 0.1091992745981813 0 0.51484304721220842 0.69707233951836334 0 0.49073113440598592 0.73759004618730417 0 0.46736891737654429 0.70015537930374983 0 0.44764943295894188 0.73752415265401661 0 0.46736891737654429 0.70015537930374983 0 0.49073113440598592 0.73759004618730417 0 0.30292766048163949 0.51484304721221474 0 0.262418491288269 0.49071922292154141 0 0.29988655052531688 0.46700727827593119 0 0.26247584734598628 0.44764943295894732 0 0.29988655052531688 0.46700727827593119 0 0.262418491288269 0.49071922292154141 0 0.70015119067225129 0.48481914991727459 0 0.73815142352639962 0.50697050072007344 0 0.69798396601998558 0.5289734597937793 0 0.73752415265401194 0.55235056704108476 0 0.69798396601998558 0.5289734597937793 0 0.73815142352639962 0.50697050072007344 0 0.67757268808231397 0.93106206656183088 0 0.6441774148058701 0.91458123574274031 0 0.66923299355723143 0.8804077449518628 0 0.068937933438162791 0.67757268808231053 0 0.085418764257258195 0.64417741480586865 0 0.1195922550481313 0.66923299355722787 0 0.93106206656185309 0.32242731191769503 0 0.91286712511202617 0.35637271447129198 0 0.88040774495187946 0.33076700644278889 0 0.32242731191769902 0.068937933438140794 0 0.35582258519414178 0.085418764257258431 0 0.33076700644279272 0.1195922550481146 0 0.63969251517836323 0.84598529912890386 0 0.66923299355723143 0.8804077449518628 0 0.62483828039315681 0.8780818733396436 0 0.1540147008710982 0.63969251517836956 0 0.1195922550481313 0.66923299355722787 0 0.1219181266603569 0.62483828039315903 0 0.84598529912889664 0.36030748482164038 0 0.88040774495187946 0.33076700644278889 0 0.87815187193233801 0.37523526017134418 0 0.3603074848216346 0.15401470087110539 0 0.33076700644279272 0.1195922550481146 0 0.37516171960683908 0.121918126660369 0 0.46102425708533701 0.43254199134332588 0 0.5047849391802508 0.40719950955717021 0 0.50753758205811061 0.4506562873613274 0 0.85607519768343354 0.69380468830529196 0 0.88396545633132484 0.6625197322180193 0 0.90051880305432697 0.69261863673346957 0 0.30619531169472608 0.85607519768342955 0 0.33748026778199908 0.88396545633134682 0 0.30738136326657722 0.90051880305435028 0 0.69379929796456197 0.14392209494791061 0 0.66251865414987876 0.1160340021949529 0 0.69253601466723103 0.09949211948105087 0 0.14392209494791439 0.30620070203545702 0 0.11603400219493119 0.33748134585014028 0 0.099492119481027347 0.30746398533281638 0 0.78284912262770068 0.83746308049763585 0 0.81306033001437827 0.8677384967307622 0 0.78020430794084783 0.88768307197553598 0 0.16253691950235041 0.78284912262768558 0 0.1322615032692282 0.8130603300143705 0 0.11231692802445629 0.78020430794084028 0 0.66820316019503978 0.77769800602796979 0 0.64203711532612107 0.74316477213290444 0 0.67626275269587088 0.72713741921009012 0 0.22230199397202771 0.66820316019503168 0 0.25684529255773247 0.64203554247963057 0 0.27349656744860212 0.67581741996408695 0 0.77769800602796679 0.33179683980497482 0 0.74316477213289889 0.35796288467388632 0 0.72713741921008324 0.32373724730413678 0 0.33179683980498331 0.2223019939720311 0 0.3579628846738841 0.25683522786710378 0 0.32373692627050221 0.27286413781593999 0 0.4434591735942961 0.66641640622551224 0 0.45517457031814612 0.62743100079604397 0 0.47818752133962877 0.66454462905280853 0 0.7000000000006934 1 0 0.65000000000104008 1 0 0.6766004019857832 0.9676421564932749 0 0 0.7000000000006934 0 0 0.65000000000104008 0 0.032357843506722522 0.67660040198578164 0 1 0.29999999999926641 0 1 0.34999999999912063 0 0.96720628700974665 0.32362438565954771 0 0.29999999999926641 0 0 0.34999999999912063 0 0 0.32361955853288599 0.032799927825624707 0 0.49854341599767982 0.37075914768127122 0 0.47253211736503098 0.34081710830804929 0 0.51491507395299929 0.3326740076510219 0 0.50000000000205869 1 0 0.45000000000187229 1 0 0.47500000000196563 0.970555092835793 0 0 0.50000000000205869 0 0 0.45000000000187229 0 0.029444907164209121 0.47500000000196552 0 1 0.49999999999869432 0 1 0.5499999999988151 0 0.97055509283553232 0.52499999999875435 0 0.49999999999869432 0 0 0.5499999999988151 0 0 0.52499999999875446 0.029444907164469181 0 0.91838802593870927 0.18172590289757809 0 0.89556054516486661 0.21720615046483649 0 0.87355793346388477 0.18922011052113649 0 0.18172590289758209 0.08161197406129285 0 0.21720615046484709 0.1044394548351292 0 0.18922011052115781 0.12644206653611201 0 0.48378871228000903 0.29745177826977359 0 0.51491507395299929 0.3326740076510219 0 0.47253211736503098 0.34081710830804929 0 0.58981073711177334 0.48140931020849848 0 0.59313386551587477 0.43977047843653239 0 0.62619054498681193 0.46482944251856079 0 0.640156794425081 0.43301393728221721 0 0.62619054498681193 0.46482944251856079 0 0.59313386551587477 0.43977047843653239 0 0 0.45000000000187229 0 0.043612803661092707 0.44006111182840391 0 0.029444907164209121 0.47500000000196552 0 0.45000000000187229 1 0 0.44006111182840962 0.9563871963389079 0 0.47500000000196563 0.970555092835793 0 0.5499999999988151 0 0 0.55993888817186677 0.043612803661174412 0 0.52499999999875446 0.029444907164469181 0 1 0.5499999999988151 0 0.95638719633882641 0.5599388881718611 0 0.97055509283553232 0.52499999999875435 0 0.57051182622447827 0.69668652018496713 0 0.60879112811253555 0.66592422311595834 0 0.6083790122881827 0.70496300707145865 0 0.30429740679959738 0.56913905146460098 0 0.33231497408081678 0.60779218732873663 0 0.29503699292854352 0.60837901228818936 0 0.69595787604187809 0.43071000156707989 0 0.66346942254826746 0.391530810754116 0 0.70496300707145554 0.39162098771181952 0 0.43059486795334201 0.30395973419063538 0 0.39120887188745579 0.33407577688404289 0 0.39162098771181342 0.29503699292854563 0 0.35984320557492089 0.56698606271778873 0 0.37104651296145419 0.60545170748311072 0 0.33231497408081678 0.60779218732873663 0 0.43565339604028508 0.55159384357101338 0 0.40468198875170619 0.57637931869191572 0 0.39982789553993509 0.53462762214740622 0 0.66820316019503978 0.77769800602796979 0 0.71159714897733284 0.75039044679290845 0 0.69892030930712212 0.7971997999085858 0 0.22230199397202771 0.66820316019503168 0 0.249609553207091 0.71159714897732929 0 0.2028002000914135 0.69892030930711557 0 0.77769800602796679 0.33179683980497482 0 0.75039044679291111 0.28840285102267788 0 0.7971997999085878 0.3010796906928917 0 0.33179683980498331 0.2223019939720311 0 0.28840285102268098 0.24960955320708811 0 0.30107969069289831 0.20280020009141189 0 0.34804757266227387 0.35750068079406011 0 0.39222057657781068 0.38067796690227418 0 0.35481422397128459 0.40312981465069342 0 0.67757268808231397 0.93106206656183088 0 0.66923299355723143 0.8804077449518628 0 0.70475631558365914 0.90098127745102974 0 0.068937933438162791 0.67757268808231053 0 0.1195922550481313 0.66923299355722787 0 0.099018722548963364 0.70475631558365193 0 0.93106206656185309 0.32242731191769503 0 0.88040774495187946 0.33076700644278889 0 0.89886191075654698 0.29506339503703172 0 0.32242731191769902 0.068937933438140794 0 0.33076700644279272 0.1195922550481146 0 0.29506339503703888 0.1011380892434444 0 0.53432142347292233 0.88563193847251998 0 0.56877264426066887 0.91182300080710277 0 0.52425337578225772 0.9223731761594427 0 0.1143680615274819 0.53432142347292733 0 0.088176999192898689 0.56877264426067353 0 0.07762682384055844 0.52425337578226128 0 0.46567857652706018 0.1143680615275231 0 0.43122735573933979 0.088176999192917438 0 0.47574662421782782 0.077626823840590969 0 0.39419886675318527 0.41912225240070788 0 0.35481422397128459 0.40312981465069342 0 0.39222057657781068 0.38067796690227418 0 1 0.49999999999869432 0 0.97055509283553232 0.52499999999875435 0 0.96266688603193029 0.48495124540067203 0 0.49999999999869432 0 0 0.52499999999875446 0.029444907164469181 0 0.48492433058289169 0.037321398276272413 0 0.93510666819640953 0.51330222939551939 0 0.96266688603193029 0.48495124540067203 0 0.97055509283553232 0.52499999999875435 0 0.5133022293955174 0.064893331803591428 0 0.48492433058289169 0.037321398276272413 0 0.52499999999875446 0.029444907164469181 0 0 0.50000000000205869 0 0.029444907164209121 0.47500000000196552 0 0.037321398276215258 0.51507566941747263 0 0.50000000000205869 1 0 0.47500000000196563 0.970555092835793 0 0.51507566941747085 0.9626786017237855 0 0.48669777060454272 0.93510666819646593 0 0.51507566941747085 0.9626786017237855 0 0.47500000000196563 0.970555092835793 0 0.064893331803534807 0.48669777060454478 0 0.037321398276215258 0.51507566941747263 0 0.029444907164209121 0.47500000000196552 0 0.55307204985744796 0.94819812235491685 0 0.52425337578225772 0.9223731761594427 0 0.56877264426066887 0.91182300080710277 0 0.051801877645083663 0.55307204985745195 0 0.07762682384055844 0.52425337578226128 0 0.088176999192898689 0.56877264426067353 0 0.44692795014265252 0.051801877645060238 0 0.47574662421782782 0.077626823840590969 0 0.43122735573933979 0.088176999192917438 0 0.70085728320704077 0.84350379029875056 0 0.66919832404887702 0.81820888699730587 0 0.69892030930712212 0.7971997999085858 0 0.1564962097012354 0.70085728320703999 0 0.1817911130026923 0.66919832404888702 0 0.2028002000914135 0.69892030930711557 0 0.84350379029877964 0.29914271679296989 0 0.8182088869973061 0.33080167595111531 0 0.7971997999085878 0.3010796906928917 0 0.29914271679297122 0.15649620970120659 0 0.33080167595110582 0.18179111300269291 0 0.30107969069289831 0.20280020009141189 0 0.33382663527330159 0.44130125047503482 0 0.37702386074717259 0.45819417564476811 0 0.33436424489304489 0.47849603121740791 0 0.44764943295894188 0.73752415265401661 0 0.46634612187967051 0.76767585524061377 0 0.43306783640023289 0.78031198216144404 0 0.73752415265401194 0.55235056704108476 0 0.76797069865873757 0.53315993670164308 0 0.78031198216143516 0.56693216359979737 0 0.26247584734598628 0.44764943295894732 0 0.23232476702437141 0.46634525369567709 0 0.21968801783855879 0.43306783640023788 0 0.55175647814720108 0.26104505532086641 0 0.53265327255359129 0.23135454206919101 0 0.56683314878414581 0.21944955250104689 0 0.65000000000104008 1 0 0.63753756910470316 0.95578163339252209 0 0.6766004019857832 0.9676421564932749 0 0 0.65000000000104008 0 0.04421836660747535 0.63753756910470205 0 0.032357843506722522 0.67660040198578164 0 1 0.34999999999912063 0 0.95581270756939096 0.36248656652865863 0 0.96720628700974665 0.32362438565954771 0 0.34999999999912063 0 0 0.36246243089534252 0.044218366607477223 0 0.32361955853288599 0.032799927825624707 0 0.67757268808231397 0.93106206656183088 0 0.6766004019857832 0.9676421564932749 0 0.63753756910470316 0.95578163339252209 0 0.068937933438162791 0.67757268808231053 0 0.032357843506722522 0.67660040198578164 0 0.04421836660747535 0.63753756910470205 0 0.93106206656185309 0.32242731191769503 0 0.96720628700974665 0.32362438565954771 0 0.95581270756939096 0.36248656652865863 0 0.32242731191769902 0.068937933438140794 0 0.32361955853288599 0.032799927825624707 0 0.36246243089534252 0.044218366607477223 0 0.94812782820415209 0.44708943904932719 0 0.92203742772043751 0.47579485578641628 0 0.90991454156957952 0.4312731559748802 0 0.88561059063756964 0.46572761956237563 0 0.90991454156957952 0.4312731559748802 0 0.92203742772043751 0.47579485578641628 0 0.49189101320880302 0.59024331187324797 0 0.45517457031814612 0.62743100079604397 0 0.45030222762303879 0.58443295115431027 0 0.54465502325161819 0.74717983044080061 0 0.57578062281532438 0.77751665353176347 0 0.53770425635794761 0.80104587463999666 0 0.25287139441262568 0.54458355434492378 0 0.2224870800581388 0.57577541371134155 0 0.1989632851005598 0.53769147668950479 0 0.74730218607442667 0.45539100053644521 0 0.77752557158083724 0.42422273168818408 0 0.80106707846564795 0.46230714888029367 0 0.45533136021725079 0.2525687312087147 0 0.42421838472613971 0.22246502005787769 0 0.46229330881044273 0.19890916456654811 0 0.57387636360620708 0.54318431390135336 0 0.59621567360238914 0.5184866806641607 0 0.61866949026800744 0.55492322767366287 0 0.66923299355723143 0.8804077449518628 0 0.6441774148058701 0.91458123574274031 0 0.62483828039315681 0.8780818733396436 0 0.1195922550481313 0.66923299355722787 0 0.085418764257258195 0.64417741480586865 0 0.1219181266603569 0.62483828039315903 0 0.88040774495187946 0.33076700644278889 0 0.91286712511202617 0.35637271447129198 0 0.87815187193233801 0.37523526017134418 0 0.33076700644279272 0.1195922550481146 0 0.35582258519414178 0.085418764257258431 0 0.37516171960683908 0.121918126660369 0 0.49189101320880302 0.59024331187324797 0 0.45030222762303879 0.58443295115431027 0 0.47974773860103892 0.54872726831320284 0 0.92670321183853355 0.65773042910151081 0 0.90051880305432697 0.69261863673346957 0 0.88396545633132484 0.6625197322180193 0 0.65773042910151891 0.073296788161472337 0 0.69253601466723103 0.09949211948105087 0 0.66251865414987876 0.1160340021949529 0 0.3422695708985129 0.92670321183858773 0 0.30738136326657722 0.90051880305435028 0 0.33748026778199908 0.88396545633134682 0 0.073296788161418117 0.34226957089850552 0 0.099492119481027347 0.30746398533281638 0 0.11603400219493119 0.33748134585014028 0 0.60938371359314658 0.91847489683800321 0 0.6441774148058701 0.91458123574274031 0 0.63753756910470316 0.95578163339252209 0 0.081525103161997597 0.6093837135931508 0 0.085418764257258195 0.64417741480586865 0 0.04421836660747535 0.63753756910470205 0 0.91890123454466932 0.39094742729597309 0 0.91286712511202617 0.35637271447129198 0 0.95581270756939096 0.36248656652865863 0 0.39061628640684498 0.081525103161991672 0 0.35582258519414178 0.085418764257258431 0 0.36246243089534252 0.044218366607477223 0 0.67757268808231397 0.93106206656183088 0 0.63753756910470316 0.95578163339252209 0 0.6441774148058701 0.91458123574274031 0 0.068937933438162791 0.67757268808231053 0 0.04421836660747535 0.63753756910470205 0 0.085418764257258195 0.64417741480586865 0 0.93106206656185309 0.32242731191769503 0 0.95581270756939096 0.36248656652865863 0 0.91286712511202617 0.35637271447129198 0 0.32242731191769902 0.068937933438140794 0 0.36246243089534252 0.044218366607477223 0 0.35582258519414178 0.085418764257258431 0 0.56759263990989184 0.81794319034601648 0 0.53770425635794761 0.80104587463999666 0 0.57578062281532438 0.77751665353176347 0 0.18205680965398621 0.56759263990989739 0 0.1989632851005598 0.53769147668950479 0 0.2224870800581388 0.57577541371134155 0 0.81794319034597418 0.43240736009009317 0 0.80106707846564795 0.46230714888029367 0 0.77752557158083724 0.42422273168818408 0 0.43240736009008851 0.18205680965402779 0 0.46229330881044273 0.19890916456654811 0 0.42421838472613971 0.22246502005787769 0 0.4434591735942961 0.66641640622551224 0 0.46736891737654429 0.70015537930374983 0 0.42715538333808079 0.70077759375307946 0 0.44764943295894188 0.73752415265401661 0 0.42715538333808079 0.70077759375307946 0 0.46736891737654429 0.70015537930374983 0 0.66548584431530877 0.55616712808283064 0 0.69798396601998558 0.5289734597937793 0 0.70087539567735502 0.57165914616526226 0 0.33382663527330159 0.44130125047503482 0 0.29988655052531688 0.46700727827593119 0 0.2963043386970643 0.4298320229681446 0 0.73752415265401194 0.55235056704108476 0 0.70087539567735502 0.57165914616526226 0 0.69798396601998558 0.5289734597937793 0 0.26247584734598628 0.44764943295894732 0 0.2963043386970643 0.4298320229681446 0 0.29988655052531688 0.46700727827593119 0 0.46102425708533701 0.43254199134332588 0 0.46543211128216788 0.38788423543681888 0 0.5047849391802508 0.40719950955717021 0 0.49854341599767982 0.37075914768127122 0 0.5047849391802508 0.40719950955717021 0 0.46543211128216788 0.38788423543681888 0 0.55175647814720108 0.26104505532086641 0 0.57188338999077359 0.29874123486230147 0 0.52929435216580312 0.29671213472503383 0 0.48378871228000903 0.29745177826977359 0 0.52929435216580312 0.29671213472503383 0 0.51491507395299929 0.3326740076510219 0 0.46102425708533701 0.43254199134332588 0 0.42340342337193693 0.44762131874855388 0 0.42930823106401639 0.40626685012722968 0 0.39419886675318527 0.41912225240070788 0 0.42930823106401639 0.40626685012722968 0 0.42340342337193693 0.44762131874855388 0 0.94812782820415209 0.44708943904932719 0 0.96266688603193029 0.48495124540067203 0 0.92203742772043751 0.47579485578641628 0 0.44692795014265252 0.051801877645060238 0 0.48492433058289169 0.037321398276272413 0 0.47574662421782782 0.077626823840590969 0 0.93510666819640953 0.51330222939551939 0 0.92203742772043751 0.47579485578641628 0 0.96266688603193029 0.48495124540067203 0 0.5133022293955174 0.064893331803591428 0 0.47574662421782782 0.077626823840590969 0 0.48492433058289169 0.037321398276272413 0 0.55307204985744796 0.94819812235491685 0 0.51507566941747085 0.9626786017237855 0 0.52425337578225772 0.9223731761594427 0 0.051801877645083663 0.55307204985745195 0 0.037321398276215258 0.51507566941747263 0 0.07762682384055844 0.52425337578226128 0 0.48669777060454272 0.93510666819646593 0 0.52425337578225772 0.9223731761594427 0 0.51507566941747085 0.9626786017237855 0 0.064893331803534807 0.48669777060454478 0 0.07762682384055844 0.52425337578226128 0 0.037321398276215258 0.51507566941747263 0 0.70252050881959183 0.70358884261915833 0 0.71159714897733284 0.75039044679290845 0 0.67626275269587088 0.72713741921009012 0 0.29641115738084339 0.70252050881958938 0 0.249609553207091 0.71159714897732929 0 0.27349656744860212 0.67581741996408695 0 0.70358884261915744 0.29747949118041561 0 0.75039044679291111 0.28840285102267788 0 0.72713741921008324 0.32373724730413678 0 0.29747949118041711 0.2964111573808435 0 0.28840285102268098 0.24960955320708811 0 0.32373692627050221 0.27286413781593999 0 0.48378871228000903 0.29745177826977359 0 0.50732841191799194 0.2613117081243182 0 0.52929435216580312 0.29671213472503383 0 0.50000000000002642 0.7803135888501761 0 0.46634612187967051 0.76767585524061377 0 0.49073113440598592 0.73759004618730417 0 0.44764943295894188 0.73752415265401661 0 0.49073113440598592 0.73759004618730417 0 0.46634612187967051 0.76767585524061377 0 0.73752415265401194 0.55235056704108476 0 0.73815142352639962 0.50697050072007344 0 0.76797069865873757 0.53315993670164308 0 0.78031358885017377 0.49999999999997569 0 0.76797069865873757 0.53315993670164308 0 0.73815142352639962 0.50697050072007344 0 0.2196864111498267 0.50000000000003153 0 0.23232476702437141 0.46634525369567709 0 0.262418491288269 0.49071922292154141 0 0.26247584734598628 0.44764943295894732 0 0.262418491288269 0.49071922292154141 0 0.23232476702437141 0.46634525369567709 0 0.55175647814720108 0.26104505532086641 0 0.50732841191799194 0.2613117081243182 0 0.53265327255359129 0.23135454206919101 0 0.49999999999997108 0.21968641114982909 0 0.53265327255359129 0.23135454206919101 0 0.50732841191799194 0.2613117081243182 0 0.64455163611866495 0.50369301794551069 0 0.62619054498681193 0.46482944251856079 0 0.66329969176266512 0.46626046872004567 0 0.50000000000002642 0.7803135888501761 0 0.46593838964869061 0.80781872835503554 0 0.46634612187967051 0.76767585524061377 0 0.2196864111498267 0.50000000000003153 0 0.19218127164496679 0.46593838964869538 0 0.23232476702437141 0.46634525369567709 0 0.78031358885017377 0.49999999999997569 0 0.80781854240107975 0.53406203754901738 0 0.76797069865873757 0.53315993670164308 0 0.49999999999997108 0.21968641114982909 0 0.53404982287327418 0.19215288291432539 0 0.53265327255359129 0.23135454206919101 0 0.55175647814720108 0.26104505532086641 0 0.52929435216580312 0.29671213472503383 0 0.50732841191799194 0.2613117081243182 0 0.64518564541690571 0.69601563325001548 0 0.67626275269587088 0.72713741921009012 0 0.64203711532612107 0.74316477213290444 0 0.30421635384321521 0.64514939193436716 0 0.27349656744860212 0.67581741996408695 0 0.25684529255773247 0.64203554247963057 0 0.69601563325001248 0.35481435458309712 0 0.72713741921008324 0.32373724730413678 0 0.74316477213289889 0.35796288467388632 0 0.35481435458309307 0.30398436674998969 0 0.32373692627050221 0.27286413781593999 0 0.3579628846738841 0.25683522786710378 0 0.640156794425081 0.43301393728221721 0 0.66329969176266512 0.46626046872004567 0 0.62619054498681193 0.46482944251856079 0 1 0.64999999999907843 0 0.96779701826738695 0.67105375815842694 0 0.96654491682122368 0.6363613838740827 0 0.64999999999907843 0 0 0.67098510785536181 0.032220921767549461 0 0.63635157668793507 0.033457646040912177 0 0.35000000000145642 1 0 0.32894624184180998 0.96779701826738929 0 0.36363861612613613 0.96654491682121313 0 0 0.35000000000145642 0 0.032220921767546963 0.32901489214487523 0 0.033457646040922301 0.36364842331228431 0 0.66820316019503978 0.77769800602796979 0 0.69892030930712212 0.7971997999085858 0 0.66919832404887702 0.81820888699730587 0 0.22230199397202771 0.66820316019503168 0 0.2028002000914135 0.69892030930711557 0 0.1817911130026923 0.66919832404888702 0 0.77769800602796679 0.33179683980497482 0 0.7971997999085878 0.3010796906928917 0 0.8182088869973061 0.33080167595111531 0 0.33179683980498331 0.2223019939720311 0 0.30107969069289831 0.20280020009141189 0 0.33080167595110582 0.18179111300269291 0 0.4434591735942961 0.66641640622551224 0 0.47818752133962877 0.66454462905280853 0 0.46736891737654429 0.70015537930374983 0 0.33382663527330159 0.44130125047503482 0 0.33436424489304489 0.47849603121740791 0 0.29988655052531688 0.46700727827593119 0 0.46102425708533701 0.43254199134332588 0 0.42930823106401639 0.40626685012722968 0 0.46543211128216788 0.38788423543681888 0 0.35984320557492089 0.56698606271778873 0 0.40468198875170619 0.57637931869191572 0 0.37104651296145419 0.60545170748311072 0 0.60938371359314658 0.91847489683800321 0 0.62483828039315681 0.8780818733396436 0 0.6441774148058701 0.91458123574274031 0 0.081525103161997597 0.6093837135931508 0 0.1219181266603569 0.62483828039315903 0 0.085418764257258195 0.64417741480586865 0 0.91890123454466932 0.39094742729597309 0 0.87815187193233801 0.37523526017134418 0 0.91286712511202617 0.35637271447129198 0 0.39061628640684498 0.081525103161991672 0 0.37516171960683908 0.121918126660369 0 0.35582258519414178 0.085418764257258431 0 0.40653508887824003 0.61580573377480397 0 0.37104651296145419 0.60545170748311072 0 0.40468198875170619 0.57637931869191572 0 
</DataArray>
</Points>
<Cells>
<DataArray type="UInt32" Name="connectivity" format="ascii">
0 1 2 3 4 5 6 7 8 9 10 11 12 13 14 15 16 17 18 19 20 21 22 23 24 25 26 27 28 29 30 31 32 33 34 35 36 37 38 39 40 41 42 43 44 45 46 47 48 49 50 51 52 53 54 55 56 57 58 59 60 61 62 63 64 65 66 67 68 69 70 71 72 73 74 75 76 77 78 79 80 81 82 83 84 85 86 87 88 89 90 91 92 93 94 95 96 97 98 99 100 101 102 103 104 105 106 107 108 109 110 111 112 113 114 115 116 117 118 119 120 121 122 123 124 125 126 127 128 129 130 131 132 133 134 135 136 137 138 139 140 141 142 143 144 145 146 147 148 149 150 151 152 153 154 155 156 157 158 159 160 161 162 163 164 165 166 167 168 169 170 171 172 173 174 175 176 177 178 179 180 181 182 183 184 185 186 187 188 189 190 191 192 193 194 195 196 197 198 199 200 201 202 203 204 205 206 207 208 209 210 211 212 213 214 215 216 217 218 219 220 221 222 223 224 225 226 227 228 229 230 231 232 233 234 235 236 237 238 239 240 241 242 243 244 245 246 247 248 249 250 251 252 253 254 255 256 257 258 259 260 261 262 263 264 265 266 267 268 269 270 271 272 273 274 275 276 277 278 279 280 281 282 283 284 285 286 287 288 289 290 291 292 293 294 295 296 297 298 299 300 301 302 303 304 305 306 307 308 309 310 311 312 313 314 315 316 317 318 319 320 321 322 323 324 325 326 327 328 329 330 331 332 333 334 335 336 337 338 339 340 341 342 343 344 345 346 347 348 349 350 351 352 353 354 355 356 357 358 359 360 361 362 363 364 365 366 367 368 369 370 371 372 373 374 375 376 377 378 379 380 381 382 383 384 385 386 387 388 389 390 391 392 393 394 395 396 397 398 399 400 401 402 403 404 405 406 407 408 409 410 411 412 413 414 415 416 417 418 419 420 421 422 423 424 425 426 427 428 429 430 431 432 433 434 435 436 437 438 439 440 441 442 443 444 445 446 447 448 449 450 451 452 453 454 455 456 457 458 459 460 461 462 463 464 465 466 467 468 469 470 471 472 473 474 475 476 477 478 479 480 481 482 483 484 485 486 487 488 489 490 491 492 493 494 495 496 497 498 499 500 501 502 503 504 505 506 507 508 509 510 511 512 513 514 515 516 517 518 519 520 521 522 523 524 525 526 527 528 529 530 531 532 533 534 535 536 537 538 539 540 541 542 543 544 545 546 547 548 549 550 551 552 553 554 555 556 557 558 559 560 561 562 563 564 565 566 567 568 569 570 571 572 573 574 575 576 577 578 579 580 581 582 583 584 585 586 587 588 589 590 591 592 593 594 595 596 597 598 599 600 601 602 603 604 605 606 607 608 609 610 611 612 613 614 615 616 617 618 619 620 621 622 623 624 625 626 627 628 629 630 631 632 633 634 635 636 637 638 639 640 641 642 643 644 645 646 647 648 649 650 651 652 653 654 655 656 657 658 659 660 661 662 663 664 665 666 667 668 669 670 671 672 673 674 675 676 677 678 679 680 681 682 683 684 685 686 687 688 689 690 691 692 693 694 695 696 697 698 699 700 701 702 703 704 705 706 707 708 709 710 711 712 713 714 715 716 717 718 719 720 721 722 723 724 725 726 727 728 729 730 731 732 733 734 735 736 737 738 739 740 741 742 743 744 745 746 747 748 749 750 751 752 753 754 755 756 757 758 759 760 761 762 763 764 765 766 767 768 769 770 771 772 773 774 775 776 777 778 779 780 781 782 783 784 785 786 787 788 789 790 791 792 793 794 795 796 797 798 799 800 801 802 803 804 805 806 807 808 809 810 811 812 813 814 815 816 817 818 819 820 821 822 823 824 825 826 827 828 829 830 831 832 833 834 835 836 837 838 839 840 841 842 843 844 845 846 847 848 849 850 851 852 853 854 855 856 857 858 859 860 861 862 863 864 865 866 867 868 869 870 871 872 873 874 875 876 877 878 879 880 881 882 883 884 885 886 887 888 889 890 891 892 893 894 895 896 897 898 899 900 901 902 903 904 905 906 907 908 909 910 911 912 913 914 915 916 917 918 919 920 921 922 923 924 925 926 927 928 929 930 931 932 933 934 935 936 937 938 939 940 941 942 943 944 945 946 947 948 949 950 951 952 953 954 955 956 957 958 959 960 961 962 963 964 965 966 967 968 969 970 971 972 973 974 975 976 977 978 979 980 981 982 983 984 985 986 987 988 989 990 991 992 993 994 995 996 997 998 999 1000 1001 1002 1003 1004 1005 1006 1007 1008 1009 1010 1011 1012 1013 1014 1015 1016 1017 1018 1019 1020 1021 1022 1023 1024 1025 1026 1027 1028 1029 1030 1031 1032 1033 1034 1035 1036 1037 1038 1039 1040 1041 1042 1043 1044 1045 1046 1047 1048 1049 1050 1051 1052 1053 1054 1055 1056 1057 1058 1059 1060 1061 1062 1063 1064 1065 1066 1067 1068 1069 1070 1071 1072 1073 1074 1075 1076 1077 1078 1079 1080 1081 1082 1083 1084 1085 1086 1087 1088 1089 1090 1091 1092 1093 1094 1095 1096 1097 1098 1099 1100 1101 1102 1103 1104 1105 1106 1107 1108 1109 1110 1111 1112 1113 1114 1115 1116 1117 1118 1119 1120 1121 1122 1123 1124 1125 1126 1127 1128 1129 1130 1131 1132 1133 1134 1135 1136 1137 1138 1139 1140 1141 1142 1143 1144 1145 1146 1147 1148 1149 1150 1151 1152 1153 1154 1155 1156 1157 1158 1159 1160 1161 1162 1163 1164 1165 1166 1167 1168 1169 1170 1171 1172 1173 1174 1175 1176 1177 1178 1179 1180 1181 1182 1183 1184 1185 1186 1187 1188 1189 1190 1191 1192 1193 1194 1195 1196 1197 1198 1199 1200 1201 1202 1203 1204 1205 1206 1207 1208 1209 1210 1211 1212 1213 1214 1215 1216 1217 1218 1219 1220 1221 1222 1223 1224 1225 1226 1227 1228 1229 1230 1231 1232 1233 1234 1235 1236 1237 1238 1239 1240 1241 1242 1243 1244 1245 1246 1247 1248 1249 1250 1251 1252 1253 1254 1255 1256 1257 1258 1259 1260 1261 1262 1263 1264 1265 1266 1267 1268 1269 1270 1271 1272 1273 1274 1275 1276 1277 1278 1279 1280 1281 1282 1283 1284 1285 1286 1287 1288 1289 1290 1291 1292 1293 1294 1295 1296 1297 1298 1299 1300 1301 1302 1303 1304 1305 1306 1307 1308 1309 1310 1311 1312 1313 1314 1315 1316 1317 1318 1319 1320 1321 1322 1323 1324 1325 1326 1327 1328 1329 1330 1331 1332 1333 1334 1335 1336 1337 1338 1339 1340 1341 1342 1343 1344 1345 1346 1347 1348 1349 1350 1351 1352 1353 1354 1355 1356 1357 1358 1359 1360 1361 1362 1363 1364 1365 1366 1367 1368 1369 1370 1371 1372 1373 1374 1375 1376 1377 1378 1379 1380 1381 1382 1383 1384 1385 1386 1387 1388 1389 1390 1391 1392 1393 1394 1395 1396 1397 1398 1399 1400 1401 1402 1403 1404 1405 1406 1407 1408 1409 1410 1411 1412 1413 1414 1415 1416 1417 1418 1419 1420 1421 1422 1423 1424 1425 1426 1427 1428 1429 1430 1431 1432 1433 1434 1435 1436 1437 1438 1439 1440 1441 1442 1443 1444 1445 1446 1447 1448 1449 1450 1451 1452 1453 1454 1455 1456 1457 1458 1459 1460 1461 1462 1463 1464 1465 1466 1467 1468 1469 1470 1471 1472 1473 1474 1475 1476 1477 1478 1479 1480 1481 1482 1483 1484 1485 1486 1487 1488 1489 1490 1491 1492 1493 1494 1495 1496 1497 1498 1499 1500 1501 1502 1503 1504 1505 1506 1507 1508 1509 1510 1511 1512 1513 1514 1515 1516 1517 1518 1519 1520 1521 1522 1523 1524 1525 1526 1527 1528 1529 1530 1531 1532 1533 1534 1535 1536 1537 1538 1539 1540 1541 1542 1543 1544 1545 1546 1547 1548 1549 1550 1551 1552 1553 1554 1555 1556 1557 1558 1559 1560 1561 1562 1563 1564 1565 1566 1567 1568 1569 1570 1571 1572 1573 1574 1575 1576 1577 1578 1579 1580 1581 1582 1583 1584 1585 1586 1587 1588 1589 1590 1591 1592 1593 1594 1595 1596 1597 1598 1599 1600 1601 1602 1603 1604 1605 1606 1607 1608 1609 1610 1611 1612 1613 1614 1615 1616 1617 1618 1619 1620 1621 1622 1623 1624 1625 1626 1627 1628 1629 1630 1631 1632 1633 1634 1635 1636 1637 1638 1639 1640 1641 1642 1643 1644 1645 1646 1647 1648 1649 1650 1651 1652 1653 1654 1655 1656 1657 1658 1659 1660 1661 1662 1663 1664 1665 1666 1667 1668 1669 1670 1671 1672 1673 1674 1675 1676 1677 1678 1679 1680 1681 1682 1683 1684 1685 1686 1687 1688 1689 1690 1691 1692 1693 1694 1695 1696 1697 1698 1699 1700 1701 1702 1703 1704 1705 1706 1707 1708 1709 1710 1711 1712 1713 1714 1715 1716 1717 1718 1719 1720 1721 1722 1723 1724 1725 1726 1727 1728 1729 1730 1731 1732 1733 1734 1735 1736 1737 1738 1739 1740 1741 1742 1743 1744 1745 1746 1747 1748 1749 1750 1751 1752 1753 1754 1755 1756 1757 1758 1759 1760 1761 1762 1763 1764 1765 1766 1767 1768 1769 1770 1771 1772 1773 1774 1775 1776 1777 1778 1779 1780 1781 1782 1783 1784 1785 1786 1787 1788 1789 1790 1791 1792 1793 1794 1795 1796 1797 1798 1799 1800 1801 1802 1803 1804 1805 1806 1807 1808 1809 1810 1811 1812 1813 1814 1815 1816 1817 1818 1819 1820 1821 1822 1823 1824 1825 1826 1827 1828 1829 1830 1831 1832 1833 1834 1835 1836 1837 1838 1839 1840 1841 1842 1843 1844 1845 1846 1847 1848 1849 1850 1851 1852 1853 1854 1855 1856 1857 1858 1859 1860 1861 1862 1863 1864 1865 1866 1867 1868 1869 1870 1871 1872 1873 1874 1875 1876 1877 1878 1879 1880 1881 1882 1883 1884 1885 1886 1887 1888 1889 1890 1891 1892 1893 1894 1895 1896 1897 1898 1899 1900 1901 1902 1903 1904 1905 1906 1907 1908 1909 1910 1911 1912 1913 1914 1915 1916 1917 1918 1919 1920 1921 1922 1923 1924 1925 1926 1927 1928 1929 1930 1931 1932 1933 1934 1935 1936 1937 1938 1939 1940 1941 1942 1943 1944 1945 1946 1947 1948 1949 1950 1951 1952 1953 1954 1955 1956 1957 1958 1959 1960 1961 1962 1963 1964 1965 1966 1967 1968 1969 1970 1971 1972 1973 1974 1975 1976 1977 1978 1979 1980 1981 1982 1983 1984 1985 1986 1987 1988 1989 1990 1991 1992 1993 1994 1995 1996 1997 1998 1999 2000 2001 2002 2003 2004 2005 2006 2007 2008 2009 2010 2011 2012 2013 2014 2015 2016 2017 2018 2019 2020 2021 2022 2023 2024 2025 2026 2027 2028 2029 2030 2031 2032 2033 2034 2035 2036 2037 2038 2039 2040 2041 2042 2043 2044 2045 2046 2047 2048 2049 2050 2051 2052 2053 2054 2055 2056 2057 2058 2059 2060 2061 2062 2063 2064 2065 2066 2067 2068 2069 2070 2071 2072 2073 2074 2075 2076 2077 2078 2079 2080 2081 2082 2083 2084 2085 2086 2087 2088 2089 2090 2091 2092 2093 2094 2095 2096 2097 2098 2099 2100 2101 2102 2103 2104 2105 2106 2107 2108 2109 2110 2111 2112 2113 2114 2115 2116 2117 2118 2119 2120 2121 2122 2123 2124 2125 2126 2127 2128 2129 2130 2131 2132 2133 2134 2135 2136 2137 2138 2139 2140 2141 2142 2143 2144 2145 2146 2147 2148 2149 2150 2151 2152 2153 2154 2155 2156 2157 2158 2159 2160 2161 2162 2163 2164 2165 2166 2167 2168 2169 2170 2171 2172 2173 2174 2175 2176 2177 2178 2179 2180 2181 2182 2183 2184 2185 2186 2187 2188 2189 2190 2191 2192 2193 2194 2195 2196 2197 2198 2199 2200 2201 2202 2203 2204 2205 2206 2207 2208 2209 2210 2211 2212 2213 2214 2215 2216 2217 2218 2219 2220 2221 2222 2223 2224 2225 2226 2227 2228 2229 2230 2231 2232 2233 2234 2235 2236 2237 2238 2239 2240 2241 2242 2243 2244 2245 2246 2247 2248 2249 2250 2251 2252 2253 2254 2255 2256 2257 2258 2259 2260 2261 2262 2263 2264 2265 2266 2267 2268 2269 2270 2271 2272 2273 2274 2275 2276 2277 2278 2279 2280 2281 2282 2283 2284 2285 2286 2287 2288 2289 2290 2291 2292 2293 2294 2295 2296 2297 2298 2299 2300 2301 2302 2303 2304 2305 2306 2307 2308 2309 2310 2311 2312 2313 2314 2315 2316 2317 2318 2319 2320 2321 2322 2323 2324 2325 2326 2327 2328 2329 2330 2331 2332 2333 2334 2335 2336 2337 2338 2339 2340 2341 2342 2343 2344 2345 2346 2347 2348 2349 2350 2351 2352 2353 2354 2355 2356 2357 2358 2359 2360 2361 2362 2363 2364 2365 2366 2367 2368 2369 2370 2371 2372 2373 2374 2375 2376 2377 2378 2379 2380 2381 2382 2383 2384 2385 2386 2387 2388 2389 2390 2391 2392 2393 2394 2395 2396 2397 2398 2399 2400 2401 2402 2403 2404 2405 2406 2407 2408 2409 2410 2411 2412 2413 2414 2415 2416 2417 2418 2419 2420 2421 2422 2423 2424 2425 2426 2427 2428 2429 2430 2431 2432 2433 2434 2435 2436 2437 2438 2439 2440 2441 2442 2443 2444 2445 2446 2447 2448 2449 2450 2451 2452 2453 2454 2455 2456 2457 2458 2459 2460 2461 2462 2463 2464 2465 2466 2467 2468 2469 2470 2471 2472 2473 2474 2475 2476 2477 2478 2479 2480 2481 2482 2483 2484 2485 2486 2487 2488 2489 2490 2491 2492 2493 2494 2495 2496 2497 2498 2499 2500 2501 2502 2503 2504 2505 2506 2507 2508 2509 2510 2511 2512 2513 2514 2515 2516 2517 2518 2519 2520 2521 2522 2523 2524 2525 2526 2527 2528 2529 2530 2531 2532 2533 2534 2535 2536 2537 2538 2539 2540 2541 2542 2543 2544 2545 2546 2547 2548 2549 2550 2551 2552 2553 2554 2555 2556 2557 2558 2559 2560 2561 2562 2563 2564 2565 2566 2567 2568 2569 2570 2571 2572 2573 2574 2575 2576 2577 2578 2579 2580 2581 2582 2583 2584 2585 2586 2587 2588 2589 2590 2591 2592 2593 2594 2595 2596 2597 2598 2599 2600 2601 2602 2603 2604 2605 2606 2607 2608 2609 2610 2611 2612 2613 2614 2615 2616 2617 2618 2619 2620 2621 2622 2623 2624 2625 2626 2627 2628 2629 2630 2631 2632 2633 2634 2635 2636 2637 2638 2639 2640 2641 2642 2643 2644 2645 2646 2647 2648 2649 2650 2651 2652 2653 2654 2655 2656 2657 2658 2659 2660 2661 2662 2663 2664 2665 2666 2667 2668 2669 2670 2671 2672 2673 2674 2675 2676 2677 2678 2679 2680 2681 2682 2683 2684 2685 2686 2687 2688 2689 2690 2691 2692 2693 2694 2695 2696 2697 2698 2699 2700 2701 2702 2703 2704 2705 2706 2707 2708 2709 2710 2711 2712 2713 2714 2715 2716 2717 2718 2719 2720 2721 2722 2723 2724 2725 2726 2727 2728 2729 2730 2731 2732 2733 2734 2735 2736 2737 2738 2739 2740 2741 2742 2743 2744 2745 2746 2747 2748 2749 2750 2751 2752 2753 2754 2755 2756 2757 2758 2759 2760 2761 2762 2763 2764 2765 2766 2767 2768 2769 2770 2771 2772 2773 2774 2775 2776 2777 2778 2779 2780 2781 2782 2783 2784 2785 2786 2787 2788 2789 2790 2791 2792 2793 2794 2795 2796 2797 2798 2799 2800 2801 2802 2803 2804 2805 2806 2807 2808 2809 2810 2811 2812 2813 2814 2815 2816 2817 2818 2819 2820 2821 2822 2823 2824 2825 2826 2827 2828 2829 2830 2831 2832 2833 2834 2835 2836 2837 2838 2839 2840 2841 2842 2843 2844 2845 2846 2847 2848 2849 2850 2851 2852 2853 2854 2855 2856 2857 2858 2859 2860 2861 2862 2863 2864 2865 2866 2867 2868 2869 2870 2871 2872 2873 2874 2875 2876 2877 2878 2879 2880 2881 2882 2883 2884 2885 2886 2887 2888 2889 2890 2891 2892 2893 2894 2895 2896 2897 2898 2899 2900 2901 2902 2903 2904 2905 2906 2907 2908 2909 2910 2911 2912 2913 2914 2915 2916 2917 2918 2919 2920 2921 2922 2923 2924 2925 2926 2927 2928 2929 2930 2931 2932 2933 2934 2935 2936 2937 2938 2939 2940 2941 2942 2943 2944 2945 2946 2947 2948 2949 2950 2951 2952 2953 2954 2955 2956 2957 2958 2959 2960 2961 2962 2963 2964 2965 2966 2967 2968 2969 2970 2971 2972 2973 2974 2975 2976 2977 2978 2979 2980 2981 2982 2983 2984 2985 2986 2987 2988 2989 2990 2991 2992 2993 2994 2995 2996 2997 2998 2999 3000 3001 3002 3003 3004 3005 3006 3007 3008 3009 3010 3011 3012 3013 3014 3015 3016 3017 3018 3019 3020 3021 3022 3023 3024 3025 3026 3027 3028 3029 3030 3031 3032 3033 3034 3035 3036 3037 3038 3039 3040 3041 3042 3043 3044 3045 3046 3047 3048 3049 3050 3051 3052 3053 3054 3055 3056 3057 3058 3059 3060 3061 3062 3063 3064 3065 3066 3067 3068 3069 3070 3071 3072 3073 3074 3075 3076 3077 3078 3079 3080 3081 3082 3083 3084 3085 3086 3087 3088 3089 3090 3091 3092 3093 3094 3095 3096 3097 3098 3099 3100 3101 3102 3103 3104 3105 3106 3107 3108 3109 3110 3111 3112 3113 3114 3115 3116 3117 3118 3119 3120 3121 3122 3123 3124 3125 3126 3127 3128 3129 3130 3131 3132 3133 3134 3135 3136 3137 3138 3139 3140 3141 3142 3143 3144 3145 3146 3147 3148 3149 3150 3151 3152 3153 3154 3155 3156 3157 3158 3159 3160 3161 
</DataArray>
<DataArray type="UInt32" Name="offsets" format="ascii">
3 6 9 12 15 18 21 24 27 30 33 36 39 42 45 48 51 54 57 60 63 66 69 72 75 78 81 84 87 90 93 96 99 102 105 108 111 114 117 120 123 126 129 132 135 138 141 144 147 150 153 156 159 162 165 168 171 174 177 180 183 186 189 192 195 198 201 204 207 210 213 216 219 222 225 228 231 234 237 240 243 246 249 252 255 258 261 264 267 270 273 276 279 282 285 288 291 294 297 300 303 306 309 312 315 318 321 324 327 330 333 336 339 342 345 348 351 354 357 360 363 366 369 372 375 378 381 384 387 390 393 396 399 402 405 408 411 414 417 420 423 426 429 432 435 438 441 444 447 450 453 456 459 462 465 468 471 474 477 480 483 486 489 492 495 498 501 504 507 510 513 516 519 522 525 528 531 534 537 540 543 546 549 552 555 558 561 564 567 570 573 576 579 582 585 588 591 594 597 600 603 606 609 612 615 618 621 624 627 630 633 636 639 642 645 648 651 654 657 660 663 666 669 672 675 678 681 684 687 690 693 696 699 702 705 708 711 714 717 720 723 726 729 732 735 738 741 744 747 750 753 756 759 762 765 768 771 774 777 780 783 786 789 792 795 798 801 804 807 810 813 816 819 822 825 828 831 834 837 840 843 846 849 852 855 858 861 864 867 870 873 876 879 882 885 888 891 894 897 900 903 906 909 912 915 918 921 924 927 930 933 936 939 942 945 948 951 954 957 960 963 966 969 972 975 978 981 984 987 990 993 996 999 1002 1005 1008 1011 1014 1017 1020 1023 1026 1029 1032 1035 1038 1041 1044 1047 1050 1053 1056 1059 1062 1065 1068 1071 1074 1077 1080 1083 1086 1089 1092 1095 1098 1101 1104 1107 1110 1113 1116 1119 1122 1125 1128 1131 1134 1137 1140 1143 1146 1149 1152 1155 1158 1161 1164 1167 1170 1173 1176 1179 1182 1185 1188 1191 1194 1197 1200 1203 1206 1209 1212 1215 1218 1221 1224 1227 1230 1233 1236 1239 1242 1245 1248 1251 1254 1257 1260 1263 1266 1269 1272 1275 1278 1281 1284 1287 1290 1293 1296 1299 1302 1305 1308 1311 1314 1317 1320 1323 1326 1329 1332 1335 1338 1341 1344 1347 1350 1353 1356 1359 1362 1365 1368 1371 1374 1377 1380 1383 1386 1389 1392 1395 1398 1401 1404 1407 1410 1413 1416 1419 1422 1425 1428 1431 1434 1437 1440 1443 1446 1449 1452 1455 1458 1461 1464 1467 1470 1473 1476 1479 1482 1485 1488 1491 1494 1497 1500 1503 1506 1509 1512 1515 1518 1521 1524 1527 1530 1533 1536 1539 1542 1545 1548 1551 1554 1557 1560 1563 1566 1569 1572 1575 1578 1581 1584 1587 1590 1593 1596 1599 1602 1605 1608 1611 1614 1617 1620 1623 1626 1629 1632 1635 1638 1641 1644 1647 1650 1653 1656 1659 1662 1665 1668 1671 1674 1677 1680 1683 1686 1689 1692 1695 1698 1701 1704 1707 1710 1713 1716 1719 1722 1725 1728 1731 1734 1737 1740 1743 1746 1749 1752 1755 1758 1761 1764 1767 1770 1773 1776 1779 1782 1785 1788 1791 1794 1797 1800 1803 1806 1809 1812 1815 1818 1821 1824 1827 1830 1833 1836 1839 1842 1845 1848 1851 1854 1857 1860 1863 1866 1869 1872 1875 1878 1881 1884 1887 1890 1893 1896 1899 1902 1905 1908 1911 1914 1917 1920 1923 1926 1929 1932 1935 1938 1941 1944 1947 1950 1953 1956 1959 1962 1965 1968 1971 1974 1977 1980 1983 1986 1989 1992 1995 1998 2001 2004 2007 2010 2013 2016 2019 2022 2025 2028 2031 2034 2037 2040 2043 2046 2049 2052 2055 2058 2061 2064 2067 2070 2073 2076 2079 2082 2085 2088 2091 2094 2097 2100 2103 2106 2109 2112 2115 2118 2121 2124 2127 2130 2133 2136 2139 2142 2145 2148 2151 2154 2157 2160 2163 2166 2169 2172 2175 2178 2181 2184 2187 2190 2193 2196 2199 2202 2205 2208 2211 2214 2217 2220 2223 2226 2229 2232 2235 2238 2241 2244 2247 2250 2253 2256 2259 2262 2265 2268 2271 2274 2277 2280 2283 2286 2289 2292 2295 2298 2301 2304 2307 2310 2313 2316 2319 2322 2325 2328 2331 2334 2337 2340 2343 2346 2349 2352 2355 2358 2361 2364 2367 2370 2373 2376 2379 2382 2385 2388 2391 2394 2397 2400 2403 2406 2409 2412 2415 2418 2421 2424 2427 2430 2433 2436 2439 2442 2445 2448 2451 2454 2457 2460 2463 2466 2469 2472 2475 2478 2481 2484 2487 2490 2493 2496 2499 2502 2505 2508 2511 2514 2517 2520 2523 2526 2529 2532 2535 2538 2541 2544 2547 2550 2553 2556 2559 2562 2565 2568 2571 2574 2577 2580 2583 2586 2589 2592 2595 2598 2601 2604 2607 2610 2613 2616 2619 2622 2625 2628 2631 2634 2637 2640 2643 2646 2649 2652 2655 2658 2661 2664 2667 2670 2673 2676 2679 2682 2685 2688 2691 2694 2697 2700 2703 2706 2709 2712 2715 2718 2721 2724 2727 2730 2733 2736 2739 2742 2745 2748 2751 2754 2757 2760 2763 2766 2769 2772 2775 2778 2781 2784 2787 2790 2793 2796 2799 2802 2805 2808 2811 2814 2817 2820 2823 2826 2829 2832 2835 2838 2841 2844 2847 2850 2853 2856 2859 2862 2865 2868 2871 2874 2877 2880 2883 2886 2889 2892 2895 2898 2901 2904 2907 2910 2913 2916 2919 2922 2925 2928 2931 2934 2937 2940 2943 2946 2949 2952 2955 2958 2961 2964 2967 2970 2973 2976 2979 2982 2985 2988 2991 2994 2997 3000 3003 3006 3009 3012 3015 3018 3021 3024 3027 3030 3033 3036 3039 3042 3045 3048 3051 3054 3057 3060 3063 3066 3069 3072 3075 3078 3081 3084 3087 3090 3093 3096 3099 3102 3105 3108 3111 3114 3117 3120 3123 3126 3129 3132 3135 3138 3141 3144 3147 3150 3153 3156 3159 3162 
</DataArray>
<DataArray type="UInt32" Name="types" format="ascii">
5 5 5 5 5 5 5 5 5 5 5 5 5 5 5 5 5 5 5 5 5 5 5 5 5 5 5 5 5 5 5 5 5 5 5 5 5 5 5 5 5 5 5 5 5 5 5 5 5 5 5 5 5 5 5 5 5 5 5 5 5 5 5 5 5 5 5 5 5 5 5 5 5 5 5 5 5 5 5 5 5 5 5 5 5 5 5 5 5 5 5 5 5 5 5 5 5 5 5 5 5 5 5 5 5 5 5 5 5 5 5 5 5 5 5 5 5 5 5 5 5 5 5 5 5 5 5 5 5 5 5 5 5 5 5 5 5 5 5 5 5 5 5 5 5 5 5 5 5 5 5 5 5 5 5 5 5 5 5 5 5 5 5 5 5 5 5 5 5 5 5 5 5 5 5 5 5 5 5 5 5 5 5 5 5 5 5 5 5 5 5 5 5 5 5 5 5 5 5 5 5 5 5 5 5 5 5 5 5 5 5 5 5 5 5 5 5 5 5 5 5 5 5 5 5 5 5 5 5 5 5 5 5 5 5 5 5 5 5 5 5 5 5 5 5 5 5 5 5 5 5 5 5 5 5 5 5 5 5 5 5 5 5 5 5 5 5 5 5 5 5 5 5 5 5 5 5 5 5 5 5 5 5 5 5 5 5 5 5 5 5 5 5 5 5 5 5 5 5 5 5 5 5 5 5 5 5 5 5 5 5 5 5 5 5 5 5 5 5 5 5 5 5 5 5 5 5 5 5 5 5 5 5 5 5 5 5 5 5 5 5 5 5 5 5 5 5 5 5 5 5 5 5 5 5 5 5 5 5 5 5 5 5 5 5 5 5 5 5 5 5 5 5 5 5 5 5 5 5 5 5 5 5 5 5 5 5 5 5 5 5 5 5 5 5 5 5 5 5 5 5 5 5 5 5 5 5 5 5 5 5 5 5 5 5 5 5 5 5 5 5 5 5 5 5 5 5 5 5 5 5 5 5 5 5 5 5 5 5 5 5 5 5 5 5 5 5 5 5 5 5 5 5 5 5 5 5 5 5 5 5 5 5 5 5 5 5 5 5 5 5 5 5 5 5 5 5 5 5 5 5 5 5 5 5 5 5 5 5 5 5 5 5 5 5 5 5 5 5 5 5 5 5 5 5 5 5 5 5 5 5 5 5 5 5 5 5 5 5 5 5 5 5 5 5 5 5 5 5 5 5 5 5 5 5 5 5 5 5 5 5 5 5 5 5 5 5 5 5 5 5 5 5 5 5 5 5 5 5 5 5 5 5 5 5 5 5 5 5 5 5 5 5 5 5 5 5 5 5 5 5 5 5 5 5 5 5 5 5 5 5 5 5 5 5 5 5 5 5 5 5 5 5 5 5 5 5 5 5 5 5 5 5 5 5 5 5 5 5 5 5 5 5 5 5 5 5 5 5 5 5 5 5 5 5 5 5 5 5 5 5 5 5 5 5 5 5 5 5 5 5 5 5 5 5 5 5 5 5 5 5 5 5 5 5 5 5 5 5 5 5 5 5 5 5 5 5 5 5 5 5 5 5 5 5 5 5 5 5 5 5 5 5 5 5 5 5 5 5 5 5 5 5 5 5 5 5 5 5 5 5 5 5 5 5 5 5 5 5 5 5 5 5 5 5 5 5 5 5 5 5 5 5 5 5 5 5 5 5 5 5 5 5 5 5 5 5 5 5 5 5 5 5 5 5 5 5 5 5 5 5 5 5 5 5 5 5 5 5 5 5 5 5 5 5 5 5 5 5 5 5 5 5 5 5 5 5 5 5 5 5 5 5 5 5 5 5 5 5 5 5 5 5 5 5 5 5 5 5 5 5 5 5 5 5 5 5 5 5 5 5 5 5 5 5 5 5 5 5 5 5 5 5 5 5 5 5 5 5 5 5 5 5 5 5 5 5 5 5 5 5 5 5 5 5 5 5 5 5 5 5 5 5 5 5 5 5 5 5 5 5 5 5 5 5 5 5 5 5 5 5 5 5 5 5 5 5 5 5 5 5 5 5 5 5 5 5 5 5 5 5 5 5 5 5 5 5 5 5 5 5 5 5 5 5 5 5 5 5 5 5 5 5 5 5 5 5 5 5 5 5 5 5 5 5 5 5 5 5 5 5 5 5 5 5 5 5 5 5 5 5 5 5 5 5 5 5 5 5 5 5 5 5 5 5 5 5 5 5 5 5 5 5 5 5 5 5 5 5 5 5 5 5 5 5 5 5 5 5 5 5 5 5 5 5 5 5 5 5 5 5 5 5 5 5 5 5 5 5 5 5 5 5 5 5 5 5 5 5 5 5 5 5 5 5 5 5 5 5 5 5 5 5 5 5 5 5 5 5 5 5 5 5 5 5 5 5 5 5 5 5 5 5 5 
</DataArray>
</Cells>
<PointData Scalars="" Vectors="displacement," Tensors="">
<DataArray type="Float64" Name="displacement" NumberOfComponents="3" format="ascii">
-0.00021507686597489438 -0.002311995374731896 0 -0.00014931644237789173 -0.0021607167897784748 0 -0.00010756200835754745 -0.0022858548131040849 0 0.00048907597649282405 -0.0018607913338410244 0 0.00040146434091794961 -0.0017375288553051304 0 0.00047092038416094009 -0.0016817629915297156 0 -0.00044485128073356407 -0.0011552078472813899 0 -0.00038150327924714678 -0.0012580983398492594 0 -0.00045068858000921642 -0.0013291936872356584 0 0.00014848507552148938 -0.00066674669883686963 0 0.00011174919119144533 -0.0007990784438035957 0 7.371746848925077e-05 -0.00067972624722164937 0 0.00013374101975100548 -0.0019395892100616573 0 0.00022747744825734765 -0.0018471389226748648 0 0.00022184755125819716 -0.0020440508180083368 0 0.00030839112300794436 -0.0019693733943533806 0 0.00022184755125819719 -0.0020440508180083368 0 0.00022747744825734765 -0.0018471389226748648 0 0.00026298211689778462 -0.0012524489528068325 0 0.00018243892252983656 -0.0011041287950992616 0 0.00029551922464466751 -0.0011181476959200298 0 0.00024395039503066673 -0.00096885239073820088 0 0.00029551922464466751 -0.0011181476959200298 0 0.00018243892252983656 -0.0011041287950992616 0 0.00048931072769361019 -0.0028834446626944911 0 0.00055755812770329389 -0.0030136867361591079 0 0.00044229967867418597 -0.0030247007907541726 0 -0.00080364273259416559 -0.0023485059066837791 0 -0.00087250904650146884 -0.0024660280514305598 0 -0.00087861173720391289 -0.0022762379054246744 0 0.0006081483230978436 -0.00079109767024150134 0 0.00065913326687177002 -0.00076128836918477026 0 0.00072800925165222689 -0.00092461637737371839 0 -0.00016609288257065285 -0.00024586872566401304 0 -0.00010156391646791702 -0.00012449266251141991 0 -7.367393771143618e-05 -0.00011086484428501779 0 0.00078914736211476507 -0.0031933878411326993 0 0.00069737951783199845 -0.0031927618705711357 0 0.00079940722054703671 -0.003061653079834603 0 -0.00096743838644946796 -0.0028677684604329185 0 -0.00096703541441084276 -0.0027054153814445158 0 -0.00089709373610839457 -0.0028848641298583016 0 -0.00039253961155937477 -0.00033436276858035083 0 -0.00060793999719238807 -0.00059794004921442955 0 -0.00047901467865535424 -0.00043765038622672317 0 -0.00079970547124962141 -0.0030616437643713767 0 -0.00069758614479705427 -0.0031927600177518072 0 -0.00078940219969471663 -0.0031933929659407534 0 0.00013143492149873885 -9.6120959632828884e-05 0 2.1076196377956506e-08 -1.0215939222298164e-07 0 5.3049339695074197e-08 -1.3429159837198775e-07 0 0.00089686834294014231 -0.00288486752152481 0 0.00096686773885609712 -0.0027055228506733661 0 0.00096719902793940781 -0.0028678009416262798 0 0.00047954013352622554 -0.00043734604959120692 0 0.00060907490611807112 -0.00059718953491088049 0 0.00039312203298984814 -0.00033414967234360619 0 -5.305253851328579e-08 -1.3552032337316547e-07 0 -2.0906568780590523e-08 -1.0096052547927646e-07 0 -0.000131620560202259 -9.656601221764188e-05 0 0.00070055259979036691 -0.00074192279117722389 0 0.00065913326687177002 -0.00076128836918477026 0 0.00060312794608465914 -0.00062364868729610824 0 -3.0912290732612321e-08 -1.1446497126343517e-07 0 -0.00010156391646791702 -0.00012449266251141991 0 -8.8315478476515987e-05 -8.9858819359247774e-05 0 0.00060306262427364365 -0.0031915545232937309 0 0.00055755812770329389 -0.0030136867361591079 0 0.00065305677147713831 -0.0030464078903036473 0 -0.00096586964513983777 -0.0025437032105485361 0 -0.00087250904650146884 -0.0024660280514305598 0 -0.00088935684825140846 -0.0026281292813031885 0 0.00096575934319542136 -0.0025438214358679424 0 0.00089715757443977026 -0.002605040026134541 0 0.00086711363794745179 -0.0024363265697879208 0 3.0332299151747881e-08 -1.1452381175351473e-07 0 8.7631611207013876e-05 -8.9571797484685439e-05 0 0.00010313713157135934 -0.00012660845221464234 0 -0.00060338442842218639 -0.0031914485958679964 0 -0.00063971595293487956 -0.0030614100563366542 0 -0.00054026303073118932 -0.0030034815141486105 0 -0.00070075829952343047 -0.0007420270927011351 0 -0.00060181365828232273 -0.00062096854991367575 0 -0.00066195743567921733 -0.00076889449030640767 0 -7.7176895380349246e-08 -0.0024318433878576847 0 7.7346646250926282e-05 -0.0025034613693748738 0 -4.810767646427209e-06 -0.0026364938623947278 0 -0.00054454436562809941 -0.0015198290760562478 0 -0.00059059804078748961 -0.0016526437699475652 0 -0.0006556841133249213 -0.0015355452264584949 0 0.00054429782926248118 -0.0015198970808538168 0 0.00057396055849747547 -0.0014026949655275187 0 0.00065651453611234264 -0.0015506540477363941 0 -1.1927715791270387e-07 -0.00055328820562792873 0 -4.3100827694029875e-05 -0.00049323891920643277 0 2.7351981280270158e-06 -0.00038250368415855692 0 0.00060306262427364365 -0.0031915545232937309 0 0.00050658169867952578 -0.0031899638892404899 0 0.00055755812770329389 -0.0030136867361591079 0 -0.00096586964513983777 -0.0025437032105485361 0 -0.00096440134379557766 -0.0023827845456805457 0 -0.00087250904650146884 -0.0024660280514305598 0 0.00070055259979036691 -0.00074192279117722389 0 0.00077117306801968385 -0.00088504602984406798 0 0.00065913326687177002 -0.00076128836918477026 0 -3.0912290732612321e-08 -1.1446497126343517e-07 0 -1.6425780108237609e-08 -1.0782111168734457e-07 0 -0.00010156391646791702 -0.00012449266251141991 0 0.00096426956304283796 -0.0023828410436359561 0 0.00096575934319542136 -0.0025438214358679424 0 0.00086711363794745179 -0.0024363265697879208 0 1.769081724336998e-08 -1.0662968214677168e-07 0 3.0332299151747881e-08 -1.1452381175351473e-07 0 0.00010313713157135934 -0.00012660845221464234 0 -0.00050676807145401707 -0.0031899311932905511 0 -0.00060338442842218639 -0.0031914485958679964 0 -0.00054026303073118932 -0.0030034815141486105 0 -0.00077180528304386794 -0.00088500752275832842 0 -0.00070075829952343047 -0.0007420270927011351 0 -0.00066195743567921733 -0.00076889449030640767 0 0.00096426956304283796 -0.0023828410436359561 0 0.00086711363794745179 -0.0024363265697879208 0 0.0008693120878451718 -0.0022569272227989643 0 1.769081724336998e-08 -1.0662968214677168e-07 0 0.00010313713157135934 -0.00012660845221464234 0 7.6598923075044001e-05 -0.00011744298174124681 0 -0.00050676807145401707 -0.0031899311932905511 0 -0.00054026303073118932 -0.003003481514148611 0 -0.00043110721832757392 -0.0030075405291944556 0 -0.00077180528304386794 -0.00088500752275832842 0 -0.00066195743567921733 -0.00076889449030640767 0 -0.00072853068923156073 -0.00093712272324851758 0 0.00065656141371241974 -0.0026244731267112001 0 0.00074525187525276084 -0.0025679731053026202 0 0.0007695344896904195 -0.0027098394755520161 0 -0.00065678455984554155 -0.0026244038094312343 0 -0.00062170691711298622 -0.0027809109399955707 0 -0.00070227191720316983 -0.002827355650192309 0 -0.00021507686597489438 -0.002311995374731896 0 -0.00010756200835754745 -0.0022858548131040849 0 -0.00013751720770311109 -0.0024335036200254525 0 0.00048907597649282405 -0.0018607913338410244 0 0.00047092038416094009 -0.0016817629915297156 0 0.00055520624566544375 -0.0017434103127576472 0 -0.00044485128073356407 -0.0011552078472813899 0 -0.00045068858000921642 -0.0013291936872356584 0 -0.00052613660133903626 -0.0012966643667722034 0 0.00014848507552148938 -0.00066674669883686963 0 7.3717468489250756e-05 -0.00067972624722164926 0 8.3840451334961128e-05 -0.00055319798416286249 0 0.00079940722054703671 -0.003061653079834603 0 0.00069737951783199845 -0.0031927618705711357 0 0.00072827128588162898 -0.0030197214112030555 0 -0.00089709373610839457 -0.0028848641298583016 0 -0.00096703541441084276 -0.0027054153814445158 0 -0.00087443916462462022 -0.0027585262149513335 0 -0.00047231484395862476 -0.00044526860120533261 0 -0.00060793999719238807 -0.00059794004921442955 0 -0.00039253961155937477 -0.00033436276858035083 0 -0.00071859497726176828 -0.0029977363049929263 0 -0.00069758614479705416 -0.0031927600177518072 0 -0.00079970547124962141 -0.0030616437643713767 0 0.00014747587840172139 -0.00013582210099662029 0 2.1076196377956261e-08 -1.0215939222298104e-07 0 0.00013143492149873885 -9.6120959632828884e-05 0 0.0008625844143951122 -0.0027409995621849787 0 0.00096686773885609712 -0.0027055228506733661 0 0.00089686834294014231 -0.00288486752152481 0 0.00039312203298984814 -0.00033414967234360619 0 0.00060907490611807123 -0.0005971895349108806 0 0.00047650976325670698 -0.00045328819558474094 0 -0.000131620560202259 -9.656601221764188e-05 0 -2.0906568780586079e-08 -1.0096052547927321e-07 0 -0.00015707436563929108 -0.00014557185407650621 0 -0.00060468956212224973 -0.00080426297345263602 0 -0.00056579253566639716 -0.00067624035066268513 0 -0.00047769420205135424 -0.00065339513447805215 0 0.00017109512428803113 -0.00026034402033519726 0 0.00018783359382602887 -0.00024240607707788389 0 0.00027972807801471196 -0.00040638817813462937 0 0.00076844682718323748 -0.0023293339416702481 0 0.00079506646630687862 -0.0024673402702712222 0 0.00067700370247506317 -0.0024341630545275331 0 -0.00047963757475686362 -0.0028176316200133741 0 -0.00056081696996106156 -0.0028702577848243732 0 -0.00054602287434579158 -0.0026544255093214979 0 0.00048931072769361019 -0.0028834446626944911 0 0.00044229967867418597 -0.0030247007907541726 0 0.00041581856678618215 -0.0028537755972138728 0 -0.00080364273259416559 -0.0023485059066837791 0 -0.00087861173720391289 -0.0022762379054246744 0 -0.00078861547643568539 -0.0022265840592036886 0 0.0006081483230978436 -0.00079109767024150134 0 0.00072800925165222689 -0.00092461637737371839 0 0.00065390522410267303 -0.00091521476698820268 0 -0.00016609288257065285 -0.00024586872566401304 0 -7.367393771143618e-05 -0.00011086484428501779 0 -0.00013486179730929306 -0.00023470480139025989 0 7.5584603776131088e-05 -0.00016245405075897924 0 8.373025519401307e-05 -0.00025170714324119429 0 4.0744554240757525e-05 -0.00013200986318738937 0 0.00083234534316563823 -0.0020795158093242804 0 0.00076540961223778086 -0.0019552892673216893 0 0.00085040619044330918 -0.0019136034593142813 0 -0.00074157465074523238 -0.0010870693775215151 0 -0.00070163065614145634 -0.0011759825462387787 0 -0.00079481659398922342 -0.0012598864715047643 0 -0.00032223384449032761 -0.0029378926938383484 0 -0.00024899774563673393 -0.0028133740769843291 0 -0.00021511958238783181 -0.0029789024762509799 0 -4.810767646427209e-06 -0.0026364938623947278 0 7.7346646250926282e-05 -0.0025034613693748738 0 8.2980437852227113e-05 -0.002648448206050434 0 -0.0006556841133249213 -0.0015355452264584949 0 -0.00059059804078748961 -0.0016526437699475652 0 -0.00066960748065710961 -0.0016767964692368197 0 0.00065651453611234264 -0.0015506540477363941 0 0.00057396055849747536 -0.0014026949655275185 0 0.00065094169453594095 -0.0014124356976313616 0 2.7351981280270158e-06 -0.00038250368415855692 0 -4.3100827694029875e-05 -0.00049323891920643277 0 -3.7261140888485971e-05 -0.00037554568721873642 0 0.00065656141371241974 -0.0026244731267112001 0 0.00076953448969041961 -0.0027098394755520161 0 0.00069963633947679434 -0.0027855902065536931 0 -0.00065678455984554155 -0.0026244038094312343 0 -0.00070227191720316983 -0.002827355650192309 0 -0.00074665808108959639 -0.0027040984332397399 0 0.00037385249623774549 -0.00046061044880641203 0 0.00030641848339644676 -0.00032710956429502544 0 0.00041419955117940368 -0.00042789595917307118 0 -0.00037116597858344514 -0.00045691593363466178 0 -0.00039664631983434663 -0.00041949618120007333 0 -0.00028466713878696668 -0.00029542929452219742 0 -0.00047769420205135424 -0.00065339513447805215 0 -0.00056579253566639716 -0.00067624035066268513 0 -0.00047166937637936536 -0.00055000315549710063 0 0.00027972807801471196 -0.00040638817813462937 0 0.00018783359382602887 -0.00024240607707788389 0 0.00026549358872052594 -0.00032176403555213973 0 0.00037385249623774549 -0.00046061044880641203 0 0.00041419955117940368 -0.00042789595917307118 0 0.00047073369781749192 -0.00054982945579511568 0 -0.00037116597858344514 -0.00045691593363466178 0 -0.00028466713878696668 -0.00029542929452219742 0 -0.00026644337782625682 -0.00032377689009175281 0 -0.00036285723556522939 -0.0023872240297291292 0 -0.00032090922506359176 -0.002223749473341914 0 -0.00028955336057874103 -0.0024287683939445471 0 0.00053070936538629975 -0.0021114727471390842 0 0.00043483824900229892 -0.0020294441488223885 0 0.00055530564967817397 -0.0019920982822983877 0 -0.00044033196535373968 -0.00092098500828180008 0 -0.00036887318192195382 -0.00097335312540044636 0 -0.00048640631027560636 -0.0010468766703567625 0 0.00024127102524427869 -0.00061844447203430574 0 0.00024048801029312298 -0.000766607265867419 0 0.00018120259814409227 -0.00057047172932168987 0 -0.00047963757475686362 -0.0028176316200133741 0 -0.00043110721832757392 -0.0030075405291944556 0 -0.00054026303073118932 -0.0030034815141486105 0 -0.00060468956212224973 -0.00080426297345263602 0 -0.00072853068923156073 -0.00093712272324851748 0 -0.00066195743567921733 -0.00076889449030640767 0 0.00076844682718323748 -0.0023293339416702481 0 0.0008693120878451718 -0.0022569272227989643 0 0.00086711363794745179 -0.0024363265697879208 0 0.00017109512428803113 -0.00026034402033519726 0 7.6598923075043987e-05 -0.00011744298174124681 0 0.00010313713157135934 -0.00012660845221464234 0 -0.00054602287434579158 -0.0026544255093214979 0 -0.00056081696996106156 -0.0028702577848243732 0 -0.00062170691711298633 -0.0027809109399955711 0 0.00067700370247506317 -0.0024341630545275331 0 0.00079506646630687862 -0.0024673402702712222 0 0.00074525187525276084 -0.0025679731053026202 0 -0.00028955336057874103 -0.0024287683939445471 0 -0.00032090922506359176 -0.002223749473341914 0 -0.00021507686597489438 -0.002311995374731896 0 0.00055530564967817397 -0.0019920982822983877 0 0.00043483824900229892 -0.0020294441488223885 0 0.00048907597649282405 -0.0018607913338410244 0 -0.00048640631027560636 -0.0010468766703567625 0 -0.00036887318192195382 -0.00097335312540044636 0 -0.00044485128073356407 -0.0011552078472813899 0 0.00018120259814409227 -0.00057047172932168987 0 0.00024048801029312298 -0.000766607265867419 0 0.00014848507552148938 -0.00066674669883686963 0 0.0001509723102579442 -0.0017601747548045821 0 7.1698723093067035e-05 -0.0018156003860768462 0 6.1699200144305771e-05 -0.0016491134889864236 0 0.00095293767145229421 -0.0019100977780663821 0 0.00085040619044330918 -0.0019136034593142813 0 0.00087349033626497581 -0.0017766096057074447 0 9.7770556235269522e-09 -1.0773527650391307e-07 0 4.0744554240757525e-05 -0.00013200986318738937 0 1.7434934551225919e-05 -9.2396828982921358e-05 0 -0.0002061066658618923 -0.0031850987991873395 0 -0.00021511958238783181 -0.0029789024762509799 0 -0.00012336938340424302 -0.0030352264526730724 0 -0.00089634692376370552 -0.0013100546352804116 0 -0.00079481659398922342 -0.0012598864715047643 0 -0.00084317875772364954 -0.0014064589704767473 0 -0.00013171414525883082 -0.0028526834209706272 0 -2.7526495089897885e-05 -0.0029618674048253139 0 -0.00012336938340424302 -0.0030352264526730724 0 -0.00075061366778245197 -0.0013659428870838491 0 -0.0008225248754454847 -0.0015406567400613512 0 -0.00084317875772364954 -0.0014064589704767473 0 0.00078131790741323072 -0.0017738018733439477 0 0.00082871281658418276 -0.001623877692853008 0 0.00087349033626497581 -0.0017766096057074447 0 3.9235300150196635e-05 -0.00021844556314660991 0 5.5468793299218455e-06 -0.00014041147531944264 0 1.7434934551225919e-05 -9.2396828982921358e-05 0 0.00014725319712218077 -0.0016185382854106249 0 0.0001509723102579442 -0.0017601747548045821 0 6.1699200144305771e-05 -0.0016491134889864236 0 0.0009615724477743064 -0.0022232169736244073 0 0.00096426956304283796 -0.0023828410436359561 0 0.0008693120878451718 -0.0022569272227989643 0 1.0797946947871088e-08 -1.1317161598106017e-07 0 1.769081724336998e-08 -1.0662968214677168e-07 0 7.6598923075044001e-05 -0.00011744298174124681 0 -0.00040808342161430196 -0.0031880730989778507 0 -0.00050676807145401707 -0.0031899311932905511 0 -0.00043110721832757392 -0.0030075405291944556 0 -0.00082389641562662737 -0.0010268953924695804 0 -0.00077180528304386794 -0.00088500752275832842 0 -0.00072853068923156073 -0.00093712272324851758 0 0.00078131790741323072 -0.0017738018733439477 0 0.00069136126910851752 -0.0018581935182388489 0 0.00069317434268150553 -0.0017009118196524202 0 -0.00013171414525883082 -0.0028526834209706272 0 -0.0001951540275264473 -0.0026778145981834417 0 -9.5501742454384627e-05 -0.002690226370042416 0 3.9235300150196635e-05 -0.00021844556314660991 0 8.4739332836134728e-05 -0.00035395849080611605 0 4.1456718617476693e-05 -0.0003409386125040426 0 -0.00075061366778245197 -0.0013659428870838491 0 -0.00064518759314886821 -0.0012376820931082862 0 -0.00067194222548477595 -0.0013982565297739121 0 0.00078131790741323072 -0.0017738018733439477 0 0.00076540961223778086 -0.0019552892673216893 0 0.00069136126910851752 -0.0018581935182388489 0 3.9235300150196635e-05 -0.00021844556314660991 0 8.373025519401307e-05 -0.00025170714324119429 0 8.4739332836134741e-05 -0.00035395849080611605 0 -0.00013171414525883082 -0.0028526834209706272 0 -0.00024899774563673393 -0.0028133740769843291 0 -0.0001951540275264473 -0.0026778145981834417 0 -0.00075061366778245197 -0.0013659428870838491 0 -0.00070163065614145634 -0.0011759825462387787 0 -0.00064518759314886821 -0.0012376820931082862 0 0.00048907597649282405 -0.0018607913338410244 0 0.00038864151036045069 -0.0018730480564200531 0 0.00040146434091794961 -0.0017375288553051307 0 -0.00021507686597489438 -0.002311995374731896 0 -0.00023211684791421485 -0.0021370928211749116 0 -0.00014931644237789173 -0.0021607167897784748 0 0.00014848507552148938 -0.00066674669883686963 0 0.00017802439269475306 -0.0008309423269202477 0 0.00011174919119144533 -0.0007990784438035957 0 -0.00044485128073356407 -0.0011552078472813899 0 -0.0003523506474332076 -0.0011329538324925065 0 -0.00038150327924714678 -0.0012580983398492594 0 3.0341591610589886e-05 -0.0021455292657475739 0 0.00014431009826517457 -0.0021464087182039115 0 9.1543913177914648e-05 -0.0023187313657031332 0 -0.00038751094919452233 -0.0015436573001441057 0 -0.00039134143260744473 -0.0017277439830872012 0 -0.00048885483782400716 -0.0016582673322215044 0 0.00038818387206951909 -0.0014425491231980885 0 0.0003672908781063289 -0.0012584217486967925 0 0.00047108554901380858 -0.0013583091384014234 0 -2.5789586984976359e-05 -0.00079236412173220346 0 -0.0001096687572302295 -0.00081541600367760749 0 -6.2201589470704124e-05 -0.00065305461421101107 0 0.00053252054696314999 -0.00056904825161057412 0 0.00060312794608465914 -0.00062364868729610824 0 0.00065913326687177002 -0.00076128836918477026 0 -0.00018183094928060203 -0.00019700480037059803 0 -8.8315478476515987e-05 -8.9858819359247774e-05 0 -0.00010156391646791702 -0.00012449266251141991 0 0.0006343156585051007 -0.0029030267105289039 0 0.00065305677147713831 -0.0030464078903036473 0 0.00055755812770329389 -0.0030136867361591079 0 -0.0008125233175341833 -0.0025936637148565051 0 -0.00088935684825140846 -0.0026281292813031885 0 -0.00087250904650146884 -0.0024660280514305598 0 0.00082166016528141582 -0.0025980464048641423 0 0.00086711363794745179 -0.0024363265697879208 0 0.00089715757443977026 -0.002605040026134541 0 0.00018931600809982116 -0.00020048560068197993 0 0.00010313713157135934 -0.00012660845221464234 0 8.7631611207013876e-05 -8.9571797484685439e-05 0 -0.00063679974748825539 -0.0029204688184181035 0 -0.00054026303073118932 -0.0030034815141486105 0 -0.00063971595293487956 -0.0030614100563366542 0 -0.00052456607514088122 -0.00055717671053981551 0 -0.00066195743567921733 -0.00076889449030640767 0 -0.00060181365828232273 -0.00062096854991367575 0 0.00020109954042435023 -0.0023101515727460978 0 9.1543913177914648e-05 -0.0023187313657031332 0 0.00014431009826517457 -0.0021464087182039115 0 -0.00048780838114398459 -0.0018381633964094676 0 -0.00048885483782400716 -0.0016582673322215044 0 -0.00039134143260744473 -0.0017277439830872012 0 0.000446808100432875 -0.0011776644612985707 0 0.00047108554901380858 -0.0013583091384014234 0 0.0003672908781063289 -0.0012584217486967925 0 -0.00013971547705399396 -0.00066877556308641705 0 -6.2201589470704124e-05 -0.00065305461421101107 0 -0.0001096687572302295 -0.00081541600367760749 0 0.00066020465981620163 -0.002288704034979664 0 0.0005624811105111047 -0.0022346666881755007 0 0.00061615088382779945 -0.0021006333807550084 0 -0.00046080239991894118 -0.0026204797203614638 0 -0.00043430746266286032 -0.002445925889104702 0 -0.00035082388777105957 -0.0025377243807686786 0 0.00023992281870969772 -0.00042509599876380843 0 0.00027775616724247875 -0.00057664886846467477 0 0.00019634243144908112 -0.00048218599526688013 0 -0.00051494034155698655 -0.00079212923791876415 0 -0.00044029153100234424 -0.00081023547549611576 0 -0.00052309001643994037 -0.0009613783127741997 0 0.00070602501080228657 -0.0021824683767748079 0 0.00066020465981620163 -0.002288704034979664 0 0.00061615088382779945 -0.0021006333807550084 0 0.00017427401956799141 -0.00034828896776841205 0 0.00023992281870969772 -0.00042509599876380843 0 0.00019634243144908112 -0.00048218599526688013 0 -0.00039424651584536995 -0.0027010712299935127 0 -0.00046080239991894118 -0.0026204797203614638 0 -0.00035082388777105957 -0.0025377243807686786 0 -0.00058936333789335563 -0.00091937239308828795 0 -0.00051494034155698655 -0.00079212923791876415 0 -0.00052309001643994037 -0.0009613783127741997 0 0.00030839112300794436 -0.0019693733943533806 0 0.00038864151036045074 -0.0018730480564200531 0 0.00043483824900229892 -0.0020294441488223885 0 -0.00028600352001728298 -0.0019990599960923745 0 -0.00023211684791421485 -0.0021370928211749116 0 -0.00032090922506359176 -0.002223749473341914 0 0.00024395039503066673 -0.00096885239073820088 0 0.00017802439269475306 -0.0008309423269202477 0 0.00024048801029312298 -0.000766607265867419 0 -0.00026357615502476891 -0.001002504604138487 0 -0.0003523506474332076 -0.0011329538324925065 0 -0.00036887318192195382 -0.00097335312540044636 0 0.00034481269470973354 -0.0025705423014858149 0 0.00034490527605681717 -0.0027815926655434153 0 0.00028540603843067697 -0.0026624500286066498 0 0.0004081003377720362 -0.0026593190678646356 0 0.00034490527605681722 -0.0027815926655434153 0 0.00034481269470973354 -0.0025705423014858149 0 -0.00063445956023482661 -0.0020932544350725055 0 -0.0007498853956821788 -0.0021071569053260015 0 -0.00068509213526638999 -0.0020025787968025845 0 -0.00068304780009409687 -0.0022030129457638321 0 -0.0007498853956821788 -0.0021071569053260015 0 -0.00063445956023482661 -0.0020932544350725055 0 0.00054226982827657478 -0.00097638744709037124 0 0.00065221024414186717 -0.0010160182364677291 0 0.00061124118417206518 -0.0010899129209875141 0 0.0005611394689963745 -0.00088836140834563807 0 0.00065221024414186728 -0.0010160182364677293 0 0.00054226982827657478 -0.00097638744709037124 0 -0.00018522703223609416 -0.00045478051365074103 0 -0.0001277301219329016 -0.00028099721472471767 0 -0.00013058544855497337 -0.00037146189929065509 0 -0.00019550941148204379 -0.00038560274813815101 0 -0.0001277301219329016 -0.00028099721472471767 0 -0.00018522703223609416 -0.00045478051365074103 0 -1.6522100032026721e-05 -0.0017770590108374209 0 2.3788793907517485e-05 -0.0019492137556998211 0 -9.1449680500996737e-05 -0.0019063708397297865 0 9.1216395356929068e-05 -0.0012061282090175805 0 8.8779299263972386e-06 -0.0011511218742406408 0 8.3465596542487284e-05 -0.0010561029402992798 0 -0.00013171414525883082 -0.0028526834209706272 0 -2.5621421034659005e-05 -0.0028104269336198607 0 -2.7526495089897885e-05 -0.0029618674048253139 0 -0.00075061366778245197 -0.0013659428870838491 0 -0.00074514150663662463 -0.0015244357334167802 0 -0.0008225248754454847 -0.0015406567400613512 0 0.00078131790741323072 -0.0017738018733439477 0 0.00075064194588432369 -0.0016043169249017437 0 0.00082871281658418276 -0.001623877692853008 0 3.9235300150196635e-05 -0.00021844556314660991 0 8.7893522176763286e-06 -0.00024906840579253187 0 5.5468793299218455e-06 -0.00014041147531944264 0 -1.6522100032026721e-05 -0.0017770590108374209 0 7.1698723093067035e-05 -0.0018156003860768462 0 2.3788793907517485e-05 -0.0019492137556998211 0 0.00013374101975100548 -0.0019395892100616573 0 2.3788793907517485e-05 -0.0019492137556998211 0 7.1698723093067035e-05 -0.0018156003860768462 0 7.5584603776131088e-05 -0.00016245405075897924 0 0.00012020353794379223 -0.00027136652884652174 0 8.373025519401307e-05 -0.00025170714324119429 0 0.00083234534316563823 -0.0020795158093242804 0 0.00075577414954439127 -0.0020863495303842911 0 0.00076540961223778086 -0.0019552892673216893 0 -0.00032223384449032761 -0.0029378926938383484 0 -0.00033163472841368953 -0.0027931478472865991 0 -0.00024899774563673393 -0.0028133740769843291 0 -0.00074157465074523238 -0.0010870693775215151 0 -0.00066287818881860105 -0.0010404158440515229 0 -0.00070163065614145634 -0.0011759825462387787 0 0.00065656141371241974 -0.0026244731267112001 0 0.00059040751486349704 -0.0025118043477268441 0 0.00067700370247506317 -0.0024341630545275331 0 -0.00065678455984554155 -0.0026244038094312343 0 -0.00059478169901866376 -0.0025049305727898059 0 -0.00054602287434579158 -0.0026544255093214979 0 0.00037385249623774549 -0.00046061044880641203 0 0.00038349518231686183 -0.00056189228132789623 0 0.00027972807801471196 -0.00040638817813462937 0 -0.00037116597858344514 -0.00045691593363466178 0 -0.0003659655071427932 -0.00053965154945744443 0 -0.00047769420205135424 -0.00065339513447805215 0 0.00068486749705752928 -0.0020026175662030367 0 0.00061615088382779945 -0.0021006333807550084 0 0.0006022493641446179 -0.0019031856476074004 0 -0.00028560249531983862 -0.002662473216102852 0 -0.00035082388777105957 -0.0025377243807686786 0 -0.00023142174700779727 -0.0025133168810582288 0 0.00013056134610272643 -0.00037225760091217866 0 0.00019634243144908112 -0.00048218599526688013 0 0.00013122425171037839 -0.00049218508069131671 0 -0.00061150223863516847 -0.0010893798756488934 0 -0.00052309001643994037 -0.0009613783127741997 0 -0.00054887920880408421 -0.0011537562561223904 0 0.00022747744825734765 -0.0018471389226748648 0 0.0002373035092685998 -0.0016641459581471798 0 0.00031235226167293078 -0.0018058967696799144 0 0.00048931072769361019 -0.0028834446626944911 0 0.00056349790973529766 -0.0028152862392366545 0 0.00055755812770329389 -0.0030136867361591079 0 -0.00080364273259416559 -0.0023485059066837791 0 -0.00076559109936132736 -0.0024703565538469136 0 -0.00087250904650146884 -0.0024660280514305598 0 0.0006343156585051007 -0.0029030267105289039 0 0.00055755812770329389 -0.0030136867361591079 0 0.00056349790973529766 -0.0028152862392366545 0 -0.0008125233175341833 -0.0025936637148565051 0 -0.00087250904650146884 -0.0024660280514305598 0 -0.00076559109936132736 -0.0024703565538469136 0 0.00048519967942058112 -0.0025043234012706991 0 0.00059040751486349704 -0.0025118043477268441 0 0.00056869560838185707 -0.0026474653535791585 0 0.00065656141371241974 -0.0026244731267112001 0 0.00056869560838185707 -0.0026474653535791585 0 0.00059040751486349704 -0.0025118043477268441 0 -0.00059467438967216726 -0.0023236677996314589 0 -0.00059478169901866376 -0.0025049305727898059 0 -0.00067271845415090329 -0.0024726330191467121 0 -0.00065678455984554155 -0.0026244038094312343 0 -0.00067271845415090329 -0.0024726330191467121 0 -0.00059478169901866376 -0.0025049305727898059 0 0.00044282036739320816 -0.00073290077833947423 0 0.00038349518231686178 -0.00056189228132789623 0 0.00048162383245535289 -0.00065139034616196179 0 0.00037385249623774549 -0.00046061044880641203 0 0.00048162383245535289 -0.00065139034616196179 0 0.00038349518231686178 -0.00056189228132789623 0 -0.00029549263186179358 -0.00053115222921185036 0 -0.0003659655071427932 -0.00053965154945744443 0 -0.00027414630715016415 -0.00039281068000190944 0 -0.00037116597858344514 -0.00045691593363466178 0 -0.00027414630715016415 -0.00039281068000190944 0 -0.0003659655071427932 -0.00053965154945744443 0 0.00078978760760710679 -0.0028710722720246091 0 0.00086450651737098505 -0.0030020248439460661 0 0.00079940722054703671 -0.003061653079834603 0 0.00030796790824146389 -0.00027145139087298174 0 0.00023076847959639221 -0.00017087887511753463 0 0.00039312203298984814 -0.00033414967234360619 0 0.00030796790824146389 -0.00027145139087298174 0 0.00013143492149873882 -9.6120959632828857e-05 0 0.00023076847959639221 -0.00017087887511753463 0 -0.00079280624212388329 -0.0028658599558904767 0 -0.00086480459188237574 -0.0030019831395499113 0 -0.00089709373610839457 -0.0028848641298583016 0 0.00078978760760710679 -0.0028710722720246091 0 0.00089686834294014231 -0.00288486752152481 0 0.00086450651737098505 -0.0030020248439460661 0 -0.00031116126664316318 -0.00027554537234411 0 -0.00023022669485746477 -0.00017036419887765889 0 -0.000131620560202259 -9.656601221764188e-05 0 -0.00031116126664316318 -0.00027554537234411 0 -0.00039253961155937477 -0.00033436276858035083 0 -0.00023022669485746477 -0.00017036419887765886 0 -0.00079280624212388329 -0.0028658599558904767 0 -0.00079970547124962141 -0.0030616437643713767 0 -0.00086480459188237574 -0.0030019831395499113 0 0.00078131790741323072 -0.0017738018733439477 0 0.00085040619044330918 -0.0019136034593142813 0 0.00076540961223778086 -0.0019552892673216893 0 -0.00013171414525883082 -0.0028526834209706272 0 -0.00021511958238783183 -0.0029789024762509799 0 -0.00024899774563673393 -0.0028133740769843291 0 3.9235300150196635e-05 -0.00021844556314660991 0 4.0744554240757525e-05 -0.00013200986318738937 0 8.373025519401307e-05 -0.00025170714324119429 0 -0.00075061366778245197 -0.0013659428870838491 0 -0.00079481659398922342 -0.0012598864715047643 0 -0.00070163065614145634 -0.0011759825462387787 0 0.00030839112300794436 -0.0019693733943533806 0 0.00029590349772381114 -0.002151530019598431 0 0.00022184755125819716 -0.0020440508180083368 0 -0.00028600352001728298 -0.0019990599960923745 0 -0.00039619231393475397 -0.0019861008989604922 0 -0.00033867655985180158 -0.0018537329363139162 0 0.00024395039503066673 -0.00096885239073820088 0 0.00033990417773163191 -0.0010047882568621457 0 0.00029551922464466751 -0.0011181476959200298 0 -0.00026357615502476891 -0.001002504604138487 0 -0.00023011351985449698 -0.0008264328773221535 0 -0.00018140784396214688 -0.00091708968567977528 0 0.00094461449365171692 -0.0017559594623686109 0 0.00095293767145229421 -0.0019100977780663821 0 0.00087349033626497581 -0.0017766096057074447 0 -2.5714163782599949e-10 -1.1221132801716118e-07 0 9.7770556235269522e-09 -1.0773527650391307e-07 0 1.7434934551225919e-05 -9.2396828982921358e-05 0 -0.00010336812304552387 -0.0031840048047145774 0 -0.0002061066658618923 -0.0031850987991873395 0 -0.00012336938340424302 -0.0030352264526730724 0 -0.00091730034229081767 -0.0014567870509056163 0 -0.00089634692376370552 -0.0013100546352804116 0 -0.00084317875772364954 -0.0014064589704767473 0 0.00031401465308335865 -0.00025708210136017243 0 0.00039312203298984814 -0.00033414967234360614 0 0.00023076847959639221 -0.00017087887511753463 0 3.8593183800290656e-09 -9.5093384767744939e-08 0 -0.000131620560202259 -9.656601221764188e-05 0 -0.00023022669485746477 -0.00017036419887765886 0 -4.3365939404286541e-09 -9.5488702690531176e-08 0 0.00023076847959639221 -0.00017087887511753463 0 0.00013143492149873885 -9.6120959632828884e-05 0 0.00096815711198416075 -0.0030304500094976258 0 0.00086450651737098505 -0.0030020248439460661 0 0.00089686834294014231 -0.00288486752152481 0 0.00087974578742311361 -0.0031933532699646048 0 0.00079940722054703671 -0.0030616530798346035 0 0.00086450651737098505 -0.0030020248439460661 0 -0.00096844296499257025 -0.0030304389615348351 0 -0.00089709373610839457 -0.0028848641298583016 0 -0.00086480459188237574 -0.0030019831395499113 0 -0.00031369532616570595 -0.000257259444908824 0 -0.00023022669485746477 -0.00017036419887765886 0 -0.00039253961155937477 -0.00033436276858035083 0 -0.00088002316537683664 -0.0031933280790319065 0 -0.00086480459188237574 -0.0030019831395499113 0 -0.00079970547124962141 -0.0030616437643713767 0 0.00010324288626671888 -0.0031840797698251423 0 0.00010895625241522928 -0.0030072704074356402 0 0.0001912083612248687 -0.003044604191462969 0 -0.00094571159373450125 -0.0017557635898752129 0 -0.00085839913395511374 -0.0017526623348515366 0 -0.00088288204484243899 -0.0018810610390148097 0 0.00091830915066518656 -0.001456432667346428 0 0.00083116992266066183 -0.0014243044744900778 0 0.00083284241191045169 -0.0013067409049175676 0 -3.5626906457785541e-09 -1.0794388510895936e-07 0 -1.7105692722447912e-05 -0.00011317861710075382 0 -2.5495598365714229e-05 -8.7255560524174456e-05 0 0.00037385249623774549 -0.00046061044880641203 0 0.00027972807801471196 -0.00040638817813462937 0 0.00026549358872052594 -0.00032176403555213973 0 -0.00037116597858344514 -0.00045691593363466178 0 -0.00047769420205135424 -0.00065339513447805215 0 -0.00047166937637936536 -0.00055000315549710063 0 0.00048519967942058112 -0.0025043234012706991 0 0.00048828004907439619 -0.0027280797795638653 0 0.0004081003377720362 -0.0026593190678646356 0 -0.00059467438967216726 -0.0023236677996314589 0 -0.00071949602568586329 -0.0023402126257338236 0 -0.00068304780009409687 -0.0022030129457638321 0 0.00044282036739320816 -0.00073290077833947423 0 0.00054303338266508121 -0.00077820070286117383 0 0.0005611394689963745 -0.00088836140834563807 0 -0.00029549263186179358 -0.00053115222921185036 0 -0.00022124233463834009 -0.00036166922049962367 0 -0.00019550941148204379 -0.00038560274813815101 0 7.0398544834951446e-05 -0.0027930112367086975 0 -2.5621421034659005e-05 -0.0028104269336198607 0 -4.810767646427209e-06 -0.0026364938623947278 0 -0.00074584923638837744 -0.0016724972827563381 0 -0.00074514150663662463 -0.0015244357334167802 0 -0.0006556841133249213 -0.0015355452264584949 0 0.00072952014545953655 -0.0014521492300810929 0 0.00075064194588432369 -0.0016043169249017437 0 0.00065651453611234264 -0.0015506540477363941 0 -2.4927837192311126e-05 -0.00026256166527475816 0 8.7893522176763286e-06 -0.00024906840579253187 0 2.7351981280270158e-06 -0.00038250368415855692 0 -0.00060468956212224973 -0.00080426297345263602 0 -0.00066803766353333311 -0.00095635033899354755 0 -0.00072853068923156073 -0.00093712272324851758 0 -0.00047963757475686362 -0.0028176316200133741 0 -0.00039190488708687395 -0.0028512468738896733 0 -0.00043110721832757392 -0.0030075405291944556 0 0.00017109512428803113 -0.00026034402033519726 0 0.00012581347627059611 -0.0002299887378956448 0 7.6598923075044001e-05 -0.00011744298174124681 0 0.00076844682718323748 -0.0023293339416702481 0 0.00078702119379568333 -0.0021873307269385115 0 0.0008693120878451718 -0.0022569272227989643 0 0.0005624811105111047 -0.0022346666881755007 0 0.00053070936538629975 -0.0021114727471390842 0 0.00061615088382779945 -0.0021006333807550084 0 -0.00043430746266286032 -0.002445925889104702 0 -0.00036285723556522939 -0.0023872240297291292 0 -0.00035082388777105957 -0.0025377243807686786 0 0.00027775616724247875 -0.00057664886846467477 0 0.00024127102524427869 -0.00061844447203430574 0 0.00019634243144908112 -0.00048218599526688013 0 -0.00044029153100234424 -0.00081023547549611576 0 -0.00044033196535373968 -0.00092098500828180008 0 -0.00052309001643994037 -0.0009613783127741997 0 0.00065656141371241974 -0.0026244731267112001 0 0.00067700370247506317 -0.0024341630545275331 0 0.00074525187525276084 -0.0025679731053026202 0 -0.00065678455984554155 -0.0026244038094312343 0 -0.00054602287434579158 -0.0026544255093214979 0 -0.00062170691711298633 -0.0027809109399955711 0 0.00033017847775850358 -0.0016769709179678821 0 0.0002834104944628924 -0.0014932467568742032 0 0.00039095472617777936 -0.0015917964702605 0 0.00038818387206951909 -0.0014425491231980885 0 0.00039095472617777936 -0.0015917964702605 0 0.0002834104944628924 -0.0014932467568742032 0 0.0005624811105111047 -0.0022346666881755007 0 0.00048449787099309456 -0.0022052301013963218 0 0.00053070936538629975 -0.0021114727471390842 0 -0.00043430746266286032 -0.002445925889104702 0 -0.00042129362450898738 -0.002309807709093524 0 -0.00036285723556522939 -0.0023872240297291292 0 0.00027775616724247875 -0.00057664886846467477 0 0.00030209410132532507 -0.00070031945896422104 0 0.00024127102524427869 -0.00061844447203430574 0 -0.00044029153100234424 -0.00081023547549611576 0 -0.00037860092299830971 -0.0008153113169400032 0 -0.00044033196535373968 -0.00092098500828180008 0 0.00078978760760710679 -0.0028710722720246091 0 0.00079940722054703671 -0.003061653079834603 0 0.00072827128588162898 -0.0030197214112030555 0 -0.00079280624212388329 -0.0028658599558904767 0 -0.00089709373610839457 -0.0028848641298583016 0 -0.00087443916462462022 -0.0027585262149513335 0 0.00030796790824146389 -0.00027145139087298174 0 0.00039312203298984814 -0.00033414967234360619 0 0.00047650976325670698 -0.00045328819558474094 0 0.00078978760760710679 -0.0028710722720246091 0 0.0008625844143951122 -0.0027409995621849783 0 0.00089686834294014231 -0.00288486752152481 0 0.00030796790824146389 -0.00027145139087298174 0 0.00014747587840172139 -0.00013582210099662029 0 0.00013143492149873885 -9.6120959632828884e-05 0 -0.00031116126664316318 -0.00027554537234411 0 -0.000131620560202259 -9.656601221764188e-05 0 -0.00015707436563929108 -0.00014557185407650621 0 -0.00079280624212388329 -0.0028658599558904767 0 -0.00071859497726176828 -0.0029977363049929263 0 -0.00079970547124962141 -0.0030616437643713767 0 -0.00031116126664316318 -0.00027554537234411 0 -0.00047231484395862476 -0.00044526860120533261 0 -0.00039253961155937477 -0.00033436276858035083 0 9.1216395356929068e-05 -0.0012061282090175805 0 8.3465596542487284e-05 -0.0010561029402992798 0 0.00018243892252983656 -0.0011041287950992616 0 -2.2939005203351099e-06 -0.0010300349917144545 0 8.3465596542487284e-05 -0.0010561029402992798 0 8.8779299263972386e-06 -0.0011511218742406408 0 0.00033017847775850358 -0.0016769709179678821 0 0.00031235226167293078 -0.0018058967696799144 0 0.0002373035092685998 -0.0016641459581471798 0 -7.7176895380349246e-08 -0.0024318433878576847 0 -4.810767646427209e-06 -0.0026364938623947278 0 -7.0098187862979112e-05 -0.0025266360858300424 0 -0.00054454436562809941 -0.0015198290760562478 0 -0.0006556841133249213 -0.0015355452264584949 0 -0.00058790591191033002 -0.0014175485313660679 0 0.00054429782926248118 -0.0015198970808538168 0 0.00065651453611234264 -0.0015506540477363941 0 0.00060271147201057746 -0.0016432325382500241 0 -1.1927715791270387e-07 -0.00055328820562792873 0 2.7351981280270158e-06 -0.00038250368415855692 0 3.8507531870061715e-05 -0.00047252695724349722 0 0.0004081003377720362 -0.0026593190678646356 0 0.00048828004907439619 -0.0027280797795638653 0 0.00041581856678618215 -0.0028537755972138728 0 -0.00068304780009409687 -0.0022030129457638321 0 -0.00071949602568586329 -0.0023402126257338236 0 -0.00078861547643568539 -0.0022265840592036886 0 0.0005611394689963745 -0.00088836140834563807 0 0.00054303338266508121 -0.00077820070286117383 0 0.00065390522410267303 -0.00091521476698820268 0 -0.00019550941148204379 -0.00038560274813815101 0 -0.00022124233463834009 -0.00036166922049962372 0 -0.00013486179730929306 -0.00023470480139025989 0 0.00048907597649282405 -0.0018607913338410244 0 0.00043483824900229892 -0.0020294441488223885 0 0.00038864151036045069 -0.0018730480564200531 0 -0.00021507686597489438 -0.002311995374731896 0 -0.00032090922506359176 -0.002223749473341914 0 -0.00023211684791421485 -0.0021370928211749116 0 0.00014848507552148938 -0.00066674669883686963 0 0.00024048801029312298 -0.000766607265867419 0 0.00017802439269475306 -0.0008309423269202477 0 -0.00044485128073356407 -0.0011552078472813899 0 -0.00036887318192195382 -0.00097335312540044636 0 -0.0003523506474332076 -0.0011329538324925065 0 0.00076844682718323748 -0.0023293339416702481 0 0.00067700370247506317 -0.0024341630545275331 0 0.00066020465981620163 -0.002288704034979664 0 0.00017109512428803113 -0.00026034402033519726 0 0.00027972807801471196 -0.00040638817813462937 0 0.00023992281870969772 -0.00042509599876380843 0 -0.00047963757475686362 -0.0028176316200133741 0 -0.00054602287434579158 -0.0026544255093214975 0 -0.00046080239991894118 -0.0026204797203614638 0 -0.00060468956212224973 -0.00080426297345263602 0 -0.00047769420205135424 -0.00065339513447805215 0 -0.00051494034155698655 -0.00079212923791876415 0 0.00022747744825734765 -0.0018471389226748648 0 0.0001509723102579442 -0.0017601747548045821 0 0.0002373035092685998 -0.0016641459581471798 0 -0.00012894869627801413 -0.0016466517615173412 0 -0.0001992714090001341 -0.0015921165689933348 0 -9.3124502894534201e-05 -0.0015192887585209645 0 -0.00017559847411044405 -0.0014408995413800877 0 -9.3124502894534201e-05 -0.0015192887585209645 0 -0.0001992714090001341 -0.0015921165689933348 0 -0.00011575222929005153 -0.0020414828307071674 0 -0.00019257014376403684 -0.002009462205901326 0 -9.1449680500996737e-05 -0.0019063708397297865 0 -0.00018984040947813284 -0.0018702473287023687 0 -9.1449680500996737e-05 -0.0019063708397297865 0 -0.00019257014376403684 -0.002009462205901326 0 0.0006081483230978436 -0.00079109767024150134 0 0.00048162383245535289 -0.00065139034616196179 0 0.00055251927355318468 -0.00066097563027651474 0 -0.00016609288257065285 -0.00024586872566401304 0 -0.00027414630715016415 -0.00039281068000190944 0 -0.00019846610661859533 -0.00025473204438616762 0 -0.00017559847411044405 -0.0014408995413800877 0 -0.00027920775992114582 -0.001518401697006838 0 -0.0002355999853115077 -0.0013347264108276638 0 0.00050658169867952578 -0.0031899638892404899 0 0.00044229967867418597 -0.0030247007907541726 0 0.00055755812770329389 -0.0030136867361591079 0 -0.00096440134379557766 -0.0023827845456805457 0 -0.00087861173720391289 -0.0022762379054246744 0 -0.00087250904650146884 -0.0024660280514305598 0 0.00077117306801968385 -0.00088504602984406798 0 0.00072800925165222689 -0.0009246163773737185 0 0.00065913326687177002 -0.00076128836918477026 0 -1.6425780108244796e-08 -1.0782111168735337e-07 0 -7.367393771143618e-05 -0.00011086484428501779 0 -0.00010156391646791702 -0.00012449266251141991 0 0.00078131790741323072 -0.0017738018733439477 0 0.00087349033626497581 -0.0017766096057074447 0 0.00085040619044330918 -0.0019136034593142813 0 3.9235300150196635e-05 -0.00021844556314660991 0 1.7434934551225919e-05 -9.2396828982921345e-05 0 4.0744554240757525e-05 -0.00013200986318738937 0 -0.00013171414525883082 -0.0028526834209706272 0 -0.00012336938340424302 -0.0030352264526730724 0 -0.00021511958238783181 -0.0029789024762509799 0 -0.00075061366778245197 -0.0013659428870838491 0 -0.00084317875772364954 -0.0014064589704767473 0 -0.00079481659398922342 -0.0012598864715047643 0 -0.00018984040947813284 -0.0018702473287023687 0 -0.00019214196695832526 -0.0017348634076080976 0 -0.00010052417777545583 -0.0017585502118572136 0 -0.00011588595271765752 -0.00099707177104799193 0 -0.00010966875723022951 -0.00081541600367760749 0 -4.6159424119961356e-05 -0.00093198888901323935 0 -2.5789586984976359e-05 -0.00079236412173220346 0 -4.6159424119961356e-05 -0.00093198888901323935 0 -0.0001096687572302295 -0.00081541600367760749 0 0.00030751903803336565 -0.0031863262064922597 0 0.00020589458637076101 -0.0031850756271545825 0 0.00028157665778996704 -0.0030356617376698183 0 -0.00095858296667032043 -0.0020659891268011822 0 -0.00095316472474834667 -0.001909847589937814 0 -0.00088211691459972956 -0.0020203740054939921 0 0.00086560838562202631 -0.0011656760125051721 0 0.00089574666002256601 -0.0013097320895638484 0 0.00080385485761969488 -0.0011710058941372036 0 -1.5294779100583589e-08 -1.0904421123140509e-07 0 -6.7807558124719749e-09 -1.099420677364677e-07 0 -3.9874405524993215e-05 -9.3482741196623063e-05 0 0.00048519967942058112 -0.0025043234012706991 0 0.00050312786048516969 -0.0023242235756950392 0 0.00057567656939398976 -0.0023781022757994345 0 -0.00059467438967216726 -0.0023236677996314589 0 -0.00048988265599593506 -0.002346145352838789 0 -0.00051814324576067048 -0.0024737026532122169 0 0.00044282036739320816 -0.00073290077833947423 0 0.00034797396561961412 -0.00068102368559354776 0 0.00032974020998176724 -0.00056261450467461028 0 -0.00029549263186179358 -0.00053115222921185036 0 -0.00036489460280951963 -0.00070630179853445395 0 -0.00041045590667774677 -0.00067006660328426844 0 0.00031401465308335865 -0.00025708210136017243 0 0.00023076847959639221 -0.00017087887511753463 0 0.00014255705996092752 -0.00010693707844040366 0 3.8593183800290656e-09 -9.5093384767744939e-08 0 -0.00023022669485746477 -0.00017036419887765886 0 -0.00014220574384450255 -0.00010679205669525284 0 -4.3365939404286541e-09 -9.5488702690531176e-08 0 0.00014255705996092752 -0.00010693707844040366 0 0.00023076847959639221 -0.00017087887511753463 0 -0.00031369532616570595 -0.000257259444908824 0 -0.00014220574384450255 -0.00010679205669525284 0 -0.00023022669485746477 -0.00017036419887765886 0 0.00096815711198416075 -0.0030304500094976258 0 0.00091119399310781227 -0.0030875264671548401 0 0.00086450651737098505 -0.0030020248439460661 0 0.00087974578742311361 -0.0031933532699646048 0 0.00086450651737098505 -0.0030020248439460661 0 0.00091119399310781227 -0.0030875264671548401 0 -0.00088002316537683664 -0.0031933280790319065 0 -0.00091490151568286596 -0.0030937747289527151 0 -0.00086480459188237574 -0.0030019831395499113 0 -0.00096844296499257025 -0.0030304389615348351 0 -0.00086480459188237574 -0.0030019831395499113 0 -0.00091490151568286596 -0.0030937747289527151 0 0.00078978760760710679 -0.0028710722720246091 0 0.0007695344896904195 -0.0027098394755520161 0 0.0008625844143951122 -0.0027409995621849787 0 -0.00079280624212388329 -0.0028658599558904767 0 -0.00070227191720316983 -0.002827355650192309 0 -0.00071859497726176828 -0.0029977363049929263 0 0.00082166016528141582 -0.0025980464048641423 0 0.0008625844143951122 -0.0027409995621849787 0 0.0007695344896904195 -0.0027098394755520161 0 0.00053252054696314999 -0.00056904825161057412 0 0.00041419955117940368 -0.00042789595917307118 0 0.00047650976325670698 -0.00045328819558474094 0 -0.00063679974748825539 -0.0029204688184181035 0 -0.00071859497726176828 -0.0029977363049929263 0 -0.00070227191720316983 -0.002827355650192309 0 -0.00018183094928060203 -0.00019700480037059803 0 -0.00028466713878696668 -0.00029542929452219742 0 -0.00015707436563929108 -0.00014557185407650621 0 0.00030796790824146389 -0.00027145139087298174 0 0.00047650976325670698 -0.00045328819558474094 0 0.00041419955117940368 -0.00042789595917307118 0 -0.00031116126664316318 -0.00027554537234411 0 -0.00015707436563929108 -0.00014557185407650621 0 -0.00028466713878696668 -0.00029542929452219742 0 0.00014725319712218077 -0.0016185382854106249 0 0.0002373035092685998 -0.0016641459581471798 0 0.0001509723102579442 -0.0017601747548045821 0 0.00018243892252983656 -0.0011041287950992616 0 8.3465596542487284e-05 -0.0010561029402992798 0 0.00016302862798005187 -0.00095503622864270138 0 -0.00023142174700779727 -0.0025133168810582288 0 -0.00035082388777105957 -0.0025377243807686786 0 -0.00028955336057874103 -0.0024287683939445471 0 0.0006022493641446179 -0.0019031856476074004 0 0.00061615088382779935 -0.002100633380755008 0 0.00055530564967817397 -0.0019920982822983877 0 -0.00054887920880408421 -0.0011537562561223904 0 -0.00052309001643994037 -0.0009613783127741997 0 -0.00048640631027560636 -0.0010468766703567625 0 0.00013122425171037839 -0.00049218508069131671 0 0.00019634243144908112 -0.00048218599526688013 0 0.00018120259814409227 -0.00057047172932168987 0 -0.00019607973430926079 -0.0011998863838707792 0 -0.0002355999853115077 -0.0013347264108276638 0 -0.00026583615263433045 -0.0011532824492829696 0 -0.0003140708187024297 -0.0012865035818199787 0 -0.00026583615263433045 -0.0011532824492829696 0 -0.0002355999853115077 -0.0013347264108276638 0 -0.00018984040947813284 -0.0018702473287023687 0 -0.00019257014376403684 -0.0020094622059013256 0 -0.00028600352001728298 -0.0019990599960923745 0 7.0398544834951446e-05 -0.0027930112367086975 0 -4.810767646427209e-06 -0.0026364938623947278 0 8.2980437852227113e-05 -0.002648448206050434 0 -0.00074584923638837744 -0.0016724972827563381 0 -0.00065568411332492119 -0.0015355452264584949 0 -0.00066960748065710961 -0.0016767964692368197 0 0.00072952014545953655 -0.0014521492300810929 0 0.00065651453611234264 -0.0015506540477363943 0 0.00065094169453594095 -0.0014124356976313616 0 -2.4927837192311126e-05 -0.00026256166527475816 0 2.7351981280270247e-06 -0.00038250368415855692 0 -3.7261140888485971e-05 -0.00037554568721873642 0 -0.00026097578149923847 -0.0018391892557405164 0 -0.00018984040947813284 -0.0018702473287023687 0 -0.00028600352001728298 -0.0019990599960923745 0 0.00030839112300794436 -0.0019693733943533806 0 0.00043483824900229892 -0.0020294441488223885 0 0.00035930502455090415 -0.0020967301917871146 0 -0.00028600352001728298 -0.0019990599960923745 0 -0.00032090922506359176 -0.002223749473341914 0 -0.0003604130903468574 -0.0020903746282055651 0 0.00024395039503066673 -0.00096885239073820088 0 0.00024048801029312298 -0.000766607265867419 0 0.00029419365921968133 -0.00089586642370707305 0 -0.00026357615502476891 -0.001002504604138487 0 -0.00036887318192195382 -0.00097335312540044636 0 -0.00029108584035238469 -0.00088989965242202969 0 0.00048519967942058112 -0.0025043234012706991 0 0.0004081003377720362 -0.0026593190678646356 0 0.00040417829963311448 -0.0025024953422551066 0 -0.00059467438967216726 -0.0023236677996314589 0 -0.00068304780009409687 -0.0022030129457638321 0 -0.00059530331482094995 -0.0021876522045498285 0 0.00044282036739320816 -0.00073290077833947423 0 0.0005611394689963745 -0.00088836140834563807 0 0.00048270153759806078 -0.00086738606548547722 0 -0.00029549263186179358 -0.00053115222921185036 0 -0.00019550941148204379 -0.00038560274813815101 0 -0.00024131158170570587 -0.00052243460609249922 0 -0.00011588595271765752 -0.00099707177104799193 0 -0.00012922141545474426 -0.0011520526234525153 0 -0.00019204028530833776 -0.0010709645817444722 0 0.00048519967942058112 -0.0025043234012706991 0 0.00056869560838185707 -0.0026474653535791585 0 0.00048828004907439619 -0.0027280797795638653 0 -0.00059467438967216726 -0.0023236677996314589 0 -0.00067271845415090329 -0.0024726330191467121 0 -0.00071949602568586329 -0.0023402126257338236 0 0.00044282036739320816 -0.00073290077833947423 0 0.00048162383245535289 -0.00065139034616196179 0 0.00054303338266508121 -0.00077820070286117383 0 -0.00029549263186179358 -0.00053115222921185036 0 -0.00027414630715016415 -0.00039281068000190944 0 -0.00022124233463834009 -0.00036166922049962372 0 0.00013374101975100548 -0.0019395892100616573 0 0.0001509723102579442 -0.0017601747548045821 0 0.00022747744825734765 -0.0018471389226748648 0 0.00068486749705752928 -0.0020026175662030367 0 0.00070602501080228657 -0.0021824683767748079 0 0.00061615088382779945 -0.0021006333807550084 0 0.00013056134610272643 -0.00037225760091217866 0 0.00017427401956799141 -0.00034828896776841205 0 0.00019634243144908112 -0.00048218599526688013 0 -0.00028560249531983862 -0.002662473216102852 0 -0.00039424651584536995 -0.0027010712299935127 0 -0.00035082388777105957 -0.0025377243807686786 0 -0.00061150223863516847 -0.0010893798756488934 0 -0.00058936333789335563 -0.00091937239308828795 0 -0.00052309001643994037 -0.0009613783127741997 0 -0.00059467438967216726 -0.0023236677996314589 0 -0.00051814324576067048 -0.0024737026532122169 0 -0.00059478169901866376 -0.0025049305727898059 0 0.00048519967942058112 -0.0025043234012706991 0 0.00057567656939398976 -0.0023781022757994345 0 0.00059040751486349704 -0.0025118043477268441 0 -0.00029549263186179358 -0.00053115222921185036 0 -0.00041045590667774672 -0.00067006660328426844 0 -0.0003659655071427932 -0.00053965154945744443 0 0.00044282036739320816 -0.00073290077833947423 0 0.00032974020998176724 -0.00056261450467461028 0 0.00038349518231686178 -0.00056189228132789623 0 2.3788793907517485e-05 -0.0019492137556998211 0 -4.4756652862349695e-05 -0.0020337180360653832 0 -9.1449680500996737e-05 -0.0019063708397297865 0 9.1216395356929068e-05 -0.0012061282090175805 0 0.00018243892252983656 -0.0011041287950992616 0 0.00017587990837172014 -0.001267471679108138 0 0.00026298211689778462 -0.0012524489528068325 0 0.00017587990837172014 -0.001267471679108138 0 0.00018243892252983656 -0.0011041287950992616 0 0.00041073360095977878 -0.0021857805837151205 0 0.00043483824900229892 -0.0020294441488223885 0 0.00048449787099309456 -0.0022052301013963222 0 -0.00041308583361558497 -0.0021823242472044997 0 -0.00032090922506359176 -0.002223749473341914 0 -0.00042129362450898738 -0.002309807709093524 0 0.00053070936538629975 -0.0021114727471390842 0 0.00048449787099309456 -0.0022052301013963222 0 0.00043483824900229892 -0.0020294441488223885 0 -0.00036285723556522939 -0.0023872240297291292 0 -0.00042129362450898738 -0.002309807709093524 0 -0.00032090922506359176 -0.002223749473341914 0 0.00032241035091800356 -0.00081906475238263513 0 0.00024048801029312298 -0.000766607265867419 0 0.00030209410132532501 -0.00070031945896422104 0 -0.00031937064298858699 -0.0008155731046784302 0 -0.00036887318192195382 -0.00097335312540044636 0 -0.00037860092299830971 -0.0008153113169400032 0 0.00024127102524427869 -0.00061844447203430574 0 0.00030209410132532501 -0.00070031945896422104 0 0.00024048801029312298 -0.000766607265867419 0 -0.00044033196535373968 -0.00092098500828180008 0 -0.00037860092299830971 -0.0008153113169400032 0 -0.00036887318192195382 -0.00097335312540044636 0 0.00048931072769361019 -0.0028834446626944911 0 0.00041581856678618215 -0.0028537755972138728 0 0.00048828004907439619 -0.0027280797795638653 0 -0.00080364273259416559 -0.0023485059066837791 0 -0.00078861547643568539 -0.0022265840592036886 0 -0.00071949602568586329 -0.0023402126257338236 0 0.0006081483230978436 -0.00079109767024150134 0 0.00065390522410267303 -0.00091521476698820268 0 0.00054303338266508121 -0.00077820070286117383 0 -0.00016609288257065285 -0.00024586872566401304 0 -0.00013486179730929306 -0.00023470480139025989 0 -0.00022124233463834009 -0.00036166922049962372 0 0.00020109954042435023 -0.0023101515727460978 0 0.0002900654145958816 -0.002312215473448643 0 0.00024348741428957074 -0.0024877104882736535 0 0.0003428931520384383 -0.0024326792986413873 0 0.00024348741428957074 -0.0024877104882736535 0 0.0002900654145958816 -0.002312215473448643 0 -0.00048780838114398459 -0.0018381633964094676 0 -0.00048930735615121954 -0.0019855498946310785 0 -0.00058860522977169046 -0.0019210890653002658 0 -0.00055720531086484359 -0.0020812251328760334 0 -0.00058860522977169046 -0.0019210890653002658 0 -0.00048930735615121954 -0.0019855498946310785 0 0.000446808100432875 -0.0011776644612985707 0 0.00042543867676226959 -0.0010310296230860968 0 0.00053189718123161753 -0.0011300930710899538 0 0.00047122462214741319 -0.00095937113301403857 0 0.00053189718123161753 -0.0011300930710899538 0 0.00042543867676226959 -0.0010310296230860968 0 -0.00013971547705399396 -0.00066877556308641705 0 -0.00020225654968200309 -0.00067622261356521185 0 -0.000142812035102262 -0.00051437028955079425 0 -0.00021771256027491116 -0.00057468405074760566 0 -0.000142812035102262 -0.00051437028955079425 0 -0.00020225654968200309 -0.00067622261356521185 0 0.00083234534316563823 -0.0020795158093242804 0 0.00085040619044330918 -0.0019136034593142813 0 0.00090021451412307515 -0.0020181380942046277 0 7.5584603776131088e-05 -0.00016245405075897924 0 4.0744554240757525e-05 -0.00013200986318738937 0 2.9964444484104118e-05 -6.9857801979287537e-05 0 -0.00032223384449032761 -0.0029378926938383484 0 -0.00021511958238783181 -0.0029789024762509799 0 -0.00027961651703408249 -0.0030723209037309082 0 -0.00074157465074523238 -0.0010870693775215151 0 -0.00079481659398922342 -0.0012598864715047643 0 -0.00082183309365009745 -0.0011819721708107951 0 0.00030839112300794436 -0.0019693733943533806 0 0.00035930502455090415 -0.0020967301917871146 0 0.00029590349772381114 -0.002151530019598431 0 -0.00028600352001728298 -0.0019990599960923745 0 -0.0003604130903468574 -0.0020903746282055651 0 -0.00039619231393475397 -0.0019861008989604922 0 0.00024395039503066673 -0.00096885239073820088 0 0.00029419365921968133 -0.00089586642370707305 0 0.00033990417773163191 -0.0010047882568621457 0 -0.00026357615502476891 -0.001002504604138487 0 -0.00029108584035238469 -0.00088989965242202969 0 -0.00023011351985449698 -0.0008264328773221535 0 0.00048519967942058112 -0.0025043234012706991 0 0.00042945472654702432 -0.0023456345548627864 0 0.00050312786048516969 -0.0023242235756950392 0 -0.00059467438967216726 -0.0023236677996314589 0 -0.00050556203190483303 -0.0022211202005781453 0 -0.00048988265599593506 -0.002346145352838789 0 0.00044282036739320816 -0.00073290077833947423 0 0.0003927513844727408 -0.00080476506233551157 0 0.00034797396561961412 -0.00068102368559354786 0 -0.00029549263186179358 -0.00053115222921185036 0 -0.00029970365391833258 -0.00066725252609003808 0 -0.00036489460280951963 -0.00070630179853445395 0 -0.00012894869627801413 -0.0016466517615173412 0 -0.00010052417777545584 -0.0017585502118572136 0 -0.00019214196695832526 -0.0017348634076080976 0 -6.7807558124719749e-09 -1.099420677364677e-07 0 -3.5626906457785541e-09 -1.0794388510895936e-07 0 -2.5495598365714229e-05 -8.7255560524174456e-05 0 0.00089574666002256601 -0.0013097320895638484 0 0.00091830915066518656 -0.001456432667346428 0 0.00083284241191045169 -0.0013067409049175676 0 -0.00095316472474834667 -0.001909847589937814 0 -0.00094571159373450125 -0.0017557635898752129 0 -0.00088288204484243899 -0.0018810610390148097 0 0.00020589458637076101 -0.0031850756271545825 0 0.00010324288626671888 -0.0031840797698251423 0 0.0001912083612248687 -0.003044604191462969 0 0.00031401465308335865 -0.00025708210136017243 0 0.00047954013352622554 -0.00043734604959120692 0 0.00039312203298984814 -0.00033414967234360619 0 3.8593183800290656e-09 -9.5093384767744939e-08 0 -5.305253851328579e-08 -1.3552032337316547e-07 0 -0.000131620560202259 -9.656601221764188e-05 0 0.00087974578742311361 -0.0031933532699646048 0 0.00078914736211476507 -0.0031933878411326993 0 0.00079940722054703671 -0.003061653079834603 0 -0.00096844296499257025 -0.0030304389615348351 0 -0.00096743838644946796 -0.0028677684604329185 0 -0.00089709373610839457 -0.0028848641298583016 0 0.00096719902793940781 -0.0028678009416262798 0 0.00096815711198416075 -0.0030304500094976258 0 0.00089686834294014231 -0.00288486752152481 0 5.3049339695074197e-08 -1.3429159837198775e-07 0 -4.3365939404286541e-09 -9.5488702690531176e-08 0 0.00013143492149873885 -9.6120959632828884e-05 0 -0.00078940219969471663 -0.0031933929659407534 0 -0.00088002316537683664 -0.0031933280790319065 0 -0.00079970547124962141 -0.0030616437643713767 0 -0.00047901467865535424 -0.00043765038622672317 0 -0.00031369532616570595 -0.000257259444908824 0 -0.00039253961155937477 -0.00033436276858035083 0 0.00076844682718323748 -0.0023293339416702481 0 0.00066020465981620163 -0.002288704034979664 0 0.00070602501080228657 -0.0021824683767748079 0 0.00017109512428803113 -0.00026034402033519726 0 0.00023992281870969772 -0.00042509599876380843 0 0.00017427401956799141 -0.00034828896776841205 0 -0.00047963757475686362 -0.0028176316200133741 0 -0.00046080239991894118 -0.0026204797203614638 0 -0.00039424651584536995 -0.0027010712299935127 0 -0.00060468956212224973 -0.00080426297345263602 0 -0.00051494034155698655 -0.00079212923791876415 0 -0.00058936333789335563 -0.00091937239308828795 0 3.0341591610589886e-05 -0.0021455292657475739 0 9.1543913177914648e-05 -0.0023187313657031332 0 -1.920369722382609e-05 -0.0022849750791188467 0 -0.00038751094919452233 -0.0015436573001441057 0 -0.00048885483782400716 -0.0016582673322215044 0 -0.00046125229505369892 -0.0014740573449242727 0 0.00038818387206951909 -0.0014425491231980885 0 0.00047108554901380858 -0.0013583091384014234 0 0.00046535784900813843 -0.0015287844714832128 0 -2.5789586984976359e-05 -0.00079236412173220346 0 -6.2201589470704124e-05 -0.00065305461421101107 0 1.0196382403817005e-05 -0.00067951376576094497 0 0.00033017847775850358 -0.0016769709179678821 0 0.0002373035092685998 -0.0016641459581471798 0 0.0002834104944628924 -0.0014932467568742032 0 9.7678915584485583e-05 -0.00091134515619970479 0 0.00016302862798005187 -0.00095503622864270138 0 8.3465596542487284e-05 -0.0010561029402992798 0 -0.00017559847411044405 -0.0014408995413800877 0 -0.00014558757212541998 -0.0012921827059842279 0 -7.4479056683595429e-05 -0.00137664200378913 0 0.00028540603843067697 -0.0026624500286066498 0 0.00024348741428957074 -0.0024877104882736535 0 0.00034481269470973354 -0.0025705423014858149 0 -0.00068509213526638999 -0.0020025787968025845 0 -0.00058860522977169046 -0.0019210890653002658 0 -0.00063445956023482661 -0.0020932544350725055 0 0.00061124118417206518 -0.0010899129209875141 0 0.00053189718123161753 -0.0011300930710899538 0 0.00054226982827657478 -0.00097638744709037124 0 -0.00013058544855497337 -0.00037146189929065509 0 -0.00014281203510226197 -0.00051437028955079425 0 -0.00018522703223609416 -0.00045478051365074103 0 0.00020589458637076101 -0.0031850756271545825 0 0.0001912083612248687 -0.003044604191462969 0 0.00028157665778996704 -0.0030356617376698183 0 -0.00095316472474834667 -0.001909847589937814 0 -0.00088288204484243899 -0.0018810610390148097 0 -0.00088211691459972956 -0.0020203740054939921 0 0.00089574666002256601 -0.0013097320895638484 0 0.00083284241191045169 -0.0013067409049175676 0 0.00080385485761969488 -0.0011710058941372036 0 -6.7807558124719749e-09 -1.099420677364677e-07 0 -2.5495598365714229e-05 -8.7255560524174456e-05 0 -3.9874405524993215e-05 -9.3482741196623063e-05 0 0.00030839112300794436 -0.0019693733943533806 0 0.00022747744825734768 -0.0018471389226748648 0 0.00031235226167293078 -0.0018058967696799144 0 0.00024395039503066673 -0.00096885239073820088 0 0.00018243892252983656 -0.0011041287950992616 0 0.00016302862798005187 -0.00095503622864270138 0 0.00013374101975100548 -0.0019395892100616573 0 0.00022184755125819716 -0.0020440508180083368 0 0.00014431009826517457 -0.0021464087182039115 0 -0.00028119597079655478 -0.0017090993072743285 0 -0.00033867655985180158 -0.0018537329363139162 0 -0.00039134143260744473 -0.0017277439830872012 0 0.00026298211689778462 -0.0012524489528068325 0 0.00029551922464466751 -0.0011181476959200298 0 0.0003672908781063289 -0.0012584217486967925 0 -0.00011588595271765752 -0.00099707177104799193 0 -0.00018140784396214688 -0.00091708968567977528 0 -0.0001096687572302295 -0.00081541600367760749 0 9.7770556235269522e-09 -1.0773527650391307e-07 0 2.9964444484104118e-05 -6.9857801979287537e-05 0 4.0744554240757525e-05 -0.00013200986318738937 0 0.00095293767145229421 -0.0019100977780663821 0 0.00090021451412307515 -0.0020181380942046277 0 0.00085040619044330918 -0.0019136034593142813 0 -0.00089634692376370552 -0.0013100546352804116 0 -0.00082183309365009745 -0.0011819721708107951 0 -0.00079481659398922342 -0.0012598864715047643 0 -0.0002061066658618923 -0.0031850987991873395 0 -0.00027961651703408249 -0.0030723209037309082 0 -0.00021511958238783181 -0.0029789024762509799 0 -7.7176895380349246e-08 -0.0024318433878576847 0 -1.920369722382609e-05 -0.0022849750791188467 0 9.1543913177914648e-05 -0.0023187313657031332 0 -0.00054454436562809941 -0.0015198290760562478 0 -0.00046125229505369892 -0.0014740573449242727 0 -0.00048885483782400716 -0.0016582673322215044 0 0.00054429782926248118 -0.0015198970808538168 0 0.00046535784900813843 -0.0015287844714832128 0 0.00047108554901380858 -0.0013583091384014234 0 -1.1927715791270387e-07 -0.00055328820562792873 0 1.0196382403817005e-05 -0.00067951376576094497 0 -6.2201589470704124e-05 -0.00065305461421101107 0 -0.00021507686597489438 -0.002311995374731896 0 -0.00013751720770311109 -0.0024335036200254525 0 -0.00023142174700779727 -0.0025133168810582288 0 -0.00044485128073356407 -0.0011552078472813899 0 -0.00052613660133903626 -0.0012966643667722032 0 -0.00054887920880408421 -0.0011537562561223904 0 0.00048907597649282405 -0.0018607913338410244 0 0.00055520624566544375 -0.0017434103127576472 0 0.0006022493641446179 -0.0019031856476074004 0 0.00014848507552148938 -0.00066674669883686963 0 8.3840451334961128e-05 -0.0005531979841628626 0 0.00013122425171037839 -0.00049218508069131671 0 0.0005624811105111047 -0.0022346666881755007 0 0.00050312786048516969 -0.0023242235756950392 0 0.00048449787099309456 -0.0022052301013963222 0 -0.00043430746266286032 -0.002445925889104702 0 -0.00048988265599593506 -0.002346145352838789 0 -0.00042129362450898738 -0.002309807709093524 0 0.00027775616724247875 -0.00057664886846467477 0 0.00034797396561961412 -0.00068102368559354786 0 0.00030209410132532501 -0.00070031945896422104 0 -0.00044029153100234424 -0.00081023547549611576 0 -0.00036489460280951963 -0.00070630179853445384 0 -0.00037860092299830971 -0.0008153113169400032 0 -1.6522100032026721e-05 -0.0017770590108374209 0 6.1699200144305771e-05 -0.0016491134889864236 0 7.1698723093067035e-05 -0.0018156003860768462 0 -0.00017559847411044405 -0.0014408995413800877 0 -7.4479056683595415e-05 -0.00137664200378913 0 -9.3124502894534201e-05 -0.0015192887585209645 0 0.0003428931520384383 -0.0024326792986413873 0 0.00034481269470973354 -0.0025705423014858149 0 0.00024348741428957074 -0.0024877104882736535 0 -0.00055720531086484359 -0.0020812251328760334 0 -0.00063445956023482661 -0.0020932544350725055 0 -0.00058860522977169046 -0.0019210890653002658 0 0.00047122462214741319 -0.00095937113301403857 0 0.00054226982827657478 -0.00097638744709037124 0 0.00053189718123161753 -0.0011300930710899538 0 -0.00021771256027491116 -0.00057468405074760566 0 -0.00018522703223609416 -0.00045478051365074103 0 -0.000142812035102262 -0.00051437028955079425 0 0.00037385249623774549 -0.00046061044880641203 0 0.00047073369781749192 -0.00054982945579511568 0 0.00048162383245535289 -0.00065139034616196179 0 -0.00037116597858344514 -0.00045691593363466178 0 -0.00026644337782625682 -0.00032377689009175281 0 -0.00027414630715016415 -0.00039281068000190944 0 0.00017420279804202321 -0.001408603770234215 0 0.00024227536702892238 -0.0013577027332724184 0 0.0002834104944628924 -0.0014932467568742032 0 0.00018997723868001746 -0.0015363362681684021 0 0.00017420279804202321 -0.001408603770234215 0 0.0002834104944628924 -0.0014932467568742032 0 7.0398544834951446e-05 -0.0027930112367086975 0 8.2980437852227113e-05 -0.002648448206050434 0 0.00016943162279492387 -0.0027414744981262549 0 0.0001386043694980344 -0.0025623975556809276 0 0.00016943162279492387 -0.0027414744981262549 0 8.2980437852227113e-05 -0.002648448206050434 0 -0.00074584923638837744 -0.0016724972827563381 0 -0.00066960748065710961 -0.0016767964692368197 0 -0.00072491853292364896 -0.0018235087997048492 0 -0.00062648875116418871 -0.001757270154887119 0 -0.00072491853292364896 -0.0018235087997048492 0 -0.00066960748065710961 -0.0016767964692368197 0 0.00072952014545953655 -0.0014521492300810929 0 0.00065094169453594095 -0.0014124356976313616 0 0.00068451893116571242 -0.0012888837613269641 0 0.00059534949431567716 -0.0013113589873449138 0 0.00068451893116571242 -0.0012888837613269641 0 0.00065094169453594095 -0.0014124356976313616 0 -2.4927837192311126e-05 -0.00026256166527475816 0 -3.7261140888485971e-05 -0.00037554568721873642 0 -6.6478920257182194e-05 -0.00030342909332575963 0 -7.2167035273447658e-05 -0.00044588598630123386 0 -6.6478920257182208e-05 -0.00030342909332575963 0 -3.7261140888485971e-05 -0.00037554568721873642 0 0.0004081003377720362 -0.0026593190678646356 0 0.00041581856678618215 -0.0028537755972138728 0 0.00034490527605681722 -0.0027815926655434153 0 -0.00068304780009409687 -0.0022030129457638321 0 -0.00078861547643568539 -0.0022265840592036886 0 -0.0007498853956821788 -0.0021071569053260015 0 0.0005611394689963745 -0.00088836140834563807 0 0.00065390522410267303 -0.00091521476698820268 0 0.00065221024414186728 -0.0010160182364677293 0 -0.00019550941148204379 -0.00038560274813815101 0 -0.00013486179730929303 -0.00023470480139025989 0 -0.0001277301219329016 -0.00028099721472471767 0 0.00067700370247506317 -0.0024341630545275331 0 0.00057567656939398976 -0.0023781022757994345 0 0.00066020465981620163 -0.002288704034979664 0 -0.00054602287434579158 -0.0026544255093214979 0 -0.00051814324576067048 -0.0024737026532122169 0 -0.00046080239991894118 -0.0026204797203614638 0 0.00027972807801471196 -0.00040638817813462937 0 0.00032974020998176724 -0.00056261450467461028 0 0.00023992281870969772 -0.00042509599876380843 0 -0.00047769420205135424 -0.00065339513447805215 0 -0.00041045590667774677 -0.00067006660328426844 0 -0.00051494034155698655 -0.00079212923791876415 0 0.0006081483230978436 -0.00079109767024150134 0 0.00054303338266508121 -0.00077820070286117383 0 0.00048162383245535289 -0.00065139034616196179 0 -0.00016609288257065285 -0.00024586872566401304 0 -0.00022124233463834009 -0.00036166922049962372 0 -0.00027414630715016415 -0.00039281068000190944 0 -4.810767646427209e-06 -0.0026364938623947278 0 -9.5501742454384627e-05 -0.002690226370042416 0 -7.0098187862979112e-05 -0.0025266360858300424 0 -0.0006556841133249213 -0.0015355452264584949 0 -0.00067194222548477595 -0.0013982565297739121 0 -0.00058790591191033002 -0.0014175485313660679 0 0.00065651453611234264 -0.0015506540477363941 0 0.00069317434268150553 -0.0017009118196524202 0 0.00060271147201057746 -0.0016432325382500241 0 2.7351981280270158e-06 -0.00038250368415855692 0 4.1456718617476693e-05 -0.0003409386125040426 0 3.8507531870061715e-05 -0.00047252695724349722 0 3.0341591610589886e-05 -0.0021455292657475739 0 -4.4756652862349695e-05 -0.0020337180360653832 0 2.3788793907517485e-05 -0.0019492137556998211 0 -0.00038751094919452233 -0.0015436573001441057 0 -0.00032059819048200946 -0.0014124652083760548 0 -0.00027920775992114582 -0.001518401697006838 0 0.000210267658703243 -0.0026204468657927372 0 0.00028540603843067697 -0.0026624500286066498 0 0.00025526086939498763 -0.0027707853228110548 0 -0.00066085324955234091 -0.0018780042596746426 0 -0.00068509213526638999 -0.0020025787968025845 0 -0.00074294385825868258 -0.00196242053584044 0 0.0006105765515485495 -0.0012041765290588639 0 0.00061124118417206518 -0.0010899129209875141 0 0.00067760158346538875 -0.0011578873361947511 0 -0.00010096054851856756 -0.0004013364568357574 0 -0.00013058544855497337 -0.00037146189929065509 0 -9.4685645360556193e-05 -0.00028450251470939377 0 0.00038818387206951909 -0.0014425491231980885 0 0.0002834104944628924 -0.0014932467568742032 0 0.00031360511643234229 -0.0013702419920427382 0 0.00014725319712218077 -0.0016185382854106249 0 6.1699200144305771e-05 -0.0016491134889864236 0 0.0001065841887161395 -0.0015001254390274437 0 6.4137691546123676e-06 -0.0014704110577971425 0 1.4238694687302949e-05 -0.0012979972799425747 0 9.2035419316563211e-05 -0.001353135536552883 0 0.00016943162279492387 -0.0027414744981262549 0 0.00021026765870324298 -0.0026204468657927372 0 0.00025526086939498763 -0.0027707853228110548 0 -0.00072491853292364896 -0.0018235087997048492 0 -0.00066085324955234091 -0.0018780042596746426 0 -0.00074294385825868258 -0.00196242053584044 0 0.00068451893116571242 -0.0012888837613269641 0 0.0006105765515485495 -0.0012041765290588639 0 0.00067760158346538875 -0.0011578873361947511 0 -6.6478920257182194e-05 -0.00030342909332575963 0 -0.00010096054851856756 -0.0004013364568357574 0 -9.4685645360556193e-05 -0.00028450251470939377 0 -0.00028119597079655478 -0.0017090993072743285 0 -0.00027920775992114582 -0.001518401697006838 0 -0.0001992714090001341 -0.0015921165689933348 0 -0.00014194939235407378 -0.0025748181648995393 0 -7.0098187862979112e-05 -0.0025266360858300424 0 -9.5501742454384627e-05 -0.002690226370042416 0 -0.00060162365794934238 -0.0013079891844638683 0 -0.00058790591191033002 -0.0014175485313660679 0 -0.00067194222548477595 -0.0013982565297739121 0 0.00063332720870903935 -0.0017636549471737946 0 0.00060271147201057746 -0.0016432325382500241 0 0.00069317434268150553 -0.0017009118196524202 0 7.2950320828886486e-05 -0.00043451666764076849 0 3.8507531870061715e-05 -0.00047252695724349722 0 4.1456718617476693e-05 -0.0003409386125040426 0 0.0006081483230978436 -0.00079109767024150134 0 0.00055251927355318468 -0.00066097563027651474 0 0.00065913326687177002 -0.00076128836918477026 0 0.00053252054696314999 -0.00056904825161057412 0 0.00065913326687177002 -0.00076128836918477026 0 0.00055251927355318468 -0.00066097563027651474 0 -0.00016609288257065285 -0.00024586872566401304 0 -0.00019846610661859533 -0.00025473204438616762 0 -0.00010156391646791702 -0.00012449266251141991 0 -0.00018183094928060203 -0.00019700480037059803 0 -0.00010156391646791702 -0.00012449266251141991 0 -0.00019846610661859533 -0.00025473204438616762 0 6.4137691546123676e-06 -0.0014704110577971425 0 9.2035419316563211e-05 -0.001353135536552883 0 0.0001065841887161395 -0.0015001254390274437 0 -0.00037116597858344514 -0.00045691593363466178 0 -0.00047166937637936531 -0.00055000315549710063 0 -0.00039664631983434663 -0.00041949618120007333 0 0.00037385249623774549 -0.00046061044880641203 0 0.00026549358872052594 -0.00032176403555213973 0 0.00030641848339644676 -0.00032710956429502544 0 0.00048931072769361019 -0.0028834446626944911 0 0.00048828004907439619 -0.0027280797795638653 0 0.00056349790973529766 -0.0028152862392366545 0 0.00056869560838185707 -0.0026474653535791585 0 0.00056349790973529766 -0.0028152862392366545 0 0.00048828004907439619 -0.0027280797795638653 0 -0.00080364273259416559 -0.0023485059066837791 0 -0.00071949602568586329 -0.0023402126257338236 0 -0.00076559109936132736 -0.0024703565538469136 0 -0.00067271845415090329 -0.0024726330191467121 0 -0.00076559109936132736 -0.0024703565538469136 0 -0.00071949602568586329 -0.0023402126257338236 0 0.00018931600809982116 -0.00020048560068197993 0 0.00018783359382602887 -0.00024240607707788389 0 0.00010313713157135934 -0.00012660845221464234 0 -0.00052456607514088122 -0.00055717671053981551 0 -0.00056579253566639716 -0.00067624035066268513 0 -0.00066195743567921733 -0.00076889449030640767 0 0.00082166016528141582 -0.0025980464048641423 0 0.00079506646630687862 -0.0024673402702712222 0 0.00086711363794745179 -0.0024363265697879208 0 -0.00063679974748825539 -0.0029204688184181035 0 -0.00056081696996106156 -0.0028702577848243732 0 -0.00054026303073118932 -0.0030034815141486105 0 0.00017109512428803113 -0.00026034402033519726 0 0.00010313713157135934 -0.00012660845221464234 0 0.00018783359382602887 -0.00024240607707788389 0 -0.00060468956212224973 -0.00080426297345263602 0 -0.00066195743567921733 -0.00076889449030640767 0 -0.00056579253566639716 -0.00067624035066268513 0 0.00076844682718323748 -0.0023293339416702481 0 0.00086711363794745179 -0.0024363265697879208 0 0.00079506646630687862 -0.0024673402702712222 0 -0.00047963757475686362 -0.0028176316200133741 0 -0.00054026303073118932 -0.0030034815141486105 0 -0.00056081696996106156 -0.0028702577848243732 0 0.00048449787099309456 -0.0022052301013963222 0 0.00042945472654702432 -0.0023456345548627864 0 0.00041073360095977878 -0.0021857805837151205 0 0.00050312786048516969 -0.0023242235756950392 0 0.00042945472654702432 -0.0023456345548627864 0 0.00048449787099309456 -0.0022052301013963222 0 -0.00042129362450898738 -0.002309807709093524 0 -0.00050556203190483303 -0.0022211202005781453 0 -0.00041308583361558497 -0.0021823242472044997 0 -0.00048988265599593506 -0.002346145352838789 0 -0.00050556203190483303 -0.0022211202005781453 0 -0.00042129362450898738 -0.002309807709093524 0 0.00030209410132532501 -0.00070031945896422104 0 0.0003927513844727408 -0.00080476506233551157 0 0.00032241035091800356 -0.00081906475238263513 0 0.00034797396561961412 -0.00068102368559354786 0 0.0003927513844727408 -0.00080476506233551157 0 0.00030209410132532501 -0.00070031945896422104 0 -0.00037860092299830971 -0.0008153113169400032 0 -0.00029970365391833258 -0.00066725252609003808 0 -0.00031937064298858699 -0.0008155731046784302 0 -0.00036489460280951963 -0.00070630179853445395 0 -0.00029970365391833258 -0.00066725252609003808 0 -0.00037860092299830971 -0.0008153113169400032 0 0.00076844682718323748 -0.0023293339416702481 0 0.00070602501080228657 -0.0021824683767748079 0 0.00078702119379568333 -0.0021873307269385115 0 -0.00047963757475686362 -0.0028176316200133741 0 -0.0003942465158453699 -0.0027010712299935127 0 -0.00039190488708687395 -0.0028512468738896733 0 0.00017109512428803113 -0.00026034402033519726 0 0.00017427401956799141 -0.00034828896776841205 0 0.00012581347627059611 -0.0002299887378956448 0 -0.00060468956212224973 -0.00080426297345263602 0 -0.00058936333789335563 -0.00091937239308828805 0 -0.00066803766353333311 -0.00095635033899354755 0 0.00017420279804202321 -0.001408603770234215 0 9.2035419316563211e-05 -0.001353135536552883 0 0.00017587990837172014 -0.001267471679108138 0 0.00026298211689778462 -0.0012524489528068325 0 0.0003672908781063289 -0.0012584217486967925 0 0.00031360511643234229 -0.0013702419920427382 0 0.00038818387206951909 -0.0014425491231980885 0 0.00031360511643234229 -0.0013702419920427382 0 0.0003672908781063289 -0.0012584217486967925 0 0.00065656141371241974 -0.0026244731267112001 0 0.00062655285366137027 -0.0027515288600430373 0 0.00056869560838185707 -0.0026474653535791585 0 -0.00065678455984554155 -0.0026244038094312343 0 -0.00072917822814052018 -0.0025758362065096147 0 -0.00067271845415090329 -0.0024726330191467121 0 0.00048162383245535289 -0.00065139034616196179 0 0.00047073369781749192 -0.00054982945579511568 0 0.00055251927355318468 -0.00066097563027651474 0 -0.00027414630715016415 -0.00039281068000190944 0 -0.00026644337782625682 -0.00032377689009175281 0 -0.00019846610661859533 -0.00025473204438616762 0 0.00030796790824146389 -0.00027145139087298174 0 0.00024335296015098127 -0.00023270531899619785 0 0.00014747587840172139 -0.00013582210099662029 0 -0.00031116126664316318 -0.00027554537234411 0 -0.00042636546112556509 -0.00041851660678314322 0 -0.00047231484395862476 -0.00044526860120533261 0 0.00068486749705752928 -0.0020026175662030367 0 0.00076540961223778086 -0.0019552892673216893 0 0.00075577414954439127 -0.0020863495303842911 0 0.00013056134610272643 -0.00037225760091217866 0 8.373025519401307e-05 -0.00025170714324119429 0 0.00012020353794379223 -0.00027136652884652174 0 -0.00028560249531983862 -0.002662473216102852 0 -0.00024899774563673393 -0.0028133740769843291 0 -0.00033163472841368953 -0.0027931478472865991 0 -0.00061150223863516847 -0.0010893798756488934 0 -0.00070163065614145634 -0.0011759825462387787 0 -0.00066287818881860105 -0.0010404158440515229 0 0.00018931600809982116 -0.00020048560068197993 0 0.00030641848339644676 -0.00032710956429502544 0 0.00026549358872052594 -0.00032176403555213973 0 -0.00052456607514088122 -0.00055717671053981551 0 -0.00039664631983434663 -0.00041949618120007333 0 -0.00047166937637936536 -0.00055000315549710063 0 0.00050658169867952578 -0.0031899638892404899 0 0.00040788307935697986 -0.0031880917398897589 0 0.00044229967867418597 -0.0030247007907541726 0 -0.00096440134379557766 -0.0023827845456805457 0 -0.00096184693030154232 -0.0022233222094000609 0 -0.00087861173720391289 -0.0022762379054246744 0 0.00077117306801968385 -0.00088504602984406798 0 0.00082439300600166648 -0.0010265721823720093 0 0.00072800925165222689 -0.00092461637737371839 0 -1.6425780108244796e-08 -1.0782111168735337e-07 0 -1.0841590074986818e-08 -1.1163050043235128e-07 0 -7.367393771143618e-05 -0.00011086484428501779 0 0.00010324288626671888 -0.0031840797698251423 0 3.0937030696446882e-05 -0.0030561315116646288 0 0.00010895625241522928 -0.0030072704074356402 0 -0.00094571159373450125 -0.0017557635898752129 0 -0.00087626640490125608 -0.0016386990987785981 0 -0.00085839913395511374 -0.0017526623348515366 0 0.00091830915066518656 -0.001456432667346428 0 0.00086846455510792219 -0.0015466738537202539 0 0.00083116992266066183 -0.0014243044744900778 0 -3.5626906457785541e-09 -1.0794388510895936e-07 0 -3.190715773075342e-06 -7.8180336121705176e-05 0 -1.7105692722447909e-05 -0.0001131786171007538 0 -2.2939005203351099e-06 -0.0010300349917144545 0 2.4417498583313257e-05 -0.00090532719805996083 0 8.3465596542487284e-05 -0.0010561029402992798 0 0.00082166016528141582 -0.0025980464048641423 0 0.0007695344896904195 -0.0027098394755520161 0 0.00074525187525276084 -0.0025679731053026202 0 -0.00063679974748825539 -0.0029204688184181035 0 -0.00070227191720316983 -0.002827355650192309 0 -0.00062170691711298633 -0.0027809109399955711 0 6.4137691546123676e-06 -0.0014704110577971425 0 0.0001065841887161395 -0.0015001254390274437 0 6.1699200144305771e-05 -0.0016491134889864236 0 0.00075771861443987951 -0.0012338691779443997 0 0.00083284241191045169 -0.0013067409049175676 0 0.00076002501737795249 -0.0013551135940714466 0 0.00083116992266066183 -0.0014243044744900778 0 0.00076002501737795249 -0.0013551135940714466 0 0.00083284241191045169 -0.0013067409049175676 0 0.00069737951783199845 -0.0031927618705711357 0 0.0006530567714771382 -0.0030464078903036473 0 0.00072827128588162898 -0.0030197214112030555 0 -0.00096703541441084276 -0.0027054153814445158 0 -0.00088935684825140846 -0.0026281292813031885 0 -0.00087443916462462022 -0.0027585262149513335 0 -0.00063679974748825539 -0.0029204688184181035 0 -0.00063971595293487956 -0.0030614100563366542 0 -0.00071859497726176828 -0.0029977363049929263 0 0.00082166016528141582 -0.0025980464048641423 0 0.00089715757443977026 -0.002605040026134541 0 0.0008625844143951122 -0.0027409995621849787 0 -0.00052456607514088122 -0.00055717671053981551 0 -0.00060181365828232273 -0.00062096854991367575 0 -0.00047231484395862476 -0.00044526860120533261 0 0.00018931600809982116 -0.00020048560068197993 0 8.7631611207013876e-05 -8.9571797484685439e-05 0 0.00014747587840172139 -0.00013582210099662029 0 -0.00069758614479705416 -0.0031927600177518072 0 -0.00071859497726176828 -0.0029977363049929263 0 -0.00063971595293487956 -0.0030614100563366542 0 0.00096686773885609712 -0.0027055228506733661 0 0.0008625844143951122 -0.0027409995621849787 0 0.00089715757443977026 -0.002605040026134541 0 -0.00060793999719238807 -0.00059794004921442955 0 -0.00047231484395862482 -0.00044526860120533266 0 -0.00060181365828232273 -0.00062096854991367575 0 2.1076196377956506e-08 -1.0215939222298164e-07 0 0.00014747587840172139 -0.00013582210099662029 0 8.7631611207013876e-05 -8.9571797484685439e-05 0 0.00060907490611807112 -0.00059718953491088049 0 0.00060312794608465914 -0.00062364868729610824 0 0.00047650976325670698 -0.00045328819558474094 0 -2.0906568780586079e-08 -1.0096052547927321e-07 0 -8.8315478476515987e-05 -8.9858819359247774e-05 0 -0.00015707436563929108 -0.00014557185407650621 0 0.00053252054696314999 -0.00056904825161057412 0 0.00047650976325670698 -0.00045328819558474094 0 0.00060312794608465914 -0.00062364868729610824 0 -0.00018183094928060203 -0.00019700480037059803 0 -0.00015707436563929108 -0.00014557185407650621 0 -8.8315478476515987e-05 -8.9858819359247774e-05 0 -0.00018984040947813284 -0.0018702473287023687 0 -0.00010052417777545583 -0.0017585502118572136 0 -9.1449680500996737e-05 -0.0019063708397297865 0 6.4137691546123676e-06 -0.0014704110577971425 0 6.1699200144305771e-05 -0.0016491134889864236 0 -4.0651532494586979e-05 -0.0016341743186992143 0 -0.0003140708187024297 -0.0012865035818199787 0 -0.0003523506474332076 -0.0011329538324925065 0 -0.00026583615263433045 -0.0011532824492829696 0 -0.00026357615502476891 -0.001002504604138487 0 -0.00026583615263433045 -0.0011532824492829696 0 -0.0003523506474332076 -0.0011329538324925065 0 -0.00019607973430926079 -0.0011998863838707792 0 -0.00019204028530833776 -0.0010709645817444722 0 -0.00012922141545474426 -0.0011520526234525153 0 9.7678915584485583e-05 -0.00091134515619970479 0 8.3465596542487284e-05 -0.0010561029402992798 0 2.4417498583313257e-05 -0.00090532719805996083 0 0.00068486749705752928 -0.0020026175662030367 0 0.00075577414954439127 -0.0020863495303842911 0 0.00070602501080228657 -0.0021824683767748079 0 0.00013056134610272643 -0.00037225760091217866 0 0.00012020353794379223 -0.00027136652884652174 0 0.00017427401956799141 -0.00034828896776841205 0 -0.00028560249531983862 -0.002662473216102852 0 -0.00033163472841368953 -0.0027931478472865991 0 -0.00039424651584536995 -0.0027010712299935127 0 -0.00061150223863516847 -0.0010893798756488934 0 -0.00066287818881860105 -0.0010404158440515229 0 -0.00058936333789335563 -0.00091937239308828795 0 -0.00017559847411044405 -0.0014408995413800877 0 -0.0001992714090001341 -0.0015921165689933348 0 -0.00027920775992114582 -0.001518401697006838 0 -0.00014194939235407378 -0.0025748181648995393 0 -0.00023142174700779727 -0.0025133168810582288 0 -0.00013751720770311109 -0.0024335036200254525 0 0.00063332720870903935 -0.0017636549471737946 0 0.0006022493641446179 -0.0019031856476074004 0 0.00055520624566544375 -0.0017434103127576472 0 -0.00060162365794934238 -0.0013079891844638683 0 -0.00054887920880408421 -0.0011537562561223904 0 -0.00052613660133903626 -0.0012966643667722034 0 7.2950320828886486e-05 -0.00043451666764076849 0 0.00013122425171037839 -0.00049218508069131671 0 8.3840451334961128e-05 -0.00055319798416286249 0 0.00072827128588162898 -0.0030197214112030555 0 0.00065305677147713831 -0.0030464078903036473 0 0.00070343220469529124 -0.0029045693405077961 0 -0.00087443916462462022 -0.0027585262149513335 0 -0.00088935684825140846 -0.0026281292813031885 0 -0.00081214479528015791 -0.0027137240519671817 0 0.0006343156585051007 -0.0029030267105289039 0 0.00070343220469529124 -0.0029045693405077961 0 0.00065305677147713831 -0.0030464078903036473 0 -0.0008125233175341833 -0.0025936637148565051 0 -0.00081214479528015791 -0.0027137240519671817 0 -0.00088935684825140846 -0.0026281292813031885 0 0.0005624811105111047 -0.0022346666881755007 0 0.00066020465981620163 -0.002288704034979664 0 0.00057567656939398976 -0.0023781022757994345 0 -0.00043430746266286032 -0.002445925889104702 0 -0.00046080239991894118 -0.0026204797203614638 0 -0.00051814324576067048 -0.0024737026532122169 0 0.00027775616724247875 -0.00057664886846467477 0 0.00023992281870969772 -0.00042509599876380843 0 0.00032974020998176724 -0.00056261450467461028 0 -0.00044029153100234424 -0.00081023547549611576 0 -0.00051494034155698655 -0.00079212923791876415 0 -0.00041045590667774677 -0.00067006660328426844 0 9.1216395356929068e-05 -0.0012061282090175805 0 1.4238694687302949e-05 -0.0012979972799425747 0 8.8779299263972386e-06 -0.0011511218742406408 0 9.1216395356929068e-05 -0.0012061282090175805 0 0.00017587990837172014 -0.001267471679108138 0 9.2035419316563211e-05 -0.001353135536552883 0 0.0006343156585051007 -0.0029030267105289039 0 0.00062655285366137027 -0.0027515288600430373 0 0.00069963633947679434 -0.0027855902065536931 0 -0.0008125233175341833 -0.0025936637148565051 0 -0.00072917822814052018 -0.0025758362065096147 0 -0.00074665808108959639 -0.0027040984332397399 0 0.00067700370247506317 -0.0024341630545275331 0 0.00059040751486349704 -0.0025118043477268441 0 0.00057567656939398976 -0.0023781022757994345 0 -0.00054602287434579158 -0.0026544255093214979 0 -0.00059478169901866376 -0.0025049305727898059 0 -0.00051814324576067048 -0.0024737026532122169 0 0.00027972807801471196 -0.00040638817813462937 0 0.00038349518231686178 -0.00056189228132789623 0 0.00032974020998176724 -0.00056261450467461028 0 -0.00047769420205135424 -0.00065339513447805215 0 -0.0003659655071427932 -0.00053965154945744443 0 -0.00041045590667774677 -0.00067006660328426844 0 0.00040146434091794961 -0.0017375288553051307 0 0.00031235226167293078 -0.0018058967696799144 0 0.00033017847775850358 -0.0016769709179678821 0 0.00038864151036045069 -0.0018730480564200531 0 0.00031235226167293078 -0.0018058967696799144 0 0.00040146434091794961 -0.0017375288553051307 0 0.00011174919119144533 -0.0007990784438035957 0 0.00016302862798005187 -0.00095503622864270138 0 9.7678915584485583e-05 -0.00091134515619970479 0 0.00017802439269475306 -0.0008309423269202477 0 0.00016302862798005187 -0.00095503622864270138 0 0.00011174919119144533 -0.0007990784438035957 0 0.00010895625241522928 -0.0030072704074356402 0 0.00014104841404299405 -0.0028833755261022257 0 0.0001912083612248687 -0.003044604191462969 0 0.00022405654345947196 -0.0029075526021994078 0 0.0001912083612248687 -0.003044604191462969 0 0.00014104841404299405 -0.0028833755261022257 0 -0.00085839913395511374 -0.0017526623348515366 0 -0.00079773890465931966 -0.0017914702470834703 0 -0.00088288204484243899 -0.0018810610390148097 0 -0.00081429802795792089 -0.0019227945407203769 0 -0.00088288204484243899 -0.0018810610390148097 0 -0.00079773890465931966 -0.0017914702470834703 0 -1.7105692722447909e-05 -0.0001131786171007538 0 -3.7850735774747449e-05 -0.00019821600894576617 0 -2.5495598365714229e-05 -8.7255560524174456e-05 0 -5.6017914288510802e-05 -0.00018098953888665061 0 -2.5495598365714232e-05 -8.7255560524174456e-05 0 -3.7850735774747449e-05 -0.00019821600894576617 0 0.00013374101975100548 -0.0019395892100616573 0 8.290646770704968e-05 -0.002049368681921228 0 2.3788793907517485e-05 -0.0019492137556998211 0 -0.00028119597079655478 -0.0017090993072743285 0 -0.00033512028420325387 -0.0016244899633874646 0 -0.00027920775992114582 -0.001518401697006838 0 3.0341591610589886e-05 -0.0021455292657475739 0 2.3788793907517485e-05 -0.0019492137556998211 0 8.290646770704968e-05 -0.002049368681921228 0 -0.00038751094919452233 -0.0015436573001441057 0 -0.00027920775992114582 -0.001518401697006838 0 -0.00033512028420325387 -0.0016244899633874646 0 0.00078978760760710679 -0.0028710722720246091 0 0.00072827128588162898 -0.0030197214112030555 0 0.00070343220469529124 -0.0029045693405077961 0 -0.00079280624212388329 -0.0028658599558904767 0 -0.00087443916462462022 -0.0027585262149513335 0 -0.00081214479528015791 -0.0027137240519671817 0 0.00018931600809982116 -0.00020048560068197993 0 0.00014747587840172139 -0.00013582210099662029 0 0.00024335296015098127 -0.00023270531899619785 0 -0.00052456607514088122 -0.00055717671053981551 0 -0.00047231484395862476 -0.00044526860120533261 0 -0.00042636546112556509 -0.00041851660678314322 0 0.00036184283911565692 -0.0029537823265434436 0 0.00041581856678618215 -0.0028537755972138728 0 0.00044229967867418597 -0.0030247007907541726 0 -0.00084125780592814159 -0.0021439203390303048 0 -0.00078861547643568539 -0.0022265840592036886 0 -0.00087861173720391289 -0.0022762379054246744 0 0.00073363191328660508 -0.0010290525379486747 0 0.00065390522410267303 -0.00091521476698820268 0 0.00072800925165222689 -0.00092461637737371839 0 -7.978806042799452e-05 -0.00015252293074458087 0 -0.00013486179730929306 -0.00023470480139025989 0 -7.367393771143618e-05 -0.00011086484428501779 0 0.00020109954042435023 -0.0023101515727460978 0 0.00015532746177323101 -0.0024243983762192102 0 9.1543913177914648e-05 -0.0023187313657031332 0 -0.00048780838114398459 -0.0018381633964094676 0 -0.00055078157405252326 -0.0017720673353936794 0 -0.00048885483782400716 -0.0016582673322215044 0 0.000446808100432875 -0.0011776644612985707 0 0.00051738582395526001 -0.0012659419942799427 0 0.00047108554901380858 -0.0013583091384014234 0 -0.00013971547705399396 -0.00066877556308641705 0 -9.5649638907636329e-05 -0.00056416494324937957 0 -6.2201589470704124e-05 -0.00065305461421101107 0 0.00013374101975100548 -0.0019395892100616573 0 7.1698723093067035e-05 -0.0018156003860768462 0 0.0001509723102579442 -0.0017601747548045821 0 0.00020109954042435023 -0.0023101515727460978 0 0.00014431009826517457 -0.0021464087182039111 0 0.00022145888476038779 -0.002177975555274431 0 -0.00048780838114398459 -0.0018381633964094676 0 -0.00039134143260744473 -0.0017277439830872012 0 -0.00041248705505697559 -0.0018631926962192472 0 0.000446808100432875 -0.0011776644612985707 0 0.0003672908781063289 -0.0012584217486967925 0 0.00037122521890770358 -0.0011302292455605885 0 -0.00013971547705399396 -0.00066877556308641705 0 -0.0001096687572302295 -0.00081541600367760749 0 -0.00016796770672990578 -0.00079180256248030114 0 -7.7176895380349246e-08 -0.0024318433878576847 0 9.1543913177914648e-05 -0.0023187313657031332 0 7.7346646250926282e-05 -0.0025034613693748738 0 -0.00054454436562809941 -0.0015198290760562478 0 -0.00048885483782400716 -0.0016582673322215044 0 -0.00059059804078748961 -0.0016526437699475652 0 0.00054429782926248118 -0.0015198970808538168 0 0.00047108554901380858 -0.0013583091384014234 0 0.00057396055849747547 -0.0014026949655275187 0 -1.1927715791270387e-07 -0.00055328820562792873 0 -6.2201589470704124e-05 -0.00065305461421101107 0 -4.3100827694029875e-05 -0.00049323891920643277 0 3.0341591610589886e-05 -0.0021455292657475739 0 8.290646770704968e-05 -0.002049368681921228 0 0.00014431009826517457 -0.0021464087182039115 0 -0.00038751094919452233 -0.0015436573001441057 0 -0.00033512028420325387 -0.0016244899633874646 0 -0.00039134143260744473 -0.0017277439830872012 0 0.00013374101975100548 -0.0019395892100616573 0 0.00014431009826517457 -0.0021464087182039115 0 8.290646770704968e-05 -0.002049368681921228 0 -0.00028119597079655478 -0.0017090993072743285 0 -0.00039134143260744473 -0.0017277439830872012 0 -0.00033512028420325387 -0.0016244899633874646 0 0.00022405654345947196 -0.0029075526021994078 0 0.00016943162279492387 -0.0027414744981262545 0 0.00025526086939498763 -0.0027707853228110548 0 -0.00081429802795792089 -0.0019227945407203769 0 -0.00072491853292364896 -0.0018235087997048492 0 -0.00074294385825868258 -0.00196242053584044 0 0.00075771861443987951 -0.0012338691779443997 0 0.00068451893116571231 -0.0012888837613269641 0 0.00067760158346538875 -0.0011578873361947511 0 -5.6017914288510802e-05 -0.00018098953888665061 0 -6.6478920257182194e-05 -0.00030342909332575963 0 -9.4685645360556193e-05 -0.00028450251470939377 0 5.5468793299218455e-06 -0.00014041147531944264 0 5.3624329905586438e-06 -6.1192452990733906e-05 0 1.7434934551225919e-05 -9.2396828982921358e-05 0 -0.0008225248754454847 -0.0015406567400613512 0 -0.00087835807527905847 -0.0015189818929283168 0 -0.00084317875772364954 -0.0014064589704767473 0 0.00082871281658418276 -0.001623877692853008 0 0.00089115485493507598 -0.0016722152363673065 0 0.00087349033626497581 -0.0017766096057074447 0 -2.7526495089897885e-05 -0.0029618674048253139 0 -5.1634927144495198e-05 -0.0030830951022605842 0 -0.00012336938340424302 -0.0030352264526730724 0 0.0001386043694980344 -0.0025623975556809276 0 8.2980437852227113e-05 -0.002648448206050434 0 7.7346646250926282e-05 -0.0025034613693748738 0 -0.00062648875116418871 -0.001757270154887119 0 -0.00066960748065710961 -0.0016767964692368197 0 -0.00059059804078748961 -0.0016526437699475652 0 0.00059534949431567716 -0.0013113589873449138 0 0.00065094169453594095 -0.0014124356976313616 0 0.00057396055849747547 -0.0014026949655275187 0 -7.2167035273447658e-05 -0.00044588598630123386 0 -3.7261140888485971e-05 -0.00037554568721873642 0 -4.3100827694029875e-05 -0.00049323891920643277 0 6.4137691546123676e-06 -0.0014704110577971425 0 -4.0651532494586979e-05 -0.0016341743186992143 0 -9.3124502894534201e-05 -0.0015192887585209645 0 0.00048519967942058112 -0.0025043234012706991 0 0.00040417829963311448 -0.0025024953422551062 0 0.00042945472654702432 -0.0023456345548627864 0 -0.00059467438967216726 -0.0023236677996314589 0 -0.00059530331482094995 -0.0021876522045498285 0 -0.00050556203190483303 -0.0022211202005781453 0 0.00044282036739320816 -0.00073290077833947423 0 0.00048270153759806078 -0.00086738606548547722 0 0.0003927513844727408 -0.00080476506233551157 0 -0.00029549263186179358 -0.00053115222921185036 0 -0.00024131158170570587 -0.00052243460609249922 0 -0.00029970365391833258 -0.00066725252609003808 0 -0.00014194939235407378 -0.0025748181648995393 0 -0.0001951540275264473 -0.0026778145981834417 0 -0.00023142174700779727 -0.0025133168810582288 0 -0.00028560249531983862 -0.002662473216102852 0 -0.00023142174700779727 -0.0025133168810582288 0 -0.0001951540275264473 -0.0026778145981834417 0 -0.00060162365794934238 -0.0013079891844638683 0 -0.00064518759314886821 -0.0012376820931082862 0 -0.00054887920880408421 -0.0011537562561223904 0 0.00063332720870903935 -0.0017636549471737946 0 0.00069136126910851752 -0.0018581935182388489 0 0.0006022493641446179 -0.0019031856476074004 0 0.00068486749705752928 -0.0020026175662030367 0 0.0006022493641446179 -0.0019031856476074004 0 0.00069136126910851752 -0.0018581935182388489 0 -0.00061150223863516847 -0.0010893798756488934 0 -0.00054887920880408421 -0.0011537562561223904 0 -0.00064518759314886821 -0.0012376820931082862 0 7.2950320828886486e-05 -0.00043451666764076849 0 8.4739332836134728e-05 -0.00035395849080611605 0 0.00013122425171037839 -0.00049218508069131671 0 0.00013056134610272643 -0.00037225760091217866 0 0.00013122425171037839 -0.00049218508069131671 0 8.4739332836134741e-05 -0.00035395849080611605 0 0.00030839112300794436 -0.0019693733943533806 0 0.00031235226167293078 -0.0018058967696799144 0 0.00038864151036045069 -0.0018730480564200531 0 0.00024395039503066673 -0.00096885239073820088 0 0.00016302862798005187 -0.00095503622864270138 0 0.00017802439269475306 -0.0008309423269202477 0 -0.00028600352001728298 -0.0019990599960923745 0 -0.00019257014376403684 -0.002009462205901326 0 -0.00023211684791421485 -0.0021370928211749116 0 0.00078978760760710679 -0.0028710722720246091 0 0.00069963633947679423 -0.0027855902065536927 0 0.0007695344896904195 -0.0027098394755520161 0 -0.00079280624212388329 -0.0028658599558904767 0 -0.00074665808108959639 -0.0027040984332397395 0 -0.00070227191720316983 -0.002827355650192309 0 0.00030796790824146389 -0.00027145139087298174 0 0.00041419955117940368 -0.00042789595917307123 0 0.00030641848339644676 -0.00032710956429502544 0 -0.00031116126664316318 -0.00027554537234411 0 -0.00028466713878696662 -0.00029542929452219742 0 -0.00039664631983434663 -0.00041949618120007333 0 -0.00027920775992114582 -0.001518401697006838 0 -0.00032059819048200946 -0.0014124652083760548 0 -0.0002355999853115077 -0.0013347264108276638 0 0.00083234534316563823 -0.0020795158093242804 0 0.0008693120878451718 -0.0022569272227989643 0 0.00078702119379568333 -0.0021873307269385115 0 7.5584603776131088e-05 -0.00016245405075897924 0 7.6598923075044001e-05 -0.00011744298174124681 0 0.00012581347627059611 -0.0002299887378956448 0 -0.00032223384449032761 -0.0029378926938383484 0 -0.00043110721832757392 -0.0030075405291944556 0 -0.00039190488708687395 -0.0028512468738896733 0 -0.00074157465074523238 -0.0010870693775215151 0 -0.00072853068923156073 -0.00093712272324851748 0 -0.00066803766353333311 -0.00095635033899354755 0 -0.00012894869627801413 -0.0016466517615173412 0 -9.3124502894534187e-05 -0.0015192887585209645 0 -4.0651532494586979e-05 -0.0016341743186992143 0 -0.0003140708187024297 -0.0012865035818199787 0 -0.00038150327924714678 -0.0012580983398492594 0 -0.0003523506474332076 -0.0011329538324925065 0 0.0009615724477743064 -0.0022232169736244073 0 0.0008693120878451718 -0.0022569272227989643 0 0.00090492121433808379 -0.0021283640207307684 0 1.0797946947871088e-08 -1.1317161598106017e-07 0 7.6598923075044015e-05 -0.00011744298174124683 0 3.7689068707051216e-05 -6.7666753283525562e-05 0 -0.00040808342161430196 -0.0031880730989778507 0 -0.00043110721832757392 -0.0030075405291944556 0 -0.00034961075690275795 -0.0030778670639368877 0 -0.00082389641562662737 -0.0010268953924695804 0 -0.00072853068923156073 -0.00093712272324851758 0 -0.00079923344690427801 -0.0010797446947491689 0 0.0001386043694980344 -0.0025623975556809276 0 0.00015532746177323101 -0.0024243983762192102 0 0.00024348741428957074 -0.0024877104882736535 0 0.00020109954042435023 -0.0023101515727460978 0 0.00024348741428957077 -0.0024877104882736535 0 0.00015532746177323101 -0.0024243983762192102 0 -0.00048780838114398459 -0.0018381633964094676 0 -0.00058860522977169046 -0.0019210890653002658 0 -0.00055078157405252326 -0.0017720673353936794 0 -0.00062648875116418871 -0.001757270154887119 0 -0.00055078157405252326 -0.0017720673353936794 0 -0.00058860522977169046 -0.0019210890653002658 0 0.000446808100432875 -0.0011776644612985707 0 0.00053189718123161753 -0.0011300930710899538 0 0.00051738582395526001 -0.0012659419942799427 0 0.00059534949431567716 -0.0013113589873449138 0 0.00051738582395526001 -0.0012659419942799427 0 0.00053189718123161753 -0.0011300930710899538 0 -0.00013971547705399396 -0.00066877556308641705 0 -0.000142812035102262 -0.00051437028955079425 0 -9.5649638907636329e-05 -0.00056416494324937957 0 -7.2167035273447658e-05 -0.00044588598630123386 0 -9.5649638907636329e-05 -0.00056416494324937957 0 -0.000142812035102262 -0.00051437028955079425 0 0.00028540603843067697 -0.0026624500286066498 0 0.000210267658703243 -0.0026204468657927372 0 0.00024348741428957074 -0.0024877104882736535 0 -0.00068509213526638999 -0.0020025787968025845 0 -0.00066085324955234091 -0.0018780042596746426 0 -0.00058860522977169046 -0.0019210890653002658 0 0.00061124118417206518 -0.0010899129209875141 0 0.0006105765515485495 -0.0012041765290588639 0 0.00053189718123161753 -0.0011300930710899538 0 -0.00013058544855497337 -0.00037146189929065509 0 -0.00010096054851856756 -0.0004013364568357574 0 -0.000142812035102262 -0.00051437028955079425 0 7.0398544834951446e-05 -0.0027930112367086975 0 0.00016943162279492387 -0.0027414744981262549 0 0.00014104841404299405 -0.0028833755261022257 0 -0.00074584923638837744 -0.0016724972827563381 0 -0.00072491853292364896 -0.0018235087997048492 0 -0.00079773890465931966 -0.0017914702470834703 0 0.00075771861443987951 -0.0012338691779443997 0 0.00076002501737795249 -0.0013551135940714466 0 0.00068451893116571242 -0.0012888837613269641 0 -2.4927837192311126e-05 -0.00026256166527475816 0 -6.6478920257182181e-05 -0.00030342909332575963 0 -3.7850735774747449e-05 -0.00019821600894576617 0 0.00022405654345947196 -0.0029075526021994078 0 0.00014104841404299405 -0.0028833755261022257 0 0.00016943162279492387 -0.0027414744981262549 0 -0.00081429802795792089 -0.0019227945407203769 0 -0.00079773890465931966 -0.0017914702470834703 0 -0.00072491853292364896 -0.0018235087997048492 0 0.00072952014545953655 -0.0014521492300810929 0 0.00068451893116571242 -0.0012888837613269641 0 0.00076002501737795249 -0.0013551135940714466 0 -5.6017914288510802e-05 -0.00018098953888665061 0 -3.7850735774747449e-05 -0.00019821600894576617 0 -6.6478920257182194e-05 -0.00030342909332575963 0 0.0001386043694980344 -0.0025623975556809276 0 0.000210267658703243 -0.0026204468657927372 0 0.00016943162279492387 -0.0027414744981262549 0 -0.00062648875116418871 -0.001757270154887119 0 -0.00066085324955234091 -0.0018780042596746426 0 -0.00072491853292364896 -0.0018235087997048492 0 0.00059534949431567716 -0.0013113589873449138 0 0.0006105765515485495 -0.0012041765290588639 0 0.00068451893116571242 -0.0012888837613269641 0 -7.2167035273447658e-05 -0.00044588598630123386 0 -0.00010096054851856756 -0.0004013364568357574 0 -6.6478920257182194e-05 -0.00030342909332575963 0 0.0005624811105111047 -0.0022346666881755007 0 0.00057567656939398976 -0.0023781022757994345 0 0.00050312786048516969 -0.0023242235756950392 0 -0.00043430746266286032 -0.002445925889104702 0 -0.00051814324576067048 -0.0024737026532122169 0 -0.00048988265599593506 -0.002346145352838789 0 0.00027775616724247875 -0.00057664886846467477 0 0.00032974020998176724 -0.00056261450467461028 0 0.00034797396561961412 -0.00068102368559354786 0 -0.00044029153100234424 -0.00081023547549611576 0 -0.00041045590667774677 -0.00067006660328426844 0 -0.00036489460280951963 -0.00070630179853445395 0 0.00063332720870903935 -0.0017636549471737946 0 0.00055520624566544375 -0.0017434103127576472 0 0.00060271147201057746 -0.0016432325382500241 0 -0.00014194939235407378 -0.0025748181648995393 0 -0.00013751720770311109 -0.0024335036200254525 0 -7.0098187862979112e-05 -0.0025266360858300424 0 7.2950320828886486e-05 -0.00043451666764076849 0 8.3840451334961128e-05 -0.00055319798416286249 0 3.8507531870061715e-05 -0.00047252695724349722 0 -0.00060162365794934238 -0.0013079891844638683 0 -0.00052613660133903626 -0.0012966643667722034 0 -0.00058790591191033002 -0.0014175485313660679 0 0.00083234534316563823 -0.0020795158093242804 0 0.00090492121433808379 -0.0021283640207307684 0 0.0008693120878451718 -0.0022569272227989643 0 7.5584603776131088e-05 -0.00016245405075897924 0 3.7689068707051216e-05 -6.7666753283525562e-05 0 7.6598923075044001e-05 -0.00011744298174124681 0 -0.00032223384449032761 -0.0029378926938383484 0 -0.00034961075690275795 -0.0030778670639368877 0 -0.00043110721832757392 -0.0030075405291944556 0 -0.00074157465074523238 -0.0010870693775215151 0 -0.00079923344690427801 -0.0010797446947491689 0 -0.00072853068923156073 -0.00093712272324851758 0 3.0341591610589886e-05 -0.0021455292657475739 0 -6.7000327450526928e-05 -0.0021566067266655608 0 -4.4756652862349695e-05 -0.0020337180360653832 0 -0.00038751094919452233 -0.0015436573001441057 0 -0.00038451992867204898 -0.0013824929165110126 0 -0.00032059819048200946 -0.0014124652083760548 0 7.0398544834951446e-05 -0.0027930112367086975 0 4.9669873134545928e-05 -0.0029184960062883869 0 -2.5621421034659005e-05 -0.0028104269336198607 0 -0.00074584923638837744 -0.0016724972827563381 0 -0.0008089955122924054 -0.0016538471165237216 0 -0.00074514150663662463 -0.0015244357334167802 0 0.00072952014545953655 -0.0014521492300810929 0 0.00079666033968199697 -0.00150092418227518 0 0.00075064194588432369 -0.0016043169249017437 0 -2.4927837192311126e-05 -0.00026256166527475816 0 -1.2275735587600082e-05 -0.00017122852959324512 0 8.7893522176763286e-06 -0.00024906840579253187 0 -1.6522100032026721e-05 -0.0017770590108374209 0 -4.0651532494586979e-05 -0.0016341743186992143 0 6.1699200144305771e-05 -0.0016491134889864236 0 0.0006343156585051007 -0.0029030267105289039 0 0.00056349790973529766 -0.0028152862392366545 0 0.00062655285366137027 -0.0027515288600430373 0 -0.0008125233175341833 -0.0025936637148565051 0 -0.00076559109936132736 -0.0024703565538469136 0 -0.00072917822814052018 -0.0025758362065096147 0 0.00078978760760710679 -0.0028710722720246091 0 0.00070343220469529124 -0.0029045693405077961 0 0.00069963633947679434 -0.0027855902065536931 0 -0.00079280624212388329 -0.0028658599558904767 0 -0.00081214479528015791 -0.0027137240519671817 0 -0.00074665808108959639 -0.0027040984332397399 0 0.00018931600809982116 -0.00020048560068197993 0 0.00024335296015098127 -0.00023270531899619785 0 0.00030641848339644676 -0.00032710956429502544 0 -0.00052456607514088122 -0.00055717671053981551 0 -0.00042636546112556503 -0.00041851660678314317 0 -0.00039664631983434663 -0.00041949618120007333 0 0.0001386043694980344 -0.0025623975556809276 0 0.00024348741428957074 -0.0024877104882736535 0 0.000210267658703243 -0.0026204468657927372 0 -0.00062648875116418871 -0.001757270154887119 0 -0.00058860522977169046 -0.0019210890653002658 0 -0.00066085324955234091 -0.0018780042596746426 0 0.00059534949431567716 -0.0013113589873449138 0 0.00053189718123161753 -0.0011300930710899538 0 0.0006105765515485495 -0.0012041765290588639 0 -7.2167035273447658e-05 -0.00044588598630123386 0 -0.000142812035102262 -0.00051437028955079425 0 -0.00010096054851856756 -0.0004013364568357574 0 0.00053252054696314999 -0.00056904825161057412 0 0.00047073369781749192 -0.00054982945579511568 0 0.00041419955117940368 -0.00042789595917307118 0 -0.00018183094928060203 -0.00019700480037059803 0 -0.00026644337782625682 -0.00032377689009175281 0 -0.00028466713878696668 -0.00029542929452219742 0 6.4137691546123676e-06 -0.0014704110577971425 0 -7.4479056683595429e-05 -0.00137664200378913 0 1.4238694687302949e-05 -0.0012979972799425747 0 -7.3158452443528382e-05 -0.0012378016375153103 0 1.4238694687302949e-05 -0.0012979972799425747 0 -7.4479056683595429e-05 -0.00137664200378913 0 0.00041073360095977878 -0.0021857805837151205 0 0.00035875367359272274 -0.0022618290526947057 0 0.00035930502455090415 -0.0020967301917871146 0 -0.00041308583361558497 -0.0021823242472044997 0 -0.00045784315454594721 -0.0020959275552061116 0 -0.0003604130903468574 -0.0020903746282055651 0 0.00032241035091800356 -0.00081906475238263513 0 0.00037784572200806333 -0.0009117363704536529 0 0.00029419365921968133 -0.00089586642370707305 0 -0.00031937064298858699 -0.0008155731046784302 0 -0.00026253888552097928 -0.00073352210920474552 0 -0.00029108584035238469 -0.00088989965242202969 0 -0.00011588595271765752 -0.00099707177104799193 0 -0.00019204028530833776 -0.0010709645817444722 0 -0.00018140784396214688 -0.00091708968567977528 0 -2.7526495089897885e-05 -0.0029618674048253139 0 -2.5621421034659005e-05 -0.0028104269336198607 0 4.9669873134545928e-05 -0.0029184960062883869 0 -0.0008225248754454847 -0.0015406567400613512 0 -0.00074514150663662463 -0.0015244357334167802 0 -0.0008089955122924054 -0.0016538471165237216 0 0.00082871281658418276 -0.001623877692853008 0 0.00075064194588432369 -0.0016043169249017437 0 0.00079666033968199697 -0.00150092418227518 0 5.5468793299218455e-06 -0.00014041147531944264 0 8.7893522176763286e-06 -0.00024906840579253187 0 -1.2275735587600082e-05 -0.00017122852959324512 0 -0.00011575222929005153 -0.0020414828307071674 0 -0.00014931644237789173 -0.0021607167897784748 0 -0.00019257014376403684 -0.002009462205901326 0 -0.00023211684791421485 -0.0021370928211749116 0 -0.00019257014376403684 -0.002009462205901326 0 -0.00014931644237789173 -0.0021607167897784748 0 0.00014725319712218077 -0.0016185382854106249 0 0.0001065841887161395 -0.0015001254390274437 0 0.00018997723868001746 -0.0015363362681684021 0 0.00069737951783199845 -0.0031927618705711357 0 0.00060306262427364365 -0.0031915545232937309 0 0.00065305677147713831 -0.0030464078903036473 0 -0.00096703541441084276 -0.0027054153814445158 0 -0.00096586964513983777 -0.0025437032105485361 0 -0.00088935684825140846 -0.0026281292813031885 0 0.00060907490611807112 -0.00059718953491088049 0 0.00070055259979036691 -0.00074192279117722389 0 0.00060312794608465914 -0.00062364868729610824 0 -2.0906568780586079e-08 -1.0096052547927321e-07 0 -3.0912290732612321e-08 -1.1446497126343517e-07 0 -8.8315478476515987e-05 -8.9858819359247774e-05 0 0.00096575934319542136 -0.0025438214358679424 0 0.00096686773885609712 -0.0027055228506733661 0 0.00089715757443977026 -0.002605040026134541 0 3.0332299151747881e-08 -1.1452381175351473e-07 0 2.1076196377956506e-08 -1.0215939222298164e-07 0 8.7631611207013876e-05 -8.9571797484685439e-05 0 -0.00060338442842218639 -0.0031914485958679964 0 -0.00069758614479705416 -0.0031927600177518072 0 -0.00063971595293487956 -0.0030614100563366542 0 -0.00070075829952343047 -0.0007420270927011351 0 -0.00060793999719238807 -0.00059794004921442955 0 -0.00060181365828232273 -0.00062096854991367575 0 0.00029590349772381114 -0.002151530019598431 0 0.00035930502455090415 -0.0020967301917871146 0 0.00035875367359272274 -0.0022618290526947057 0 -0.00039619231393475397 -0.0019861008989604922 0 -0.0003604130903468574 -0.0020903746282055651 0 -0.00045784315454594721 -0.0020959275552061116 0 0.00033990417773163191 -0.0010047882568621457 0 0.00029419365921968133 -0.00089586642370707305 0 0.00037784572200806333 -0.0009117363704536529 0 -0.00023011351985449698 -0.0008264328773221535 0 -0.00029108584035238469 -0.00088989965242202969 0 -0.00026253888552097928 -0.00073352210920474552 0 -4.810767646427209e-06 -0.0026364938623947278 0 -2.5621421034659005e-05 -0.0028104269336198607 0 -9.5501742454384627e-05 -0.002690226370042416 0 -0.0006556841133249213 -0.0015355452264584949 0 -0.00074514150663662463 -0.0015244357334167802 0 -0.00067194222548477595 -0.0013982565297739121 0 0.00065651453611234264 -0.0015506540477363941 0 0.00075064194588432369 -0.0016043169249017437 0 0.00069317434268150553 -0.0017009118196524202 0 2.7351981280270158e-06 -0.00038250368415855692 0 8.7893522176763286e-06 -0.00024906840579253187 0 4.1456718617476693e-05 -0.0003409386125040426 0 0.00041073360095977878 -0.0021857805837151205 0 0.00035930502455090415 -0.0020967301917871146 0 0.00043483824900229892 -0.0020294441488223885 0 -0.00041308583361558497 -0.0021823242472044997 0 -0.0003604130903468574 -0.0020903746282055651 0 -0.00032090922506359176 -0.002223749473341914 0 0.00032241035091800356 -0.00081906475238263513 0 0.00029419365921968133 -0.00089586642370707305 0 0.00024048801029312298 -0.000766607265867419 0 -0.00031937064298858699 -0.0008155731046784302 0 -0.00029108584035238469 -0.00088989965242202969 0 -0.00036887318192195382 -0.00097335312540044636 0 0.00083234534316563823 -0.0020795158093242804 0 0.00090021451412307515 -0.0020181380942046277 0 0.00090492121433808379 -0.0021283640207307684 0 7.5584603776131088e-05 -0.00016245405075897924 0 2.9964444484104118e-05 -6.9857801979287537e-05 0 3.7689068707051216e-05 -6.7666753283525562e-05 0 -0.00074157465074523238 -0.0010870693775215151 0 -0.00082183309365009745 -0.0011819721708107951 0 -0.00079923344690427801 -0.0010797446947491689 0 -0.00032223384449032761 -0.0029378926938383484 0 -0.00027961651703408249 -0.0030723209037309082 0 -0.00034961075690275795 -0.0030778670639368877 0 0.00095834391549639848 -0.0020657140992885997 0 0.0009615724477743064 -0.0022232169736244073 0 0.00090492121433808379 -0.0021283640207307684 0 1.2654903688953946e-08 -1.080648340274967e-07 0 1.0797946947871088e-08 -1.1317161598106017e-07 0 3.7689068707051216e-05 -6.7666753283525562e-05 0 -0.00030776155195788612 -0.0031864112499724374 0 -0.00040808342161430196 -0.0031880730989778507 0 -0.00034961075690275795 -0.0030778670639368877 0 -0.00086550344363806758 -0.0011666668893479772 0 -0.00082389641562662737 -0.0010268953924695804 0 -0.00079923344690427801 -0.0010797446947491689 0 -0.00089634692376370552 -0.0013100546352804116 0 -0.00086550344363806747 -0.0011666668893479772 0 -0.00082183309365009745 -0.0011819721708107951 0 -0.0002061066658618923 -0.0031850987991873395 0 -0.00030776155195788612 -0.0031864112499724374 0 -0.00027961651703408249 -0.0030723209037309082 0 9.7770556235269522e-09 -1.0773527650391307e-07 0 1.2654903688953946e-08 -1.080648340274967e-07 0 2.9964444484104118e-05 -6.9857801979287537e-05 0 0.00095293767145229421 -0.0019100977780663821 0 0.00095834391549639848 -0.0020657140992885997 0 0.00090021451412307515 -0.0020181380942046277 0 0.0006343156585051007 -0.0029030267105289039 0 0.00069963633947679434 -0.0027855902065536931 0 0.00070343220469529124 -0.0029045693405077961 0 -0.0008125233175341833 -0.0025936637148565051 0 -0.00074665808108959639 -0.0027040984332397399 0 -0.00081214479528015791 -0.0027137240519671817 0 0.00030796790824146389 -0.00027145139087298174 0 0.00030641848339644676 -0.00032710956429502538 0 0.00024335296015098127 -0.00023270531899619785 0 -0.00031116126664316318 -0.00027554537234411 0 -0.00039664631983434663 -0.00041949618120007333 0 -0.00042636546112556509 -0.00041851660678314322 0 0.00020109954042435023 -0.0023101515727460978 0 0.00022145888476038779 -0.002177975555274431 0 0.0002900654145958816 -0.002312215473448643 0 0.00029590349772381114 -0.002151530019598431 0 0.0002900654145958816 -0.002312215473448643 0 0.00022145888476038779 -0.002177975555274431 0 -0.00048780838114398459 -0.0018381633964094676 0 -0.00041248705505697559 -0.0018631926962192472 0 -0.00048930735615121954 -0.0019855498946310785 0 -0.00039619231393475397 -0.0019861008989604922 0 -0.00048930735615121954 -0.0019855498946310785 0 -0.00041248705505697559 -0.0018631926962192472 0 0.000446808100432875 -0.0011776644612985707 0 0.00037122521890770358 -0.0011302292455605885 0 0.00042543867676226959 -0.0010310296230860968 0 0.00033990417773163191 -0.0010047882568621457 0 0.00042543867676226959 -0.0010310296230860968 0 0.00037122521890770358 -0.0011302292455605885 0 -0.00013971547705399396 -0.00066877556308641705 0 -0.00016796770672990578 -0.00079180256248030114 0 -0.00020225654968200309 -0.00067622261356521185 0 -0.00023011351985449698 -0.0008264328773221535 0 -0.00020225654968200309 -0.00067622261356521185 0 -0.00016796770672990578 -0.00079180256248030114 0 0.00065656141371241974 -0.0026244731267112001 0 0.00069963633947679423 -0.0027855902065536927 0 0.00062655285366137027 -0.0027515288600430373 0 -0.00065678455984554155 -0.0026244038094312343 0 -0.00074665808108959639 -0.0027040984332397399 0 -0.00072917822814052018 -0.0025758362065096147 0 0.00063332720870903935 -0.0017636549471737946 0 0.00069317434268150553 -0.0017009118196524202 0 0.00069136126910851752 -0.0018581935182388489 0 -0.00014194939235407378 -0.0025748181648995393 0 -9.550174245438464e-05 -0.002690226370042416 0 -0.0001951540275264473 -0.0026778145981834417 0 7.2950320828886486e-05 -0.00043451666764076849 0 4.1456718617476693e-05 -0.0003409386125040426 0 8.4739332836134741e-05 -0.00035395849080611605 0 -0.00060162365794934238 -0.0013079891844638683 0 -0.00067194222548477595 -0.0013982565297739121 0 -0.00064518759314886821 -0.0012376820931082862 0 -2.2939005203351099e-06 -0.0010300349917144545 0 -6.1707617612635578e-05 -0.0010877375949514896 0 -4.6159424119961356e-05 -0.00093198888901323935 0 -0.00011588595271765752 -0.00099707177104799193 0 -4.6159424119961356e-05 -0.00093198888901323935 0 -6.1707617612635578e-05 -0.0010877375949514896 0 -0.00028560249531983862 -0.002662473216102852 0 -0.0001951540275264473 -0.0026778145981834417 0 -0.00024899774563673393 -0.0028133740769843291 0 0.00068486749705752928 -0.0020026175662030367 0 0.00069136126910851752 -0.0018581935182388489 0 0.00076540961223778086 -0.0019552892673216893 0 -0.00061150223863516847 -0.0010893798756488934 0 -0.00064518759314886821 -0.0012376820931082862 0 -0.00070163065614145634 -0.0011759825462387787 0 0.00013056134610272643 -0.00037225760091217866 0 8.4739332836134741e-05 -0.00035395849080611605 0 8.373025519401307e-05 -0.00025170714324119429 0 0.0002834104944628924 -0.0014932467568742032 0 0.0002373035092685998 -0.0016641459581471798 0 0.00018997723868001746 -0.0015363362681684021 0 0.00029590349772381114 -0.002151530019598431 0 0.00022145888476038779 -0.002177975555274431 0 0.00022184755125819716 -0.0020440508180083368 0 -0.00039619231393475397 -0.0019861008989604922 0 -0.00041248705505697559 -0.0018631926962192472 0 -0.00033867655985180158 -0.0018537329363139162 0 0.00033990417773163191 -0.0010047882568621457 0 0.00037122521890770358 -0.0011302292455605885 0 0.00029551922464466751 -0.0011181476959200298 0 -0.00023011351985449698 -0.0008264328773221535 0 -0.00016796770672990578 -0.00079180256248030114 0 -0.00018140784396214688 -0.00091708968567977528 0 -0.00021507686597489438 -0.002311995374731896 0 -0.00023142174700779727 -0.0025133168810582288 0 -0.00028955336057874103 -0.0024287683939445471 0 0.00048907597649282405 -0.0018607913338410244 0 0.0006022493641446179 -0.0019031856476074004 0 0.00055530564967817397 -0.0019920982822983877 0 -0.00044485128073356407 -0.0011552078472813899 0 -0.00054887920880408421 -0.0011537562561223904 0 -0.00048640631027560636 -0.0010468766703567625 0 0.00014848507552148938 -0.00066674669883686963 0 0.00013122425171037839 -0.00049218508069131671 0 0.00018120259814409227 -0.00057047172932168987 0 -7.3158452443528382e-05 -0.0012378016375153103 0 -7.4479056683595429e-05 -0.00137664200378913 0 -0.00014558757212541998 -0.0012921827059842279 0 9.7678915584485583e-05 -0.00091134515619970479 0 4.4882459342846713e-05 -0.00079043905422464624 0 0.00011174919119144533 -0.0007990784438035957 0 0.00017420279804202321 -0.001408603770234215 0 0.0001065841887161395 -0.0015001254390274437 0 9.2035419316563211e-05 -0.001353135536552883 0 -0.00028600352001728298 -0.0019990599960923745 0 -0.00033867655985180158 -0.0018537329363139162 0 -0.00026097578149923847 -0.0018391892557405164 0 0.00017420279804202321 -0.001408603770234215 0 0.00018997723868001746 -0.0015363362681684021 0 0.0001065841887161395 -0.0015001254390274437 0 0.00010324288626671888 -0.0031840797698251423 0 -5.1424851633712028e-08 -0.0031836939057543001 0 3.0937030696446882e-05 -0.0030561315116646288 0 -0.00094571159373450125 -0.0017557635898752129 0 -0.00093372226859945247 -0.0016045418464817295 0 -0.00087626640490125608 -0.0016386990987785981 0 0.00091830915066518656 -0.001456432667346428 0 0.00093368810673861177 -0.0016052026986929267 0 0.00086846455510792219 -0.0015466738537202539 0 -3.5626906457785541e-09 -1.0794388510895936e-07 0 2.808085912936311e-09 -1.0958054068744219e-07 0 -3.190715773075342e-06 -7.8180336121705176e-05 0 0.00055520624566544375 -0.0017434103127576472 0 0.00052682228604113482 -0.0016265056463899844 0 0.00060271147201057746 -0.0016432325382500241 0 -0.00013751720770311109 -0.0024335036200254525 0 -6.9232831356874974e-05 -0.0023888715417928856 0 -7.0098187862979112e-05 -0.0025266360858300424 0 8.3840451334961128e-05 -0.00055319798416286249 0 4.2325589774448224e-05 -0.00058849557554107017 0 3.8507531870061715e-05 -0.00047252695724349722 0 -0.00052613660133903626 -0.0012966643667722034 0 -0.00051256203153316761 -0.0014027754561064334 0 -0.00058790591191033002 -0.0014175485313660679 0 9.7678915584485583e-05 -0.00091134515619970479 0 2.4417498583313257e-05 -0.00090532719805996083 0 4.4882459342846713e-05 -0.00079043905422464624 0 -0.00012894869627801413 -0.0016466517615173412 0 -4.0651532494586979e-05 -0.0016341743186992143 0 -0.00010052417777545583 -0.0017585502118572136 0 6.4137691546123676e-06 -0.0014704110577971425 0 -9.3124502894534201e-05 -0.0015192887585209645 0 -7.4479056683595429e-05 -0.00137664200378913 0 -1.8840897350643492e-07 -3.1658913993571545e-07 0 -0.00014220574384450255 -0.00010679205669525284 0 -0.00031369532616570595 -0.000257259444908824 0 1.8905850565006052e-07 -3.1666332657955945e-07 0 0.0001425570599609275 -0.00010693707844040364 0 -4.3365939404286541e-09 -9.5488702690531176e-08 0 1.8905850565006052e-07 -3.1666332657955945e-07 0 0.00031401465308335865 -0.00025708210136017243 0 0.00014255705996092752 -0.00010693707844040366 0 -1.8840897350643492e-07 -3.1658913993571545e-07 0 3.8593183800290656e-09 -9.5093384767744939e-08 0 -0.00014220574384450255 -0.00010679205669525284 0 0.00096833863214598455 -0.0031930937811960073 0 0.00087974578742311361 -0.0031933532699646048 0 0.00091119399310781227 -0.0030875264671548401 0 0.00096833863214598455 -0.0031930937811960073 0 0.00091119399310781227 -0.0030875264671548401 0 0.00096815711198416075 -0.0030304500094976258 0 -0.00096857766142602461 -0.0031930215372984725 0 -0.00091490151568286596 -0.0030937747289527151 0 -0.00088002316537683664 -0.0031933280790319065 0 -0.00096857766142602461 -0.0031930215372984725 0 -0.00096844296499257025 -0.0030304389615348351 0 -0.00091490151568286596 -0.0030937747289527151 0 -0.00028119597079655478 -0.0017090993072743285 0 -0.0001992714090001341 -0.0015921165689933348 0 -0.00019214196695832526 -0.0017348634076080976 0 -0.00017559847411044405 -0.0014408995413800877 0 -0.0002355999853115077 -0.0013347264108276638 0 -0.00014558757212541998 -0.0012921827059842279 0 -0.00019607973430926079 -0.0011998863838707792 0 -0.00014558757212541996 -0.0012921827059842279 0 -0.0002355999853115077 -0.0013347264108276638 0 0.00022405654345947196 -0.0029075526021994078 0 0.00028157665778996704 -0.0030356617376698183 0 0.0001912083612248687 -0.003044604191462969 0 -0.00081429802795792089 -0.0019227945407203769 0 -0.00088211691459972956 -0.0020203740054939921 0 -0.00088288204484243899 -0.0018810610390148097 0 0.00075771861443987951 -0.0012338691779443997 0 0.00080385485761969488 -0.0011710058941372036 0 0.00083284241191045169 -0.0013067409049175676 0 -5.6017914288510802e-05 -0.00018098953888665061 0 -3.9874405524993215e-05 -9.3482741196623063e-05 0 -2.5495598365714229e-05 -8.7255560524174456e-05 0 0.0003428931520384383 -0.0024326792986413873 0 0.00035875367359272274 -0.0022618290526947057 0 0.00042945472654702432 -0.0023456345548627864 0 -0.00055720531086484359 -0.0020812251328760334 0 -0.00045784315454594721 -0.0020959275552061116 0 -0.00050556203190483303 -0.0022211202005781453 0 0.00047122462214741319 -0.00095937113301403857 0 0.00037784572200806333 -0.0009117363704536529 0 0.0003927513844727408 -0.00080476506233551157 0 -0.00021771256027491116 -0.00057468405074760566 0 -0.00026253888552097928 -0.00073352210920474552 0 -0.00029970365391833258 -0.00066725252609003808 0 9.1216395356929068e-05 -0.0012061282090175805 0 9.2035419316563211e-05 -0.001353135536552883 0 1.4238694687302949e-05 -0.0012979972799425747 0 -0.00026357615502476891 -0.001002504604138487 0 -0.00018140784396214688 -0.00091708968567977528 0 -0.00019204028530833776 -0.0010709645817444722 0 0.00040788307935697986 -0.0031880917398897589 0 0.00036040132986944062 -0.0030775987202285486 0 0.00044229967867418597 -0.0030247007907541726 0 -0.00096184693030154232 -0.0022233222094000609 0 -0.0009051276825321761 -0.0021460842679008026 0 -0.00087861173720391289 -0.0022762379054246744 0 0.00036184283911565692 -0.0029537823265434436 0 0.00044229967867418597 -0.0030247007907541726 0 0.00036040132986944062 -0.0030775987202285486 0 -0.00084125780592814159 -0.0021439203390303048 0 -0.00087861173720391289 -0.0022762379054246744 0 -0.0009051276825321761 -0.0021460842679008026 0 0.00082439300600166648 -0.0010265721823720093 0 0.00079442105612289216 -0.0010633001987989028 0 0.00072800925165222689 -0.00092461637737371839 0 -1.0841590074986818e-08 -1.1163050043235128e-07 0 -3.8618200055180824e-05 -6.9404112671439265e-05 0 -7.367393771143618e-05 -0.00011086484428501779 0 0.00073363191328660508 -0.0010290525379486747 0 0.00072800925165222689 -0.00092461637737371839 0 0.00079442105612289216 -0.0010633001987989028 0 -7.978806042799452e-05 -0.00015252293074458087 0 -7.367393771143618e-05 -0.00011086484428501779 0 -3.8618200055180824e-05 -6.9404112671439265e-05 0 0.00082166016528141582 -0.0025980464048641423 0 0.00074525187525276084 -0.0025679731053026202 0 0.00079506646630687862 -0.0024673402702712222 0 -0.00063679974748825539 -0.0029204688184181035 0 -0.00062170691711298633 -0.0027809109399955711 0 -0.00056081696996106156 -0.0028702577848243732 0 0.00053070936538629975 -0.0021114727471390842 0 0.00055530564967817397 -0.0019920982822983877 0 0.00061615088382779945 -0.0021006333807550084 0 -0.00036285723556522939 -0.0023872240297291292 0 -0.00028955336057874103 -0.0024287683939445471 0 -0.00035082388777105957 -0.0025377243807686786 0 0.00024127102524427869 -0.00061844447203430574 0 0.0001812025981440923 -0.00057047172932168987 0 0.00019634243144908112 -0.00048218599526688013 0 -0.00044033196535373968 -0.00092098500828180008 0 -0.00048640631027560636 -0.0010468766703567625 0 -0.00052309001643994037 -0.0009613783127741997 0 0.00018931600809982116 -0.00020048560068197993 0 0.00026549358872052594 -0.00032176403555213973 0 0.00018783359382602887 -0.00024240607707788389 0 -0.00052456607514088122 -0.00055717671053981551 0 -0.00047166937637936536 -0.00055000315549710063 0 -0.00056579253566639716 -0.00067624035066268513 0 -0.00011588595271765752 -0.00099707177104799193 0 -6.1707617612635578e-05 -0.0010877375949514896 0 -0.00012922141545474426 -0.0011520526234525153 0 -0.00013171414525883082 -0.0028526834209706272 0 -9.5501742454384627e-05 -0.002690226370042416 0 -2.5621421034659005e-05 -0.0028104269336198607 0 -0.00075061366778245197 -0.0013659428870838491 0 -0.00067194222548477595 -0.0013982565297739121 0 -0.00074514150663662463 -0.0015244357334167802 0 0.00078131790741323072 -0.0017738018733439477 0 0.00069317434268150553 -0.0017009118196524202 0 0.00075064194588432369 -0.0016043169249017437 0 3.9235300150196635e-05 -0.00021844556314660991 0 4.14567186174767e-05 -0.00034093861250404254 0 8.7893522176763286e-06 -0.00024906840579253187 0 3.0341591610589886e-05 -0.0021455292657475739 0 -1.920369722382609e-05 -0.0022849750791188467 0 -6.7000327450526928e-05 -0.0021566067266655608 0 -0.00010756200835754745 -0.0022858548131040849 0 -6.7000327450526928e-05 -0.0021566067266655608 0 -1.920369722382609e-05 -0.0022849750791188467 0 -0.00038751094919452233 -0.0015436573001441057 0 -0.00046125229505369892 -0.0014740573449242727 0 -0.00038451992867204898 -0.0013824929165110126 0 -0.00045068858000921642 -0.0013291936872356584 0 -0.00038451992867204898 -0.0013824929165110124 0 -0.00046125229505369892 -0.0014740573449242727 0 0.00038818387206951909 -0.0014425491231980885 0 0.00046535784900813843 -0.0015287844714832128 0 0.00039095472617777936 -0.0015917964702605 0 0.00047092038416094009 -0.0016817629915297156 0 0.00039095472617777936 -0.0015917964702605 0 0.00046535784900813843 -0.0015287844714832128 0 0.00036184283911565692 -0.0029537823265434436 0 0.00029456122111400264 -0.0028960752743660495 0 0.00034490527605681722 -0.0027815926655434153 0 -0.00084125780592814159 -0.0021439203390303048 0 -0.0008099164002716929 -0.0020333948411782989 0 -0.0007498853956821788 -0.0021071569053260015 0 0.00073363191328660508 -0.0010290525379486747 0 0.00072659501837498124 -0.001121460770371278 0 0.00065221024414186728 -0.0010160182364677293 0 -7.978806042799452e-05 -0.00015252293074458087 0 -7.7846107697751934e-05 -0.00019222374399346134 0 -0.0001277301219329016 -0.00028099721472471767 0 0.00028540603843067697 -0.0026624500286066498 0 0.00034490527605681717 -0.0027815926655434153 0 0.00025526086939498763 -0.0027707853228110548 0 -0.00068509213526638999 -0.0020025787968025845 0 -0.0007498853956821788 -0.0021071569053260015 0 -0.00074294385825868258 -0.00196242053584044 0 0.00061124118417206518 -0.0010899129209875141 0 0.00065221024414186728 -0.0010160182364677293 0 0.00067760158346538875 -0.0011578873361947511 0 -0.00013058544855497337 -0.00037146189929065509 0 -0.00012773012193290163 -0.00028099721472471767 0 -9.4685645360556193e-05 -0.00028450251470939377 0 -7.3158452443528382e-05 -0.0012378016375153103 0 8.8779299263972386e-06 -0.0011511218742406408 0 1.4238694687302949e-05 -0.0012979972799425747 0 0.00070602501080228657 -0.0021824683767748079 0 0.00075577414954439127 -0.0020863495303842911 0 0.00078702119379568333 -0.0021873307269385115 0 -0.00039424651584536995 -0.0027010712299935127 0 -0.00033163472841368953 -0.0027931478472865991 0 -0.00039190488708687395 -0.0028512468738896733 0 0.00017427401956799141 -0.00034828896776841205 0 0.00012020353794379223 -0.00027136652884652169 0 0.00012581347627059611 -0.0002299887378956448 0 -0.00058936333789335563 -0.00091937239308828795 0 -0.00066287818881860105 -0.0010404158440515229 0 -0.00066803766353333311 -0.00095635033899354755 0 0.00056869560838185707 -0.0026474653535791585 0 0.00062655285366137027 -0.0027515288600430373 0 0.00056349790973529766 -0.0028152862392366545 0 -0.00067271845415090329 -0.0024726330191467121 0 -0.00072917822814052018 -0.0025758362065096147 0 -0.00076559109936132736 -0.0024703565538469136 0 0.0003428931520384383 -0.0024326792986413873 0 0.0002900654145958816 -0.002312215473448643 0 0.00035875367359272274 -0.0022618290526947057 0 -0.00055720531086484359 -0.0020812251328760334 0 -0.00048930735615121954 -0.0019855498946310785 0 -0.00045784315454594721 -0.0020959275552061116 0 0.00047122462214741319 -0.00095937113301403857 0 0.00042543867676226959 -0.0010310296230860968 0 0.00037784572200806333 -0.0009117363704536529 0 -0.00021771256027491116 -0.00057468405074760566 0 -0.00020225654968200312 -0.00067622261356521185 0 -0.00026253888552097928 -0.00073352210920474552 0 -0.00011575222929005153 -0.0020414828307071674 0 -9.1449680500996737e-05 -0.0019063708397297865 0 -4.4756652862349695e-05 -0.0020337180360653832 0 0.00040788307935697986 -0.0031880917398897589 0 0.00030751903803336565 -0.0031863262064922597 0 0.00036040132986944062 -0.0030775987202285486 0 -0.00096184693030154232 -0.0022233222094000609 0 -0.00095858296667032043 -0.0020659891268011822 0 -0.0009051276825321761 -0.0021460842679008026 0 0.00082439300600166648 -0.0010265721823720093 0 0.00086560838562202631 -0.0011656760125051721 0 0.00079442105612289216 -0.0010633001987989028 0 -1.0841590074986818e-08 -1.1163050043235128e-07 0 -1.5294779100583589e-08 -1.0904421123140509e-07 0 -3.8618200055180824e-05 -6.9404112671439265e-05 0 -2.2939005203351099e-06 -0.0010300349917144545 0 -4.6159424119961356e-05 -0.00093198888901323935 0 2.4417498583313257e-05 -0.00090532719805996083 0 -5.1424851633712028e-08 -0.0031836939057543001 0 -0.00010336812304552387 -0.0031840048047145774 0 -5.1634927144495198e-05 -0.0030830951022605842 0 -0.00093372226859945247 -0.0016045418464817295 0 -0.00091730034229081767 -0.0014567870509056163 0 -0.00087835807527905847 -0.0015189818929283168 0 0.00093368810673861177 -0.0016052026986929269 0 0.00094461449365171692 -0.0017559594623686109 0 0.00089115485493507598 -0.0016722152363673065 0 2.808085912936311e-09 -1.0958054068744219e-07 0 -2.5714163782599949e-10 -1.1221132801716118e-07 0 5.3624329905586438e-06 -6.1192452990733906e-05 0 0.00053252054696314999 -0.00056904825161057412 0 0.00055251927355318468 -0.00066097563027651474 0 0.00047073369781749192 -0.00054982945579511568 0 -0.00018183094928060203 -0.00019700480037059803 0 -0.00019846610661859533 -0.00025473204438616762 0 -0.00026644337782625682 -0.00032377689009175281 0 -2.5789586984976359e-05 -0.00079236412173220346 0 2.4417498583313257e-05 -0.00090532719805996083 0 -4.6159424119961356e-05 -0.00093198888901323935 0 0.00017420279804202321 -0.001408603770234215 0 0.00017587990837172014 -0.001267471679108138 0 0.00024227536702892238 -0.0013577027332724184 0 0.00026298211689778462 -0.0012524489528068325 0 0.00024227536702892241 -0.0013577027332724184 0 0.00017587990837172014 -0.001267471679108138 0 -0.00091730034229081767 -0.0014567870509056163 0 -0.00084317875772364954 -0.0014064589704767473 0 -0.00087835807527905847 -0.0015189818929283168 0 -0.00010336812304552387 -0.0031840048047145774 0 -0.00012336938340424302 -0.0030352264526730724 0 -5.1634927144495198e-05 -0.0030830951022605842 0 -2.5714163782599949e-10 -1.1221132801716118e-07 0 1.7434934551225919e-05 -9.2396828982921358e-05 0 5.3624329905586438e-06 -6.1192452990733906e-05 0 0.00094461449365171692 -0.0017559594623686109 0 0.00087349033626497581 -0.0017766096057074447 0 0.00089115485493507598 -0.0016722152363673065 0 0.00014431009826517457 -0.0021464087182039115 0 0.00022184755125819716 -0.0020440508180083368 0 0.00022145888476038779 -0.002177975555274431 0 -0.00039134143260744473 -0.0017277439830872012 0 -0.00033867655985180163 -0.0018537329363139162 0 -0.00041248705505697559 -0.0018631926962192472 0 0.0003672908781063289 -0.0012584217486967925 0 0.00029551922464466751 -0.0011181476959200298 0 0.00037122521890770358 -0.0011302292455605885 0 -0.0001096687572302295 -0.00081541600367760749 0 -0.00018140784396214688 -0.00091708968567977528 0 -0.00016796770672990578 -0.00079180256248030114 0 -0.00028119597079655478 -0.0017090993072743285 0 -0.00026097578149923847 -0.0018391892557405164 0 -0.00033867655985180158 -0.0018537329363139162 0 -0.00012894869627801413 -0.0016466517615173412 0 -0.00019214196695832529 -0.0017348634076080976 0 -0.0001992714090001341 -0.0015921165689933348 0 0.0003428931520384383 -0.0024326792986413873 0 0.00042945472654702432 -0.0023456345548627864 0 0.00040417829963311448 -0.0025024953422551066 0 -0.00055720531086484359 -0.0020812251328760334 0 -0.00050556203190483303 -0.0022211202005781453 0 -0.00059530331482094995 -0.0021876522045498285 0 0.00047122462214741319 -0.00095937113301403857 0 0.0003927513844727408 -0.00080476506233551157 0 0.00048270153759806078 -0.00086738606548547722 0 -0.00021771256027491116 -0.00057468405074760566 0 -0.00029970365391833258 -0.00066725252609003808 0 -0.00024131158170570587 -0.00052243460609249922 0 -0.00026357615502476891 -0.001002504604138487 0 -0.00019204028530833776 -0.0010709645817444722 0 -0.00026583615263433045 -0.0011532824492829696 0 0.00036184283911565692 -0.0029537823265434436 0 0.00034490527605681722 -0.0027815926655434153 0 0.00041581856678618215 -0.0028537755972138728 0 -0.00084125780592814159 -0.0021439203390303048 0 -0.0007498853956821788 -0.0021071569053260015 0 -0.00078861547643568539 -0.0022265840592036886 0 0.00073363191328660508 -0.0010290525379486747 0 0.00065221024414186728 -0.0010160182364677293 0 0.00065390522410267303 -0.00091521476698820268 0 -7.978806042799452e-05 -0.00015252293074458087 0 -0.0001277301219329016 -0.00028099721472471767 0 -0.00013486179730929306 -0.00023470480139025989 0 7.0398544834951446e-05 -0.0027930112367086975 0 0.00014104841404299405 -0.0028833755261022257 0 4.9669873134545928e-05 -0.0029184960062883869 0 -0.00074584923638837744 -0.0016724972827563381 0 -0.00079773890465931966 -0.0017914702470834703 0 -0.0008089955122924054 -0.0016538471165237216 0 -2.4927837192311126e-05 -0.00026256166527475816 0 -3.7850735774747449e-05 -0.00019821600894576617 0 -1.2275735587600082e-05 -0.00017122852959324512 0 -0.00019607973430926079 -0.0011998863838707792 0 -0.00026583615263433045 -0.0011532824492829696 0 -0.00019204028530833776 -0.0010709645817444722 0 0.00093368810673861177 -0.0016052026986929269 0 0.00089115485493507598 -0.0016722152363673065 0 0.00086846455510792219 -0.0015466738537202539 0 2.808085912936311e-09 -1.0958054068744219e-07 0 5.3624329905586438e-06 -6.1192452990733906e-05 0 -3.190715773075342e-06 -7.8180336121705176e-05 0 0.00082871281658418276 -0.001623877692853008 0 0.00086846455510792219 -0.0015466738537202539 0 0.00089115485493507598 -0.0016722152363673065 0 5.5468793299218455e-06 -0.00014041147531944264 0 -3.190715773075342e-06 -7.8180336121705163e-05 0 5.3624329905586438e-06 -6.1192452990733906e-05 0 -0.00093372226859945247 -0.0016045418464817295 0 -0.00087835807527905847 -0.0015189818929283168 0 -0.00087626640490125608 -0.0016386990987785981 0 -5.1424851633712028e-08 -0.0031836939057543001 0 -5.1634927144495198e-05 -0.0030830951022605842 0 3.0937030696446882e-05 -0.0030561315116646288 0 -2.7526495089897885e-05 -0.0029618674048253139 0 3.0937030696446889e-05 -0.0030561315116646288 0 -5.1634927144495198e-05 -0.0030830951022605842 0 -0.0008225248754454847 -0.0015406567400613512 0 -0.00087626640490125608 -0.0016386990987785981 0 -0.00087835807527905847 -0.0015189818929283168 0 0.00010895625241522928 -0.0030072704074356402 0 4.9669873134545928e-05 -0.0029184960062883869 0 0.00014104841404299405 -0.0028833755261022257 0 -0.00085839913395511374 -0.0017526623348515366 0 -0.0008089955122924054 -0.0016538471165237216 0 -0.00079773890465931966 -0.0017914702470834703 0 -1.7105692722447909e-05 -0.0001131786171007538 0 -1.2275735587600084e-05 -0.00017122852959324512 0 -3.7850735774747449e-05 -0.00019821600894576617 0 0.0004081003377720362 -0.0026593190678646356 0 0.00034481269470973354 -0.0025705423014858149 0 0.00040417829963311448 -0.0025024953422551066 0 -0.00068304780009409687 -0.0022030129457638321 0 -0.00063445956023482661 -0.0020932544350725055 0 -0.00059530331482094995 -0.0021876522045498285 0 0.0005611394689963745 -0.00088836140834563807 0 0.00054226982827657478 -0.00097638744709037124 0 0.00048270153759806078 -0.00086738606548547722 0 -0.00019550941148204379 -0.00038560274813815101 0 -0.00018522703223609416 -0.00045478051365074103 0 -0.00024131158170570587 -0.00052243460609249922 0 -0.0003140708187024297 -0.0012865035818199787 0 -0.0002355999853115077 -0.0013347264108276638 0 -0.00032059819048200946 -0.0014124652083760548 0 -0.00010756200835754745 -0.0022858548131040849 0 -6.9232831356874961e-05 -0.0023888715417928856 0 -0.00013751720770311109 -0.0024335036200254525 0 0.00047092038416094009 -0.0016817629915297156 0 0.00052682228604113482 -0.0016265056463899844 0 0.00055520624566544375 -0.0017434103127576472 0 -0.00045068858000921642 -0.0013291936872356584 0 -0.00051256203153316761 -0.0014027754561064334 0 -0.00052613660133903626 -0.0012966643667722034 0 7.371746848925077e-05 -0.00067972624722164937 0 4.2325589774448217e-05 -0.00058849557554107017 0 8.3840451334961128e-05 -0.00055319798416286249 0 0.00030751903803336565 -0.0031863262064922597 0 0.00028157665778996704 -0.0030356617376698183 0 0.00036040132986944062 -0.0030775987202285486 0 -0.00095858296667032043 -0.0020659891268011822 0 -0.00088211691459972956 -0.0020203740054939921 0 -0.0009051276825321761 -0.0021460842679008026 0 0.00086560838562202631 -0.0011656760125051721 0 0.00080385485761969488 -0.0011710058941372036 0 0.00079442105612289216 -0.0010633001987989028 0 -1.5294779100583589e-08 -1.0904421123140509e-07 0 -3.9874405524993215e-05 -9.3482741196623063e-05 0 -3.8618200055180824e-05 -6.9404112671439265e-05 0 0.00036184283911565692 -0.0029537823265434436 0 0.00036040132986944062 -0.0030775987202285486 0 0.00028157665778996704 -0.0030356617376698183 0 -0.00084125780592814159 -0.0021439203390303048 0 -0.0009051276825321761 -0.0021460842679008026 0 -0.00088211691459972956 -0.0020203740054939921 0 0.00073363191328660508 -0.0010290525379486747 0 0.00079442105612289227 -0.0010633001987989028 0 0.00080385485761969488 -0.0011710058941372036 0 -7.978806042799452e-05 -0.00015252293074458087 0 -3.8618200055180831e-05 -6.9404112671439278e-05 0 -3.9874405524993215e-05 -9.3482741196623063e-05 0 0.00083116992266066183 -0.0014243044744900778 0 0.00079666033968199697 -0.00150092418227518 0 0.00076002501737795249 -0.0013551135940714466 0 0.00072952014545953655 -0.0014521492300810929 0 0.00076002501737795249 -0.0013551135940714466 0 0.00079666033968199697 -0.00150092418227518 0 -1.6522100032026721e-05 -0.0017770590108374209 0 -9.1449680500996737e-05 -0.0019063708397297865 0 -0.00010052417777545583 -0.0017585502118572136 0 9.1543913177914648e-05 -0.0023187313657031332 0 0.00015532746177323098 -0.0024243983762192102 0 7.7346646250926282e-05 -0.0025034613693748738 0 -0.00048885483782400716 -0.0016582673322215044 0 -0.00055078157405252326 -0.0017720673353936794 0 -0.00059059804078748961 -0.0016526437699475652 0 0.00047108554901380858 -0.0013583091384014234 0 0.00051738582395526001 -0.0012659419942799427 0 0.00057396055849747547 -0.0014026949655275187 0 -6.2201589470704124e-05 -0.00065305461421101107 0 -9.5649638907636329e-05 -0.00056416494324937957 0 -4.3100827694029875e-05 -0.00049323891920643277 0 0.00014725319712218077 -0.0016185382854106249 0 0.00018997723868001743 -0.0015363362681684021 0 0.0002373035092685998 -0.0016641459581471798 0 0.00034490527605681722 -0.0027815926655434153 0 0.00029456122111400269 -0.00289607527436605 0 0.00025526086939498763 -0.0027707853228110548 0 -0.0007498853956821788 -0.0021071569053260015 0 -0.0008099164002716929 -0.0020333948411782989 0 -0.00074294385825868258 -0.00196242053584044 0 0.00065221024414186728 -0.0010160182364677293 0 0.00072659501837498124 -0.001121460770371278 0 0.00067760158346538875 -0.0011578873361947511 0 -0.0001277301219329016 -0.00028099721472471767 0 -7.7846107697751934e-05 -0.00019222374399346134 0 -9.4685645360556193e-05 -0.00028450251470939377 0 -1.6522100032026721e-05 -0.0017770590108374209 0 -0.00010052417777545583 -0.0017585502118572136 0 -4.0651532494586979e-05 -0.0016341743186992143 0 0.00083234534316563823 -0.0020795158093242804 0 0.00078702119379568333 -0.0021873307269385115 0 0.00075577414954439127 -0.0020863495303842911 0 7.5584603776131088e-05 -0.00016245405075897924 0 0.00012581347627059611 -0.0002299887378956448 0 0.00012020353794379223 -0.00027136652884652174 0 -0.00032223384449032761 -0.0029378926938383484 0 -0.00039190488708687395 -0.0028512468738896733 0 -0.00033163472841368953 -0.0027931478472865991 0 -0.00074157465074523238 -0.0010870693775215151 0 -0.00066803766353333311 -0.00095635033899354755 0 -0.00066287818881860105 -0.0010404158440515229 0 0.00022405654345947196 -0.0029075526021994078 0 0.00029456122111400269 -0.00289607527436605 0 0.00028157665778996704 -0.0030356617376698183 0 -0.00081429802795792089 -0.0019227945407203769 0 -0.0008099164002716929 -0.0020333948411782989 0 -0.00088211691459972956 -0.0020203740054939921 0 0.00075771861443987951 -0.0012338691779443997 0 0.00072659501837498124 -0.001121460770371278 0 0.00080385485761969488 -0.0011710058941372036 0 -5.6017914288510802e-05 -0.00018098953888665061 0 -7.7846107697751934e-05 -0.00019222374399346134 0 -3.9874405524993215e-05 -9.3482741196623063e-05 0 0.00036184283911565692 -0.0029537823265434436 0 0.00028157665778996704 -0.0030356617376698183 0 0.00029456122111400269 -0.00289607527436605 0 -0.00084125780592814159 -0.0021439203390303048 0 -0.00088211691459972956 -0.0020203740054939921 0 -0.0008099164002716929 -0.0020333948411782989 0 0.00073363191328660508 -0.0010290525379486747 0 0.00080385485761969488 -0.0011710058941372036 0 0.00072659501837498124 -0.001121460770371278 0 -7.978806042799452e-05 -0.00015252293074458087 0 -3.9874405524993215e-05 -9.3482741196623063e-05 0 -7.7846107697751934e-05 -0.00019222374399346134 0 0.0001386043694980344 -0.0025623975556809276 0 7.7346646250926282e-05 -0.0025034613693748738 0 0.00015532746177323101 -0.0024243983762192102 0 -0.00062648875116418871 -0.001757270154887119 0 -0.00059059804078748961 -0.0016526437699475652 0 -0.00055078157405252326 -0.0017720673353936794 0 0.00059534949431567716 -0.0013113589873449138 0 0.00057396055849747547 -0.0014026949655275187 0 0.00051738582395526001 -0.0012659419942799427 0 -7.2167035273447658e-05 -0.00044588598630123386 0 -4.3100827694029875e-05 -0.00049323891920643277 0 -9.5649638907636329e-05 -0.00056416494324937957 0 -0.00011575222929005153 -0.0020414828307071674 0 -6.7000327450526928e-05 -0.0021566067266655608 0 -0.00014931644237789173 -0.0021607167897784748 0 -0.00010756200835754745 -0.0022858548131040849 0 -0.00014931644237789173 -0.0021607167897784748 0 -6.7000327450526928e-05 -0.0021566067266655608 0 0.00033017847775850358 -0.0016769709179678821 0 0.00039095472617777936 -0.0015917964702605 0 0.00040146434091794961 -0.0017375288553051307 0 -0.0003140708187024297 -0.0012865035818199787 0 -0.00038451992867204898 -0.0013824929165110126 0 -0.00038150327924714678 -0.0012580983398492594 0 0.00047092038416094009 -0.0016817629915297156 0 0.00040146434091794961 -0.0017375288553051307 0 0.00039095472617777936 -0.0015917964702605 0 -0.00045068858000921642 -0.0013291936872356584 0 -0.00038150327924714678 -0.0012580983398492594 0 -0.00038451992867204898 -0.0013824929165110126 0 -7.3158452443528382e-05 -0.0012378016375153103 0 -6.1707617612635578e-05 -0.0010877375949514896 0 8.8779299263972386e-06 -0.0011511218742406408 0 -2.2939005203351099e-06 -0.0010300349917144545 0 8.8779299263972352e-06 -0.0011511218742406408 0 -6.1707617612635578e-05 -0.0010877375949514896 0 7.371746848925077e-05 -0.00067972624722164937 0 0.00011174919119144533 -0.0007990784438035957 0 4.4882459342846713e-05 -0.00079043905422464624 0 -2.5789586984976359e-05 -0.00079236412173220346 0 4.4882459342846713e-05 -0.00079043905422464624 0 2.4417498583313257e-05 -0.00090532719805996083 0 -7.3158452443528382e-05 -0.0012378016375153103 0 -0.00014558757212541998 -0.0012921827059842279 0 -0.00012922141545474426 -0.0011520526234525153 0 -0.00019607973430926079 -0.0011998863838707792 0 -0.00012922141545474426 -0.0011520526234525153 0 -0.00014558757212541998 -0.0012921827059842279 0 0.00083116992266066183 -0.0014243044744900778 0 0.00086846455510792219 -0.0015466738537202539 0 0.00079666033968199697 -0.00150092418227518 0 -1.7105692722447909e-05 -0.0001131786171007538 0 -3.190715773075342e-06 -7.8180336121705176e-05 0 -1.2275735587600082e-05 -0.00017122852959324512 0 0.00082871281658418276 -0.001623877692853008 0 0.00079666033968199697 -0.00150092418227518 0 0.00086846455510792219 -0.0015466738537202539 0 5.5468793299218455e-06 -0.00014041147531944264 0 -1.2275735587600082e-05 -0.00017122852959324512 0 -3.190715773075342e-06 -7.8180336121705176e-05 0 0.00010895625241522928 -0.0030072704074356402 0 3.0937030696446882e-05 -0.0030561315116646288 0 4.9669873134545928e-05 -0.0029184960062883869 0 -0.00085839913395511374 -0.0017526623348515366 0 -0.00087626640490125608 -0.0016386990987785981 0 -0.0008089955122924054 -0.0016538471165237216 0 -2.7526495089897885e-05 -0.0029618674048253139 0 4.9669873134545928e-05 -0.0029184960062883869 0 3.0937030696446882e-05 -0.0030561315116646288 0 -0.0008225248754454847 -0.0015406567400613512 0 -0.0008089955122924054 -0.0016538471165237216 0 -0.00087626640490125608 -0.0016386990987785981 0 0.00041073360095977878 -0.0021857805837151205 0 0.00042945472654702432 -0.0023456345548627864 0 0.00035875367359272274 -0.0022618290526947057 0 -0.00041308583361558497 -0.0021823242472044997 0 -0.00050556203190483303 -0.0022211202005781453 0 -0.00045784315454594721 -0.0020959275552061116 0 0.00032241035091800356 -0.00081906475238263513 0 0.0003927513844727408 -0.00080476506233551157 0 0.00037784572200806333 -0.0009117363704536529 0 -0.00031937064298858699 -0.0008155731046784302 0 -0.00029970365391833258 -0.00066725252609003808 0 -0.00026253888552097928 -0.00073352210920474552 0 -2.5789586984976359e-05 -0.00079236412173220346 0 1.0196382403817012e-05 -0.00067951376576094497 0 4.4882459342846713e-05 -0.00079043905422464624 0 -7.7176895380349246e-08 -0.0024318433878576847 0 -6.9232831356874961e-05 -0.0023888715417928856 0 -1.920369722382609e-05 -0.0022849750791188467 0 -0.00010756200835754745 -0.0022858548131040849 0 -1.920369722382609e-05 -0.0022849750791188467 0 -6.9232831356874961e-05 -0.0023888715417928856 0 0.00047092038416094009 -0.0016817629915297156 0 0.00046535784900813843 -0.0015287844714832128 0 0.00052682228604113482 -0.0016265056463899844 0 0.00054429782926248118 -0.0015198970808538168 0 0.00052682228604113482 -0.0016265056463899844 0 0.00046535784900813843 -0.0015287844714832128 0 -0.00054454436562809941 -0.0015198290760562478 0 -0.00051256203153316761 -0.0014027754561064334 0 -0.00046125229505369892 -0.0014740573449242727 0 -0.00045068858000921642 -0.0013291936872356584 0 -0.00046125229505369892 -0.0014740573449242727 0 -0.00051256203153316761 -0.0014027754561064334 0 7.371746848925077e-05 -0.00067972624722164937 0 1.0196382403817005e-05 -0.00067951376576094497 0 4.2325589774448217e-05 -0.00058849557554107017 0 -1.1927715791270387e-07 -0.00055328820562792873 0 4.2325589774448217e-05 -0.00058849557554107028 0 1.0196382403817005e-05 -0.00067951376576094497 0 0.0002834104944628924 -0.0014932467568742032 0 0.00024227536702892238 -0.0013577027332724184 0 0.00031360511643234229 -0.0013702419920427382 0 -7.7176895380349246e-08 -0.0024318433878576847 0 -7.0098187862979112e-05 -0.0025266360858300424 0 -6.9232831356874961e-05 -0.0023888715417928856 0 -0.00054454436562809941 -0.0015198290760562478 0 -0.00058790591191033002 -0.0014175485313660679 0 -0.00051256203153316761 -0.0014027754561064334 0 0.00054429782926248118 -0.0015198970808538168 0 0.00060271147201057746 -0.0016432325382500241 0 0.00052682228604113482 -0.0016265056463899844 0 -1.1927715791270387e-07 -0.00055328820562792873 0 3.8507531870061708e-05 -0.00047252695724349722 0 4.2325589774448217e-05 -0.00058849557554107017 0 7.371746848925077e-05 -0.00067972624722164937 0 4.4882459342846713e-05 -0.00079043905422464624 0 1.0196382403817005e-05 -0.00067951376576094497 0 0.00029590349772381114 -0.002151530019598431 0 0.00035875367359272274 -0.0022618290526947057 0 0.0002900654145958816 -0.002312215473448643 0 -0.00039619231393475397 -0.0019861008989604922 0 -0.00045784315454594721 -0.0020959275552061116 0 -0.00048930735615121954 -0.0019855498946310785 0 0.00033990417773163191 -0.0010047882568621457 0 0.00037784572200806333 -0.0009117363704536529 0 0.00042543867676226959 -0.0010310296230860968 0 -0.00023011351985449698 -0.0008264328773221535 0 -0.00026253888552097928 -0.00073352210920474552 0 -0.00020225654968200309 -0.00067622261356521185 0 0.00026298211689778462 -0.0012524489528068325 0 0.00031360511643234229 -0.0013702419920427382 0 0.00024227536702892238 -0.0013577027332724184 0 0.00095834391549639848 -0.0020657140992885997 0 0.00090492121433808379 -0.0021283640207307684 0 0.00090021451412307515 -0.0020181380942046277 0 1.2654903688953946e-08 -1.080648340274967e-07 0 3.7689068707051216e-05 -6.7666753283525562e-05 0 2.9964444484104118e-05 -6.9857801979287537e-05 0 -0.00030776155195788612 -0.0031864112499724374 0 -0.00034961075690275795 -0.0030778670639368877 0 -0.00027961651703408249 -0.0030723209037309082 0 -0.00086550344363806758 -0.0011666668893479772 0 -0.00079923344690427801 -0.0010797446947491689 0 -0.00082183309365009745 -0.0011819721708107951 0 0.0003428931520384383 -0.0024326792986413873 0 0.00040417829963311448 -0.0025024953422551066 0 0.00034481269470973354 -0.0025705423014858149 0 -0.00055720531086484359 -0.0020812251328760334 0 -0.00059530331482094995 -0.0021876522045498285 0 -0.00063445956023482661 -0.0020932544350725055 0 0.00047122462214741319 -0.00095937113301403857 0 0.00048270153759806078 -0.00086738606548547722 0 0.00054226982827657478 -0.00097638744709037124 0 -0.00021771256027491116 -0.00057468405074760566 0 -0.00024131158170570587 -0.00052243460609249922 0 -0.00018522703223609416 -0.00045478051365074103 0 -0.00011575222929005153 -0.0020414828307071674 0 -4.4756652862349695e-05 -0.0020337180360653832 0 -6.7000327450526928e-05 -0.0021566067266655608 0 -0.0003140708187024297 -0.0012865035818199787 0 -0.00032059819048200946 -0.0014124652083760548 0 -0.00038451992867204898 -0.0013824929165110126 0 -7.3158452443528382e-05 -0.0012378016375153103 0 -0.00012922141545474426 -0.0011520526234525153 0 -6.1707617612635578e-05 -0.0010877375949514896 0 -0.00028119597079655478 -0.0017090993072743285 0 -0.00019214196695832526 -0.0017348634076080976 0 -0.00026097578149923847 -0.0018391892557405164 0 0.00022405654345947196 -0.0029075526021994078 0 0.00025526086939498758 -0.0027707853228110548 0 0.00029456122111400269 -0.00289607527436605 0 -0.00081429802795792089 -0.0019227945407203769 0 -0.00074294385825868258 -0.00196242053584044 0 -0.0008099164002716929 -0.0020333948411782989 0 0.00075771861443987951 -0.0012338691779443997 0 0.00067760158346538875 -0.0011578873361947511 0 0.00072659501837498124 -0.001121460770371278 0 -5.6017914288510802e-05 -0.00018098953888665061 0 -9.4685645360556193e-05 -0.00028450251470939377 0 -7.7846107697751934e-05 -0.00019222374399346134 0 -0.00018984040947813284 -0.0018702473287023687 0 -0.00026097578149923847 -0.0018391892557405164 0 -0.00019214196695832526 -0.0017348634076080976 0 
</DataArray>
</PointData>
<CellData Scalars="" Vectors="" Tensors="stress,">
<DataArray type="Float64" Name="stress" NumberOfComponents="9" format="ascii">
8334115.9118211269 580448.69231694937 0 580448.69231694937 -101360757.24239278 0 0 0 -32559324.46570003 5677164.8223628998 -1565315.445721209 0 -1565315.445721209 -100734229.89780331 0 0 0 -33269972.776404023 2496229.2538062334 -105692.90216097236 0 -105692.90216097236 -101798404.00765204 0 0 0 -34755761.163846135 -11102559.079488635 1818067.810708493 0 1818067.810708493 -102357863.45489305 0 0 0 -39711147.887033582 7635679.7841242552 -693090.66865333915 0 -693090.66865333915 -101521153.36256599 0 0 0 -32859915.752454519 7353902.7229533195 -1077301.3410644233 0 -1077301.3410644233 -101745180.21540618 0 0 0 -33036947.122358561 527371.18438231945 399240.07366496325 0 399240.07366496325 -102711518.81866527 0 0 0 -35764451.671998978 691115.36748868227 1156070.3903129101 0 1156070.3903129101 -102368977.32894731 0 0 0 -35587251.686510503 6222118.5119560957 -570556.70847213268 0 -570556.70847213268 -100085348.0497005 0 0 0 -32852130.338210464 1920362.0312663317 1024194.6139191389 0 1024194.6139191389 -98236786.2727561 0 0 0 -33710748.484521389 299114.13468682766 1929754.5663598776 0 1929754.5663598776 -94675934.627656937 0 0 0 -33031887.172539473 -40946241.706030034 -14897902.101902608 0 -14897902.101902608 -99308941.247945592 0 0 0 -49089314.033891462 2758581.6688065529 -147173.36734098717 0 -147173.36734098717 -99754456.081237793 0 0 0 -33948556.044351101 379041.87402993458 144080.93643033504 0 144080.93643033504 -99705487.599293128 0 0 0 -34764256.003842294 3284034.5160184503 -4436102.2933967263 0 -4436102.2933967263 -96871466.32955271 0 0 0 -32755601.134736955 2791502.4988265038 158072.33361923695 0 158072.33361923695 -99748415.241928577 0 0 0 -33934919.46008563 -55880727.305280209 32790224.549226224 0 32790224.549226224 -103815034.30216846 0 0 0 -55893516.56260702 390334.13572621346 -163604.35609042645 0 -163604.35609042645 -99653260.666908264 0 0 0 -34742024.285913467 3357550.7299432755 4568424.05392012 0 4568424.05392012 -96557309.803894341 0 0 0 -32619915.675882846 -56138940.222563908 -32836075.399020892 0 -32836075.399020892 -104294770.09302756 0 0 0 -56151798.610457018 -624804.93197804689 1729799.3323912024 0 1729799.3323912024 -96851223.021600962 0 0 0 -34116609.78375262 -36093102.17821721 -20178042.388245374 0 -20178042.388245374 -89283220.939062566 0 0 0 -43881713.09104792 4896732.2660948038 -248714.20871984959 0 -248714.20871984959 -100067369.3684783 0 0 0 -33309722.985834241 432012.36106491089 330376.5958301425 0 330376.5958301425 -99490438.218864918 0 0 0 -34670449.050230026 461174.78085160255 -336829.59201917052 0 -336829.59201917052 -99501166.661842346 0 0 0 -34663997.158346772 -36762076.090663008 20020119.438410629 0 20020119.438410629 -89773116.646828607 0 0 0 -44287317.45812206 5016373.8867721558 285672.97368103266 0 285672.97368103266 -99982027.636026382 0 0 0 -33237978.812238932 -453686.93307572603 -1779915.6674920395 0 -1779915.6674920395 -97202495.07484144 0 0 0 -34179663.702771008 8966863.0225459337 -141672.2720220387 0 -141672.2720220387 -100711065.14840746 0 0 0 -32110470.744051576 3810683.5270242691 1961849.3889966309 0 1961849.3889966309 -99773533.000936985 0 0 0 -33586997.315869451 3547349.6663073301 -1448326.2884816229 0 -1448326.2884816229 -100339771.07688117 0 0 0 -33877347.493700862 -17299185.501342028 -193351.38714180142 0 -193351.38714180142 -97394173.536371768 0 0 0 -40142675.663199812 5542571.4291539192 -146119.70666502693 0 -146119.70666502693 -99970568.025613785 0 0 0 -33049798.80876112 771059.7190246922 329297.85374456644 0 329297.85374456644 -98611684.686129466 0 0 0 -34244218.738486491 668649.26763978775 1240646.7468009591 0 1240646.7468009591 -87715797.266508639 0 0 0 -30466501.799604088 -52427961.860382423 -18346205.675413195 0 -18346205.675413195 -97382770.895709559 0 0 0 -52433756.464632191 746931.19945015351 -372093.46966230869 0 -372093.46966230869 -98662663.035103992 0 0 0 -34270506.142478809 -52274886.459819824 18264403.030283131 0 18264403.030283131 -97096379.404703513 0 0 0 -52279943.052583165 5532281.1105306149 151241.99416894346 0 151241.99416894346 -100144457.32931995 0 0 0 -33114261.676576138 761667.43611115217 -1459273.8164065182 0 -1459273.8164065182 -87577828.338462234 0 0 0 -30385656.315822899 608913.94035351276 -404157.55735646188 0 -404157.55735646188 -98889324.577043533 0 0 0 -34398143.722841382 -34265184.505209662 16573858.297971256 0 16573858.297971256 -86913028.568345487 0 0 0 -42412374.575744301 6590831.5277835131 325024.21589446068 0 325024.21589446068 -99835344.613808393 0 0 0 -32635579.580108762 -1070496.8271417022 595125.88615784794 0 595125.88615784794 -95096844.698838353 0 0 0 -33658569.534093022 3893927.6632227898 -965893.58025747538 0 -965893.58025747538 -99207260.611466885 0 0 0 -33359666.531885624 4382684.8825531006 773951.63800764084 0 773951.63800764084 -99680107.643162251 0 0 0 -33354097.966212988 8594982.2925012112 602431.0866844207 0 602431.0866844207 -100882131.85443211 0 0 0 -32300502.346675634 5277680.100132823 -1923028.6103948951 0 -1923028.6103948951 -100804321.8086091 0 0 0 -33434324.597966671 3207378.8869893849 350565.00929278135 0 350565.00929278135 -101602752.65536052 0 0 0 -34438380.818929881 -9337384.8316621184 2197273.3758687023 0 2197273.3758687023 -99253860.042883873 0 0 0 -38006935.706091166 2681026.0767555237 -168116.22054541111 0 -168116.22054541111 -100265962.10299826 0 0 0 -34154727.60918498 624547.40654349327 245257.91358721256 0 245257.91358721256 -100011131.99120092 0 0 0 -34785304.604629993 -6923684.1801802218 -8693307.4165827222 0 -8693307.4165827222 -110253908.57172018 0 0 0 -41012157.463165164 2737830.750526607 170802.18758714199 0 170802.18758714199 -100316318.15171301 0 0 0 -34152470.590415299 -34742344.746279374 26001902.168377232 0 26001902.168377232 -95431484.10179989 0 0 0 -45560840.096827753 617483.41122436523 -265977.24961777031 0 -265977.24961777031 -99963057.993151665 0 0 0 -34770951.10367465 -6219209.0533494055 8895079.1330102533 0 8895079.1330102533 -110137801.31212866 0 0 0 -40724953.62791732 -35053216.037903167 -26072022.862523235 0 -26072022.862523235 -95039389.36039795 0 0 0 -45532411.889405385 -3757616.7540495992 -5663897.0297201425 0 -5663897.0297201425 -101008270.20911099 0 0 0 -36668060.437106252 -30052160.445836216 13579024.543414246 0 13579024.543414246 -102329336.17363262 0 0 0 -46333523.816814095 3601223.1385358572 -1371400.9671400785 0 -1371400.9671400785 -98390968.585300207 0 0 0 -33176410.90636766 6117741.4415398836 853468.766610533 0 853468.766610533 -99780424.513753176 0 0 0 -32781939.075274587 6743916.5364316702 -655672.90603637695 0 -655672.90603637695 -100128837.869488 0 0 0 -32684722.466569543 1417107.9426903725 1157971.9719657898 0 1157971.9719657898 -99079888.648983479 0 0 0 -34181973.247202635 137519.38013482094 1291784.0104828477 0 1291784.0104828477 -98352908.029996514 0 0 0 -34375386.027451634 -27049452.205713324 -12872255.753278792 0 -12872255.753278792 -91036040.769604236 0 0 0 -41329922.541361146 -36258994.811014712 7310666.1371568497 0 7310666.1371568497 -95146234.537567973 0 0 0 -45991830.272003949 2134033.440094471 -1572148.4250981212 0 -1572148.4250981212 -97201998.740122557 0 0 0 -33273787.855009794 1260728.6382167935 554740.93294247985 0 554740.93294247985 -95048978.79975152 0 0 0 -32825887.556537211 8311745.4296907187 454906.75114738941 0 454906.75114738941 -100339313.77365279 0 0 0 -32209648.920386672 8987697.9398832321 -127026.3421036005 0 -127026.3421036005 -100628874.99112511 0 0 0 -32074411.967934847 4003033.9498333931 1748101.9783272743 0 1748101.9783272743 -98624151.275895596 0 0 0 -33117391.064121723 3450850.2219665051 -1703505.2977259159 0 -1703505.2977259159 -98698256.425505877 0 0 0 -33336592.17123878 -23881456.336487651 -1449533.4635768384 0 -1449533.4635768384 -98695331.141265929 0 0 0 -42901875.617213756 3235871.4186587334 -739338.2993388176 0 -739338.2993388176 -100061028.86540079 0 0 0 -33888805.10635972 3606420.8405883312 823025.18040335178 0 823025.18040335178 -99936934.536989689 0 0 0 -33715679.793740392 -8378776.9338977039 15359397.200096533 0 15359397.200096533 -101210213.43032712 0 0 0 -38356146.627478689 -9252512.5077899098 -15738423.203184977 0 -15738423.203184977 -99828726.637070656 0 0 0 -38178433.700701177 -5065124.5618907809 -7988655.3363637812 0 -7988655.3363637812 -105116669.73270595 0 0 0 -38563628.003108859 -19031185.46337058 14772398.254287839 0 14772398.254287839 -96065084.977429554 0 0 0 -40283694.654280022 -13278563.741138518 12905017.066539004 0 12905017.066539004 -105582756.44183588 0 0 0 -41601462.064041018 -21500100.373438358 -16071711.673650295 0 -16071711.673650295 -104744660.74836043 0 0 0 -44185666.392629534 7549049.3421725035 1069496.067332983 0 1069496.067332983 -100939764.5094943 0 0 0 -32686750.308562636 6186664.9764840603 -1790547.0694925785 0 -1790547.0694925785 -99876152.714672327 0 0 0 -32791320.708365679 -1579357.1822416782 -2300460.5257124305 0 -2300460.5257124305 -102656094.41100848 0 0 0 -36482408.057637572 -10895060.404426157 4306704.7072184086 0 4306704.7072184086 -101704513.56425351 0 0 0 -39409850.889037907 6453037.0538834333 537057.3327858448 0 537057.3327858448 -100044796.04675889 0 0 0 -32757115.647506356 429430.89148086309 -1800844.3895292729 0 -1800844.3895292729 -94666254.286951423 0 0 0 -32982888.188414693 2116317.9166833162 -1075972.9357962012 0 -1075972.9357962012 -98159202.18786335 0 0 0 -33615009.494912982 -40132541.316027343 14354624.932793163 0 14354624.932793163 -98492749.836396307 0 0 0 -48518851.903348282 5106796.3039294183 890954.5518784523 0 890954.5518784523 -100300778.73783582 0 0 0 -33317893.851867348 2942420.3435912132 -1037043.495568037 0 -1037043.495568037 -99404839.479903698 0 0 0 -33761846.69770956 8107407.2604752183 968115.46673679352 0 968115.46673679352 -100582921.65923154 0 0 0 -32366430.039564788 5737351.8718545437 -1790447.4936720133 0 -1790447.4936720133 -100784535.64893579 0 0 0 -33266514.321978331 -13915.658840298653 -802456.99504837394 0 -802456.99504837394 -101790710.73325837 0 0 0 -35631619.237234592 -10378816.576346546 4175678.7747110426 0 4175678.7747110426 -101347404.7339859 0 0 0 -39104177.458616406 7014813.0269349813 -485406.42666938901 0 -485406.42666938901 -102298716.76452303 0 0 0 -33349366.308155775 985910.84232032299 -645421.37933580577 0 -645421.37933580577 -95548406.062787771 0 0 0 -33096873.327163696 -38864624.928357303 5879312.3724451344 0 5879312.3724451344 -87820744.825088724 0 0 0 -44339879.413706109 9229612.1805025339 146146.41266620159 0 146146.41266620159 -99919122.802669913 0 0 0 -31741328.717758536 85488.294009566307 1259746.491534315 0 1259746.491534315 -93586955.391179085 0 0 0 -32725513.484009266 9326462.7068185806 117055.04922962189 0 117055.04922962189 -100022771.97157097 0 0 0 -31743708.242663145 1231311.3956252337 1807769.2863794565 0 1807769.2863794565 -95116560.484577894 0 0 0 -32859837.18113333 1978468.2050655484 -1284820.7101813555 0 -1284820.7101813555 -95541024.689195514 0 0 0 -32746894.769445419 -36455448.4061777 3303013.659304684 0 3303013.659304684 -92034130.049312726 0 0 0 -44971352.45942165 6442387.9232483618 -296030.51558548212 0 -296030.51558548212 -102284600.95724924 0 0 0 -33544774.561900306 568046.01431112655 -373090.75357967615 0 -373090.75357967615 -97924325.999142274 0 0 0 -34074697.994691081 -50947361.201906592 14255218.806997105 0 14255218.806997105 -94624405.51244995 0 0 0 -50950118.350024782 6800465.6165895462 214452.90195392325 0 214452.90195392325 -100153020.8141098 0 0 0 -32673394.319132328 825988.02019296004 84477.741284906864 0 84477.741284906864 -86870849.349534079 0 0 0 -30115701.465269409 2698360.6586081982 -2069575.3524815738 0 -2069575.3524815738 -98740219.095875978 0 0 0 -33614650.45304358 8988471.834449172 372022.04333400726 0 372022.04333400726 -100192267.31203318 0 0 0 -31921328.417154431 -23563842.781735048 3232459.3343109936 0 3232459.3343109936 -92716363.50785695 0 0 0 -40698072.201357193 2450136.3475226164 1344381.1965350509 0 1344381.1965350509 -98680210.305777788 0 0 0 -33680525.885389328 3248891.8068161905 -1962897.8812294006 0 -1962897.8812294006 -97342243.928618848 0 0 0 -32932673.242631108 -31860605.768379539 4554075.7066907361 0 4554075.7066907361 -97570648.052832484 0 0 0 -45300938.837424189 8652476.0374264717 450415.97987772524 0 450415.97987772524 -100446181.2419672 0 0 0 -32127796.821589231 1831329.6366274357 908730.04557561874 0 908730.04557561874 -96911926.632364392 0 0 0 -33278208.948507905 5917623.0088306665 -1618402.1520132869 0 -1618402.1520132869 -101481211.72411466 0 0 0 -33447256.050349355 8312765.1459159255 739632.53413152695 0 739632.53413152695 -100847612.14395607 0 0 0 -32387196.449313939 -5999008.5895882696 2272676.8856409788 0 2272676.8856409788 -101182332.59494501 0 0 0 -37513469.414586648 1274641.4181711674 222527.17290539853 0 222527.17290539853 -102454416.1347158 0 0 0 -35412921.150790572 8611010.3052821159 -362236.59857327491 0 -362236.59857327491 -100995786.33402848 0 0 0 -32334671.610061288 5377947.7596440911 1513381.966874361 0 1513381.966874361 -101635523.94526014 0 0 0 -33690151.664965689 3816401.2193725184 -833294.42129981518 0 -833294.42129981518 -101882227.24712299 0 0 0 -34323039.109712593 -5755896.9232352376 -1251859.8829179574 0 -1251859.8829179574 -99572661.305072546 0 0 0 -36864995.379907727 1645153.1976562142 2436052.3124673488 0 2436052.3124673488 -95075105.501426339 0 0 0 -32700483.306319535 -39951483.800560042 -20973193.556377172 0 -20973193.556377172 -99348363.975504369 0 0 0 -48754946.721622527 5268902.1765629649 -464462.67091560364 0 -464462.67091560364 -99582497.215346098 0 0 0 -33009758.263574183 1903091.4613535404 605793.97219061852 0 605793.97219061852 -98576790.264808178 0 0 0 -33835794.581209183 1747232.9504197836 -566193.64202356339 0 -566193.64202356339 -98668841.382807016 0 0 0 -33922562.951335669 -39018752.314005464 21697971.343620978 0 21697971.343620978 -98447561.734031379 0 0 0 -48113209.916812882 5428870.3113260269 463755.23320108652 0 463755.23320108652 -99489304.332213402 0 0 0 -32921151.907310247 1786922.0826507807 -2448268.1668530405 0 -2448268.1668530405 -95472182.515201092 0 0 0 -32789841.151392579 8372366.4625324011 -534712.89574307576 0 -534712.89574307576 -101388988.71939564 0 0 0 -32555817.789902091 5585202.7927712426 1580393.009909749 0 1580393.009909749 -100732796.35115908 0 0 0 -33301657.745435812 2542352.4126179963 -37929.033421844244 0 -37929.033421844244 -101684217.44819239 0 0 0 -34699652.762450978 -10724007.833284855 -1515984.6529610213 0 -1515984.6529610213 -101760926.64312756 0 0 0 -39369727.066744328 4995574.0427010059 -1667027.2151925266 0 -1667027.2151925266 -99540318.113905668 0 0 0 -33090660.424921393 7316802.6553092599 1135363.489107132 0 1135363.489107132 -100054561.05766726 0 0 0 -32458215.440825284 -17058171.554011784 8465274.9943856597 0 8465274.9943856597 -101522259.14175044 0 0 0 -41503150.743516736 -3497854.7771154642 -3230519.8502290994 0 -3230519.8502290994 -102111757.05613303 0 0 0 -36963364.141636968 4056097.7300394773 -1825579.8222038746 0 -1825579.8222038746 -99702442.42170167 0 0 0 -33476220.642081618 -15318310.288136721 8445628.8216207325 0 8445628.8216207325 -97156166.058686495 0 0 0 -39366066.721388102 6998350.352905035 989550.91492044926 0 989550.91492044926 -100339516.89204192 0 0 0 -32669408.288698196 874415.75994178653 -2657759.6260042787 0 -2657759.6260042787 -101144312.71734101 0 0 0 -35094463.935089767 6796694.9912883043 -1398658.1728093326 0 -1398658.1728093326 -101118439.74166441 0 0 0 -33012610.662631631 7745984.8784710169 976081.77813595533 0 976081.77813595533 -101166728.39660764 0 0 0 -32697260.231347919 -6050981.3606150746 2411529.4387656301 0 2411529.4387656301 -102889929.17854375 0 0 0 -38129318.688705564 -1245592.9157469273 -1466537.0458723903 0 -1466537.0458723903 -102584847.01270115 0 0 0 -36340653.97495681 8089182.1546919085 -789646.45484304428 0 -789646.45484304428 -100047694.29315744 0 0 0 -32185479.248462822 7439860.7152742147 -927604.7964823842 0 -927604.7964823842 -100397092.16284943 0 0 0 -32535031.006651402 3839055.6503705978 1907387.5816302481 0 1907387.5816302481 -98912476.637271404 0 0 0 -33275697.345415354 3653214.0289663076 1696332.7115924358 0 1696332.7115924358 -99256938.9807446 0 0 0 -33461303.733122468 869665.53118681908 342638.165377461 0 342638.165377461 -99409964.919175863 0 0 0 -34489104.785796046 -175700.97830337286 1775874.1846034527 0 1775874.1846034527 -101355925.70708454 0 0 0 -35536069.339885771 -22679048.934880581 -7314824.01158081 0 -7314824.01158081 -98184191.027578071 0 0 0 -42302133.986860573 -19094048.54887253 -8777207.6680368334 0 -8777207.6680368334 -96251298.904122591 0 0 0 -40370871.608548284 7661965.4164441824 180785.76696294546 0 180785.76696294546 -102247053.65190017 0 0 0 -33104780.882409573 1015358.4167209864 548756.25773052871 0 548756.25773052871 -102495822.24605799 0 0 0 -35518162.340267897 9200585.2936739922 154781.72406005859 0 154781.72406005859 -100206210.93699646 0 0 0 -31851968.975162983 2035302.9112737477 1247963.2952126265 0 1247963.2952126265 -96370752.779003739 0 0 0 -33017407.453705639 1723980.9749749601 -1964191.6975665092 0 -1964191.6975665092 -97277187.673819542 0 0 0 -33443622.344595581 -30817242.174798921 1038463.9941224679 0 1038463.9941224679 -92041723.0735147 0 0 0 -43000637.836909756 7490038.7069327831 -166852.8831808418 0 -166852.8831808418 -101854037.51033759 0 0 0 -33027399.581191778 7729073.4218397141 -321391.88738911971 0 -321391.88738911971 -102164996.32054949 0 0 0 -33052573.01454854 -27464169.538488597 8961580.1431905255 0 8961580.1431905255 -92975317.067879438 0 0 0 -42153820.312228799 2399567.014731884 -1446620.1468481794 0 -1446620.1468481794 -98296107.390202522 0 0 0 -33563789.131414652 8392510.185680747 533058.19193172455 0 533058.19193172455 -99896867.553728402 0 0 0 -32026525.078816772 2072288.6149258614 752039.97017953545 0 752039.97017953545 -97158079.902650118 0 0 0 -33280026.950703382 4992139.4101657867 -1328207.1148833036 0 -1328207.1148833036 -99212066.60567379 0 0 0 -32976974.51842761 5021714.9230966568 1175971.6972728372 0 1175971.6972728372 -99873404.185302496 0 0 0 -33198091.241772056 -13839733.150963664 10176867.182442419 0 10176867.182442419 -102115735.86593568 0 0 0 -40584414.155914724 -11399678.521026522 -10289572.405509114 0 -10289572.405509114 -104563388.9417274 0 0 0 -40587073.611963868 4088819.745890379 -1949684.0496461093 0 -1949684.0496461093 -99839319.537318468 0 0 0 -33512674.926999807 8132694.0317871571 828879.13271212578 0 828879.13271212578 -100295100.7048986 0 0 0 -32256842.33558917 -15517332.719600022 6389543.2461164892 0 6389543.2461164892 -95815313.00107187 0 0 0 -38966426.002235174 2100946.6415596604 -546378.34027481079 0 -546378.34027481079 -100643088.63454342 0 0 0 -34489749.697544217 6758255.03845191 -1020667.3274048567 0 -1020667.3274048567 -102085568.85078362 0 0 0 -33364559.834316134 6265660.1895847321 -676584.2259978056 0 -676584.2259978056 -99565185.613553524 0 0 0 -32654833.898388863 2235447.2393584251 1030309.9040313959 0 1030309.9040313959 -98757406.286856174 0 0 0 -33782685.666624308 4929759.2357144356 -590520.84519833326 0 -590520.84519833326 -100266749.71949148 0 0 0 -33367946.669322252 1865420.2359544039 830994.49270188808 0 830994.49270188808 -99511385.355389357 0 0 0 -34176087.791802049 5861002.0334062576 -1235221.442598538 0 -1235221.442598538 -99633256.121953011 0 0 0 -32820288.93099165 4677975.5164070129 -1161714.4666517824 0 -1161714.4666517824 -100137616.59043264 0 0 0 -33410874.375908852 4495082.7433302142 1385251.9372047186 0 1385251.9372047186 -100100942.36480105 0 0 0 -33462050.867514756 4980986.4888586402 1277706.0910488367 0 1277706.0910488367 -99290595.199493706 0 0 0 -33008363.048722327 -3889842.9700841941 6671810.2186865807 0 6671810.2186865807 -100402549.54606462 0 0 0 -36502337.38065207 -10432631.575651333 9942096.0877055079 0 9942096.0877055079 -104264806.43155551 0 0 0 -40144103.302522346 -11191601.761836499 -10221390.342628792 0 -10221390.342628792 -100972143.12295216 0 0 0 -39257310.709676057 -12740945.532001734 -10210520.33441722 0 -10210520.33441722 -101538980.02119219 0 0 0 -39997973.943617821 1745029.7535605431 -148822.56337511539 0 -148822.56337511539 -100223110.05096006 0 0 0 -34467328.104089975 -18183022.285022676 23602071.955394737 0 23602071.955394737 -128879317.10519063 0 0 0 -51471818.786574632 -21329661.769590594 26242298.173298128 0 26242298.173298128 -105750693.79034938 0 0 0 -44478124.445978992 1585905.9274232388 195242.4996265173 0 195242.4996265173 -99815505.714221478 0 0 0 -34380359.925379515 1616600.0462915897 -184154.54065541923 0 -184154.54065541923 -99786566.697341919 0 0 0 -34359488.327867746 -21423053.506167009 -26187790.62616396 0 -26187790.62616396 -105616541.00064506 0 0 0 -44463858.077384211 -16814823.493114337 -23107244.305060457 0 -23107244.305060457 -128276866.82666773 0 0 0 -50782091.611923724 1733597.5524071753 134613.88766407967 0 134613.88766407967 -100287321.92622742 0 0 0 -34493803.530837148 2096098.7446722984 -1454002.9984019399 0 -1454002.9984019399 -97582982.366128445 0 0 0 -33420409.267509699 8979073.1645799875 354966.11082547903 0 354966.11082547903 -99926890.986531258 0 0 0 -31831736.2376827 -29322363.27447328 6030040.351980038 0 6030040.351980038 -90586669.408154845 0 0 0 -41968161.43891985 1640669.6670065522 1511130.8650751114 0 1511130.8650751114 -96603547.314611077 0 0 0 -33237007.17666167 7606320.9733039737 -1040762.8283193111 0 -1040762.8283193111 -101124589.46185243 0 0 0 -32731393.970992029 6893814.4324326515 1315535.5612084419 0 1315535.5612084419 -101437407.8504281 0 0 0 -33090257.696298361 -1446954.5667825937 893544.02532059699 0 893544.02532059699 -102671295.72786355 0 0 0 -36441387.603126168 -3370303.5513720959 -2052911.4728443623 0 -2052911.4728443623 -102239597.61525212 0 0 0 -36963465.408318505 381041.5298518854 -625775.85134661198 0 -625775.85134661198 -94649171.913074046 0 0 0 -32993845.634127647 -49365072.981413305 3998161.0712666926 0 3998161.0712666926 -91689460.333780527 0 0 0 -49369086.660317831 9325658.68064785 122295.71910911229 0 122295.71910911229 -100096397.0970149 0 0 0 -31769758.445728302 1033103.1130864011 661317.82767510414 0 661317.82767510414 -89740584.861934796 0 0 0 -31047618.612096965 1607404.9078489691 15375583.842146292 0 15375583.842146292 -107460071.06825812 0 0 0 -37048433.156143174 -40391289.522567093 -35141299.547141194 0 -35141299.547141194 -113733141.18869185 0 0 0 -53943550.748940662 -40042173.828994825 35048551.464122631 0 35048551.464122631 -113907587.12220667 0 0 0 -53882416.332920521 754677.81767892838 -99014.812636762857 0 -99014.812636762857 -99910112.711137772 0 0 0 -34704402.212710619 1953646.1532919407 -139011.85995590687 0 -139011.85995590687 -99633814.251183987 0 0 0 -34188058.834262133 751781.098726511 87532.632093191147 0 87532.632093191147 -99888861.898917675 0 0 0 -34697978.280066967 1446715.1479606926 -15209523.935107468 0 -15209523.935107468 -107952456.97474846 0 0 0 -37277009.639375716 1937194.7545579374 135272.60506975651 0 135272.60506975651 -99654490.820355773 0 0 0 -34201053.623029381 9143259.2725864649 -118956.75020253658 0 -118956.75020253658 -100140013.21891826 0 0 0 -31848863.881216407 212656.32454895973 860233.22577114776 0 860233.22577114776 -96461938.072551966 0 0 0 -33687248.611801028 847747.90433716774 -481575.63142112643 0 -481575.63142112643 -93134715.821833372 0 0 0 -32300438.771123648 -38341879.897423133 -3779099.637515679 0 -3779099.637515679 -87926061.347346708 0 0 0 -44193779.43566943 -16197511.741917908 15021700.375293398 0 15021700.375293398 -101776350.77046889 0 0 0 -41290851.879335344 -5148252.6956019923 -9018137.1569679677 0 -9018137.1569679677 -100658616.06212087 0 0 0 -37032404.065202974 6977772.4331926927 -1032147.6378424168 0 -1032147.6378424168 -99769924.688611567 0 0 0 -32477253.289396442 4517287.0646896362 1563222.4830072951 0 1563222.4830072951 -98935123.697758198 0 0 0 -33046242.821573973 -2514769.4908983707 3749838.9558732733 0 3749838.9558732733 -101115984.66922426 0 0 0 -36270763.956042886 -21970515.005307741 -10506453.21788758 0 -10506453.21788758 -102068953.18625569 0 0 0 -43413813.867047228 9124477.7172322273 -57931.651137284935 0 -57931.651137284935 -100445369.03664684 0 0 0 -31962311.96179533 3138763.6120013297 2080448.5549656153 0 2080448.5549656153 -97216156.984532744 0 0 0 -32927087.680386037 3135401.6524378359 -1629022.3182547688 0 -1629022.3182547688 -97156568.455472231 0 0 0 -32907408.381062001 -29900042.755458772 235707.48613778129 0 235707.48613778129 -96909562.553441823 0 0 0 -44383361.858115196 743552.64485375583 -736374.34384676814 0 -736374.34384676814 -98083317.467215449 0 0 0 -34068917.687826589 7157023.5925517082 682983.76956093311 0 682983.76956093311 -99990865.641302109 0 0 0 -32491844.717062473 -28431330.103275761 12942706.187788699 0 12942706.187788699 -91863019.704017967 0 0 0 -42103022.4325528 1755654.083602339 -1173311.952064693 0 -1173311.952064693 -98713728.850021183 0 0 0 -33935326.168246716 5383201.4286040664 -1800659.0163819194 0 -1800659.0163819194 -99873623.664644122 0 0 0 -33071647.782613814 7049430.2635781765 1207481.1712290049 0 1207481.1712290049 -100711790.23010874 0 0 0 -32781825.98828578 -10845689.591633171 6319676.0317744464 0 6319676.0317744464 -99220910.545479596 0 0 0 -38523310.047989458 -856199.97441956401 -3204844.8647397757 0 -3204844.8647397757 -101773429.02758563 0 0 0 -35920370.150701851 3558578.7439854741 -1039320.5774893761 0 -1039320.5774893761 -99776067.239318967 0 0 0 -33676120.973366678 5263269.1288471222 1000215.5624530166 0 1000215.5624530166 -99605147.994488239 0 0 0 -33019657.602974176 5446254.0620524883 -1227086.297935605 0 -1227086.297935605 -101955373.97601521 0 0 0 -33778191.969887018 4836835.9703158997 -817006.7293382287 0 -817006.7293382287 -101761399.61671638 0 0 0 -33923597.27624014 5903907.5556588173 -1663589.6668803692 0 -1663589.6668803692 -99886811.258196831 0 0 0 -32894016.295888186 7336035.9959827065 1246260.0276430845 0 1246260.0276430845 -100114406.88231099 0 0 0 -32472429.810214698 -12587746.779436499 6055500.4475991726 0 6055500.4475991726 -102736588.8117829 0 0 0 -40363517.456926852 -4378461.8460729122 -3311036.6524161547 0 -3311036.6524161547 -102947913.72408271 0 0 0 -37564231.449554443 3147984.2002570331 -253665.99219715595 0 -253665.99219715595 -99446928.86288017 0 0 0 -33704630.631917983 1871920.2549004555 330127.46845850348 0 330127.46845850348 -99347576.576179028 0 0 0 -34116479.712447643 -6716078.9594773352 13292438.418774564 0 13292438.418774564 -103845658.25343341 0 0 0 -38696608.024518728 1890067.7285000086 -354649.52373880148 0 -354649.52373880148 -99334561.823348522 0 0 0 -34105572.933196902 -38036760.979636684 29722734.374442182 0 29722734.374442182 -113794892.82330737 0 0 0 -53141078.831030428 -38416824.350535512 -28881976.904754557 0 -28881976.904754557 -114213183.6820049 0 0 0 -53420502.811389148 3220505.5552895069 272230.29930078983 0 272230.29930078983 -99465214.928166866 0 0 0 -33685648.280506849 -6435857.5195108354 -13355870.999815427 0 -13355870.999815427 -104247540.72786915 0 0 0 -38739189.386582971 245026.37242545933 -49402.117077142 0 -49402.117077142 -102833163.54493994 0 0 0 -35905848.010380007 -1030585.9441295862 -175085.9955278337 0 -175085.9955278337 -102681146.47389793 0 0 0 -36299106.346309543 6290330.1637884676 -1071432.9554270506 0 -1071432.9554270506 -101563144.60894138 0 0 0 -33345485.055803388 9046740.3666629195 133292.11180996895 0 133292.11180996895 -100635747.40245605 0 0 0 -32056152.462527692 3682615.5515488386 1520002.379815774 0 1520002.379815774 -100108681.66925883 0 0 0 -33749123.141198635 3991856.7387173176 -1861380.0329607762 0 -1861380.0329607762 -99603297.252725601 0 0 0 -33464004.17990303 -17729125.744937964 548332.90242770314 0 548332.90242770314 -97537864.676758096 0 0 0 -40343446.647593595 6583627.7174124718 -921367.9778072834 0 -921367.9778072834 -100359106.62773085 0 0 0 -32821417.618611574 2896980.1288568377 1593763.0259703398 0 1593763.0259703398 -99464456.789221883 0 0 0 -33798616.831127703 -554046.8778411746 2832407.1343007386 0 2832407.1343007386 -101036650.09099692 0 0 0 -35556743.939093351 -18103934.292491347 -10482363.884109631 0 -10482363.884109631 -93904128.863791883 0 0 0 -39202822.104699135 6306029.7683339119 -1779821.2518353462 0 -1779821.2518353462 -100607905.15788269 0 0 0 -33005656.386341989 7803848.4367061853 1018086.9036229551 0 1018086.9036229551 -101257986.9869287 0 0 0 -32708948.49257803 -6016322.9236670732 2095395.4512768388 0 2095395.4512768388 -101114825.56283927 0 0 0 -37495901.97027719 1349278.3575652242 -1113225.4111653864 0 -1113225.4111653864 -102069870.31783688 0 0 0 -35252207.186095059 3278593.9125721455 -1438997.9555144906 0 -1438997.9555144906 -99886474.846334219 0 0 0 -33812758.326816797 -15389681.598207623 11794277.334984168 0 11794277.334984168 -96547587.090492517 0 0 0 -39178044.04104504 6119564.4758101702 1016167.3042902946 0 1016167.3042902946 -100242556.81652403 0 0 0 -32943047.319249988 -1109628.8012421131 -4815824.2550441474 0 -4815824.2550441474 -101355654.14753675 0 0 0 -35862849.032072604 6868647.9888803959 -607007.17000991106 0 -607007.17000991106 -101875508.55112743 0 0 0 -33252401.196786642 5945937.4919663668 587634.14138585329 0 587634.14138585329 -102270703.65385008 0 0 0 -33713668.156659484 5314655.9585951567 215899.61006787419 0 215899.61006787419 -102671486.78695488 0 0 0 -34074890.789925933 7849906.6354004145 655142.58193382621 0 655142.58193382621 -101694357.04295206 0 0 0 -32845557.642643332 7647141.7341532707 563626.25554336607 0 563626.25554336607 -101703526.13750577 0 0 0 -32919734.541173458 -3920430.2787473202 6029399.6937530935 0 6029399.6937530935 -102175778.84485149 0 0 0 -37133673.193259537 -30413178.535554081 -14499034.540648974 0 -14499034.540648974 -102091165.23355779 0 0 0 -46376520.319189116 4586912.8235123158 275272.85769978166 0 275272.85769978166 -102544705.1881814 0 0 0 -34285227.327634096 6362328.8744324446 -279506.54679828882 0 -279506.54679828882 -99945682.409087658 0 0 0 -32754173.737129331 581374.00552403927 397914.9591036737 0 397914.9591036737 -98811684.330450296 0 0 0 -34380608.613724113 -872032.61557626724 -277944.99264679849 0 -277944.99264679849 -94704509.136297822 0 0 0 -33451789.613155961 -34899158.7010184 -16347471.881976932 0 -16347471.881976932 -87230305.077118412 0 0 0 -42745312.322347879 1353231.4343783855 -1589167.4794694781 0 -1589167.4794694781 -96574913.782510281 0 0 0 -33327588.821846247 -38683577.677215412 3841767.1362038031 0 3841767.1362038031 -93353488.546661466 0 0 0 -46212973.178356901 8873977.4272839874 296650.20705187321 0 296650.20705187321 -100307533.17768526 0 0 0 -32001744.512640491 1936753.5226621628 814887.99374657497 0 814887.99374657497 -93350257.792594433 0 0 0 -31994726.494476318 7083810.197655648 513910.92126256227 0 513910.92126256227 -101969036.99362621 0 0 0 -33209829.378589541 -3305313.4880144224 -1035772.2216157615 0 -1035772.2216157615 -101905622.72605096 0 0 0 -36823827.674922846 -6880619.7717606574 -216589.3182092607 0 -216589.3182092607 -102448301.51230356 0 0 0 -38265122.449422494 8735747.2257807255 -111570.243680304 0 -111570.243680304 -99918699.910190105 0 0 0 -31914033.439543009 746069.70487025951 430894.00071448088 0 430894.00071448088 -95685369.767809063 0 0 0 -33228755.022028528 714931.88891918573 -907695.19133374095 0 -907695.19133374095 -88264930.250025719 0 0 0 -30642499.426387239 -49264327.52553606 -9014812.1578628495 0 -9014812.1578628495 -91500624.288324833 0 0 0 -49267733.134851307 5698660.3126325011 -1475648.6758573055 0 -1475648.6758573055 -100368424.40282249 0 0 0 -33134417.431566417 5929288.0946412086 1537231.2355567962 0 1537231.2355567962 -99993215.994999409 0 0 0 -32922374.765125275 -6389720.3391743898 6909414.4081820659 0 6909414.4081820659 -101348649.3027997 0 0 0 -37708429.37469089 -6076396.5462351739 -6438118.3572382331 0 -6438118.3572382331 -101111610.67040478 0 0 0 -37515802.525823951 -10243065.451693729 34823784.617904991 0 34823784.617904991 -146781801.15063503 0 0 0 -54958703.310815036 -41353308.389476031 -34801185.696006745 0 -34801185.696006745 -114389512.94168821 0 0 0 -54509987.465907484 -41437612.981631637 34960205.394404329 0 34960205.394404329 -114677781.77834849 0 0 0 -54640388.16599305 -10039875.399707854 -34668389.991737351 0 -34668389.991737351 -146588250.62789068 0 0 0 -54819844.109659463 547354.12820029259 52295.787186861038 0 52295.787186861038 -100176332.88088894 0 0 0 -34870142.563441277 1131867.0945619941 -45959.631728410721 0 -45959.631728410721 -100105809.72114539 0 0 0 -34640879.91930443 1096373.3801366091 45189.72322845459 0 45189.72322845459 -100135121.40807819 0 0 0 -34663561.809779525 557860.9756731987 -38051.372014194727 0 -38051.372014194727 -100151549.63856316 0 0 0 -34857791.032011509 1815132.5885019302 -475952.51612734795 0 -475952.51612734795 -100076695.98393786 0 0 0 -34391547.188402653 2911729.0804498196 440672.86701396108 0 440672.86701396108 -100273105.74406672 0 0 0 -34076481.832266092 2431970.2607638836 -643175.07034659386 0 -643175.07034659386 -99054594.974298477 0 0 0 -33817918.64973712 -7456398.1239189208 10184604.32680802 0 10184604.32680802 -103680735.75188267 0 0 0 -38897996.856530577 4389615.4053168297 545900.45177364349 0 545900.45177364349 -99452122.222614288 0 0 0 -33271877.386054039 -34411346.472892597 -22272006.955140207 0 -22272006.955140207 -106994573.22622122 0 0 0 -49492071.894689828 -7590369.2257028222 14132644.600107618 0 14132644.600107618 -108539769.38061401 0 0 0 -40645548.512210906 -15010261.16090624 -22747101.431190088 0 -22747101.431190088 -96772180.153928161 0 0 0 -39123854.460192055 6451658.5554180145 -744021.93949984014 0 -744021.93949984014 -102247216.8750577 0 0 0 -33528445.411873817 -155202.91483980417 1121703.2306667939 0 1121703.2306667939 -101887274.11188912 0 0 0 -35714866.959355116 8001016.8814806938 958710.88626466691 0 958710.88626466691 -100614746.15137863 0 0 0 -32414805.244464397 4901390.6086671054 -1870899.1358581781 0 -1870899.1358581781 -99430350.754500628 0 0 0 -33085136.051041752 -399533.25522194803 -1233631.7456793785 0 -1233631.7456793785 -101770170.67786863 0 0 0 -35759396.376581654 -18197133.529880047 5394965.2730716243 0 5394965.2730716243 -100300650.07410347 0 0 0 -41474224.261394262 1600418.2360269725 -126322.75986295938 0 -126322.75986295938 -102822753.33344704 0 0 0 -35427817.284096986 3600715.7102874517 -134419.51953434944 0 -134419.51953434944 -101987904.19350684 0 0 0 -34435515.96912688 7512091.6226919368 953760.854862988 0 953760.854862988 -101749847.76382276 0 0 0 -32983214.649395876 9168487.4589242935 -103661.93057489395 0 -103661.93057489395 -100279803.26254654 0 0 0 -31888960.531267881 2872741.2850409746 1926496.1172616482 0 1926496.1172616482 -99184712.809342861 0 0 0 -33709190.033505797 2524222.2057464123 -1878550.0552191138 0 -1878550.0552191138 -99235466.621193171 0 0 0 -33848935.545406461 -21121041.652908832 -1077356.8931737691 0 -1077356.8931737691 -93358487.031477839 0 0 0 -40067835.039535373 7298957.5680490732 894049.6733520925 0 894049.6733520925 -101584406.60170436 0 0 0 -32999907.161779284 6937644.5783364773 -1466265.3350714147 0 -1466265.3350714147 -100933673.81241798 0 0 0 -32898610.231928349 7288127.2080646157 1380339.6484546661 0 1380339.6484546661 -101059010.94895709 0 0 0 -32819809.309312284 -2411910.2027134895 2152770.1343977451 0 2152770.1343977451 -101251270.2583341 0 0 0 -36282113.161366612 -691727.17900526524 -1894119.7813233435 0 -1894119.7813233435 -102075313.70210147 0 0 0 -35968464.30838716 6917797.367208004 -1175483.0384479761 0 -1175483.0384479761 -100331494.42057562 0 0 0 -32694793.968678474 4386152.3196890354 1660073.699333787 0 1660073.699333787 -100074798.3581562 0 0 0 -33491026.11346364 -1301355.8046206832 3466477.8685404658 0 3466477.8685404658 -101454408.24231696 0 0 0 -35964517.416428149 -12701293.954546392 -8959168.6378704458 0 -8959168.6378704458 -97954695.970385492 0 0 0 -38729596.473726153 16905.363304674625 -332540.35540294647 0 -332540.35540294647 -102438717.18131965 0 0 0 -35847634.136305273 5762229.5959413052 -1117801.287812233 0 -1117801.287812233 -100417053.4171226 0 0 0 -33129188.337413549 4232911.9607245922 1463911.9123649001 0 1463911.9123649001 -99449023.267281294 0 0 0 -33325638.957294822 -4317766.8265328407 6613731.5641990453 0 6613731.5641990453 -103614898.254776 0 0 0 -37776432.778458118 -18710822.520064294 -10654394.864121169 0 -10654394.864121169 -100343976.90347967 0 0 0 -41669179.798240423 7286184.4569449425 -787381.44324147701 0 -787381.44324147701 -102130635.2239694 0 0 0 -33195557.768458486 4393118.8986155093 -1786969.5149123073 0 -1786969.5149123073 -98631908.660352349 0 0 0 -32983576.416607946 -24225960.200190753 8203386.9588438459 0 8203386.9588438459 -100852639.57320374 0 0 0 -43777509.920688063 7815047.1760714054 846292.82421772182 0 846292.82421772182 -100262415.12202072 0 0 0 -32356578.781082392 -1148219.6449308246 -1286934.6369832456 0 -1286934.6369832456 -100754940.99325159 0 0 0 -35666106.223363861 5781856.5409077406 1410617.8158707619 0 1410617.8158707619 -99407905.749907732 0 0 0 -32769117.223150015 5953007.1185851097 -1352778.2776982188 0 -1352778.2776982188 -99463786.064068794 0 0 0 -32728772.630919218 -13329671.20589453 -8554284.7327713668 0 -8554284.7327713668 -104265022.26989067 0 0 0 -41158142.71652478 -11958002.201334745 7937765.6679913849 0 7937765.6679913849 -104429236.27466089 0 0 0 -40735533.466598481 8058342.6613566875 106181.25499981642 0 106181.25499981642 -101562558.04536319 0 0 0 -32726475.384402156 1760490.8352839947 573240.50936543941 0 573240.50936543941 -102648057.11461711 0 0 0 -35310648.197766662 2615994.7997224331 114297.44637366012 0 114297.44637366012 -102442008.70035052 0 0 0 -34939104.865219831 6486832.0784737468 -1552294.1733129025 0 -1552294.1733129025 -100757967.49708033 0 0 0 -32994897.39651233 7404549.5403494835 1312620.7510466278 0 1312620.7510466278 -100269150.15892506 0 0 0 -32502610.216501474 5979516.521797657 -1810818.8679859042 0 -1810818.8679859042 -100488704.49630237 0 0 0 -33078215.79107666 7229497.795763731 1303769.731004715 0 1303769.731004715 -100708665.99912763 0 0 0 -32717708.871177197 -7222043.7686582804 4509915.4263064712 0 4509915.4263064712 -102562831.20208585 0 0 0 -38424706.239760458 -4642376.7463271469 -2810606.2473729551 0 -2810606.2473729551 -102780874.29179457 0 0 0 -37598137.863342568 -6530279.0343878865 4378564.5136977285 0 4378564.5136977285 -99904727.810034096 0 0 0 -37252252.395547688 -474934.47803986073 -2726283.8689108193 0 -2726283.8689108193 -101469096.3879993 0 0 0 -35680410.803113699 7019148.6179580688 -755698.62869238853 0 -755698.62869238853 -99717411.39656353 0 0 0 -32444391.972512007 3286015.5369836688 1338093.6203302741 0 1338093.6203302741 -98014261.791587055 0 0 0 -33154886.189111531 -1024709.7521116138 3016857.0381815732 0 3016857.0381815732 -99395184.030525267 0 0 0 -35146962.823922932 -33812868.013373643 -13416591.649773147 0 -13416591.649773147 -103452553.00995362 0 0 0 -48042897.358164519 8260593.8673307896 -926714.55724899378 0 -926714.55724899378 -100619960.42430401 0 0 0 -32325778.294940472 7810528.7716734409 -972060.06454744935 0 -972060.06454744935 -100861250.42135811 0 0 0 -32567752.577389479 5329726.6545935031 1901535.9464256763 0 1901535.9464256763 -100689806.13659856 0 0 0 -33376027.818701707 5694097.2991804481 1924945.8022917509 0 1924945.8022917509 -99644020.141635537 0 0 0 -32882472.994859278 1889953.3676127736 368767.58591985703 0 368767.58591985703 -101702671.4639823 0 0 0 -34934451.333729215 -171439.06357395649 1641264.5075842142 0 1641264.5075842142 -102018046.74352163 0 0 0 -35766320.032483459 -9773576.1132882833 -3881501.749902667 0 -3881501.749902667 -99235021.037782192 0 0 0 -38153009.002874672 -13740599.508320034 -4144911.1126538068 0 -4144911.1126538068 -101153979.47993016 0 0 0 -40213102.645887613 1543422.7173984647 -834706.77227652073 0 -834706.77227652073 -96929202.475014329 0 0 0 -33385022.915165365 -34984219.66537343 8925673.3169406615 0 8925673.3169406615 -90076134.417110115 0 0 0 -43771123.928869233 8694973.4326601028 255093.86639395356 0 255093.86639395356 -99875388.745407581 0 0 0 -31913145.359461784 1197684.6336680651 1237993.459433794 0 1237993.459433794 -94556211.941182971 0 0 0 -32675484.557630181 7286336.5378016233 -1295459.6531277299 0 -1295459.6531277299 -101393176.56568694 0 0 0 -32937394.009759784 7239198.0596878529 1351828.1355140805 0 1351828.1355140805 -100758919.14016461 0 0 0 -32731902.378166795 -1893233.7192499638 2368019.8815653026 0 2368019.8815653026 -102420149.72371733 0 0 0 -36509684.205038488 -2619358.3754972816 -2032686.4086870849 0 -2032686.4086870849 -101835904.53502703 0 0 0 -36559342.018683493 6572092.3833787441 -1463328.3452255726 0 -1463328.3452255726 -99910346.003808498 0 0 0 -32668388.767150164 5643964.8653109074 1653979.0851323009 0 1653979.0851323009 -100422950.85974312 0 0 0 -33172645.09805131 -5012791.8050383329 4391302.4760324657 0 4391302.4760324657 -101323165.32391942 0 0 0 -37217584.995135188 -8632584.6915839911 -6691217.7213874757 0 -6691217.7213874757 -102569769.74804252 0 0 0 -38920824.053869247 6838585.1939631701 564975.889346838 0 564975.889346838 -102389642.95743883 0 0 0 -33442870.217216611 -49423808.505519666 -6195355.0726285139 0 -6195355.0726285139 -91790750.727584183 0 0 0 -49425095.731586345 1056478.9804023234 -1104007.3628479242 0 -1104007.3628479242 -89708405.338556811 0 0 0 -31028174.225354102 1047643.5008200017 371098.56568014622 0 371098.56568014622 -94256807.384893492 0 0 0 -32623207.359425701 9370969.370518446 -50654.465453559598 0 -50654.465453559598 -99912999.860184669 0 0 0 -31689710.671383142 -10487448.612312984 12331605.612744227 0 12331605.612744227 -116578748.16437824 0 0 0 -44473168.871841922 -56220965.115494519 -32853537.001590714 0 -32853537.001590714 -104345321.66375451 0 0 0 -56198200.372737154 1787732.4359951019 -47423.175445069362 0 -47423.175445069362 -100220982.9708333 0 0 0 -34451637.687193394 303046.91794347763 32542.795236945152 0 32542.795236945152 -99941744.644947052 0 0 0 -34873544.204451323 292367.14776724559 -48510.400138616562 0 -48510.400138616562 -99934305.61022912 0 0 0 -34874678.461861432 -55962751.692111813 32806884.160544246 0 32806884.160544246 -103865240.64691012 0 0 0 -55939797.318657666 1800813.5329368114 51573.770920579882 0 51573.770920579882 -100222449.93225193 0 0 0 -34447572.739760399 -10460372.66092634 -12271117.14487958 0 -12271117.14487958 -116642318.39720573 0 0 0 -44485941.870346248 3913481.4985442162 -1532237.4768757969 0 -1532237.4768757969 -98755291.940817356 0 0 0 -33194633.654795647 -25063112.230090819 11543684.891097948 0 11543684.891097948 -101705203.88691659 0 0 0 -44368910.640952609 7180861.1927111745 930782.50264334679 0 930782.50264334679 -99734800.012800336 0 0 0 -32393878.587031186 -1810137.5921238661 -2412485.2783041 0 -2412485.2783041 -100417291.7510004 0 0 0 -35779600.270093441 8522076.2772821188 -131658.3359888196 0 -131658.3359888196 -101537565.81318331 0 0 0 -32555421.337565541 4706544.6997097731 1163837.9758117199 0 1163837.9758117199 -101122048.67170215 0 0 0 -33745426.390197277 3894109.8171935081 -846939.04733082652 0 -846939.04733082652 -101293943.40436959 0 0 0 -34089941.755511522 -11720127.897241384 -654802.74539768696 0 -654802.74539768696 -102097971.50909758 0 0 0 -39836334.792218596 5855782.75743258 -819553.72780574951 0 -819553.72780574951 -102332621.12534571 0 0 0 -33766893.428769469 -2313700.7166751027 321404.83085174859 0 321404.83085174859 -102160837.73345244 0 0 0 -36566088.457544744 4135622.0181586146 -39235.754025697708 0 -39235.754025697708 -102748381.25290841 0 0 0 -34514465.732162416 7907707.5154657364 -877735.79563522339 0 -877735.79563522339 -100508603.49694419 0 0 0 -32410313.593517303 4153079.601164341 2003782.4871260524 0 2003782.4871260524 -99655418.819757223 0 0 0 -33425818.726507664 1383945.3605736494 628168.75618937612 0 628168.75618937612 -101333997.75213623 0 0 0 -34982518.337046981 -16004146.431979612 -5944716.2400400341 0 -5944716.2400400341 -96806985.027395159 0 0 0 -39483896.010781184 8727736.2441515326 -173892.65808391571 0 -173892.65808391571 -100182328.89809996 0 0 0 -32009107.428881943 -198920.39192068577 746658.65995822847 0 746658.65995822847 -97038325.663066626 0 0 0 -34033036.119245648 -285846.92342400551 -338212.72294846177 0 -338212.72294846177 -93066449.227425575 0 0 0 -32673303.652797341 -37366385.604439497 -6723910.430582799 0 -6723910.430582799 -85264527.599848881 0 0 0 -42920819.621500932 7074457.467920661 -1044095.2239223719 0 -1044095.2239223719 -101340819.51236105 0 0 0 -32993226.715554118 -2142102.3507604599 715018.82942196727 0 715018.82942196727 -102789805.85916543 0 0 0 -36726167.873474061 7902156.1452358961 -792776.13894245028 0 -792776.13894245028 -101611972.48171163 0 0 0 -32798435.717766404 6308281.8557687402 1308030.5706142783 0 1308030.5706142783 -101435749.39703023 0 0 0 -33294613.63944155 2717554.986811161 260554.7728767395 0 260554.7728767395 -102412924.45728254 0 0 0 -34893379.314664841 -3109589.1013912559 -911600.00254698098 0 -911600.00254698098 -101817048.93320894 0 0 0 -36724323.312110007 -41446904.63196484 7490283.6960474513 0 7490283.6960474513 -89598225.128841132 0 0 0 -45865795.416282088 298405.64319229126 -775478.33641988039 0 -775478.33641988039 -96775844.687675476 0 0 0 -33767103.665569305 1239461.4255623817 434835.33490121365 0 434835.33490121365 -91042921.676531196 0 0 0 -31431211.087839067 8622734.6552631855 209634.18973058462 0 209634.18973058462 -100258841.25352335 0 0 0 -32072637.30939126 8845486.852062732 -130392.7168032527 0 -130392.7168032527 -100908967.43085939 0 0 0 -32222218.202578753 4444776.2657240629 1678777.0688500553 0 1678777.0688500553 -100971399.63891721 0 0 0 -33784318.180617452 4214434.6765844822 -1179688.0934953392 0 -1179688.0934953392 -101313515.47901726 0 0 0 -33984678.280851603 -10446034.4072823 38274.352698072791 0 38274.352698072791 -98935867.795260891 0 0 0 -38283665.770890124 8520696.8284455538 601375.71895849705 0 601375.71895849705 -100769784.5989964 0 0 0 -32287180.719692826 1893400.4072045684 297525.63433197141 0 297525.63433197141 -100966268.17564976 0 0 0 -34675503.718955874 5146822.9064013958 -1805122.4580464363 0 -1805122.4580464363 -100037650.45484734 0 0 0 -33211789.641956091 -15574639.105719507 3432371.3700099438 0 3432371.3700099438 -100473914.50972897 0 0 0 -40616993.765406966 5664193.9079408646 -1683877.092356205 0 -1683877.092356205 -100368494.73640871 0 0 0 -33146505.289963722 6413146.1113564968 1465494.9658662081 0 1465494.9658662081 -100482050.68702054 0 0 0 -32924116.601482391 -6049329.2529553771 5758896.3598327935 0 5758896.3598327935 -99493532.934707999 0 0 0 -36940001.765682161 -2752426.2283912301 -4353058.7556242943 0 -4353058.7556242943 -100845432.33856714 0 0 0 -36259250.498435438 7087671.1332296133 -799.16053169965744 0 -799.16053169965744 -102401393.55358028 0 0 0 -33359802.847122669 4789136.1889574528 479848.06822617352 0 479848.06822617352 -102576150.27900767 0 0 0 -34225454.93151772 8099139.5213467479 -944988.27553588152 0 -944988.27553588152 -100280245.70476952 0 0 0 -32263387.164197743 4919839.5934364796 1747567.3346955981 0 1747567.3346955981 -99777860.256560326 0 0 0 -33200307.232093334 -109380.26542586088 1021777.3658148032 0 1021777.3658148032 -101262839.49825501 0 0 0 -35480276.917288363 -16067406.127826132 -6615792.9761294574 0 -6615792.9761294574 -99850826.701553002 0 0 0 -40571381.490282632 -5331727.6271294951 9164915.4340768382 0 9164915.4340768382 -101146714.50516737 0 0 0 -37267454.746303886 -15855637.266949043 -14917493.246596679 0 -14917493.246596679 -100812392.30930096 0 0 0 -40833810.351687506 4265152.9444144964 -130970.37902787328 0 -130970.37902787328 -102740169.91092014 0 0 0 -34466255.938276887 5155949.6684127003 -678072.32848191261 0 -678072.32848191261 -102402024.52759862 0 0 0 -34036126.20071505 8913889.2925851345 -303471.37682914734 0 -303471.37682914734 -100503568.11899817 0 0 0 -32056387.589244604 8983645.0856751204 -328561.9137815237 0 -328561.9137815237 -100462333.99486077 0 0 0 -32017541.118214726 3421653.4958527088 2183961.2215171084 0 2183961.2215171084 -97912641.559811115 0 0 0 -33071845.82238555 3656985.3278512955 1854963.9932460487 0 1854963.9932460487 -98693429.592992067 0 0 0 -33262755.492799282 2899348.9459697008 -1136099.1479439437 0 -1136099.1479439437 -97871250.261317253 0 0 0 -33240165.460371733 2505748.4637098312 -1482258.7971754074 0 -1482258.7971754074 -98805438.813197136 0 0 0 -33704891.622320533 -27553343.040148895 -1861865.1024231985 0 -1861865.1024231985 -97079613.528597474 0 0 0 -43621534.799061224 -23465171.056189328 -3486128.2605358362 0 -3486128.2605358362 -96888498.762481749 0 0 0 -42123784.436534882 7712438.3155740649 -767505.33638179302 0 -767505.33638179302 -99787177.907083362 0 0 0 -32226158.85702835 3623517.8364737034 1618425.5472999513 0 1618425.5472999513 -98116556.625942707 0 0 0 -33072563.576314211 764650.00587308407 1305025.7013783008 0 1305025.7013783008 -97920218.741117239 0 0 0 -34004449.057335496 -29296089.025757644 -10374458.283910081 0 -10374458.283910081 -99911931.115200251 0 0 0 -45222807.049335241 5060533.5063545704 -1510015.6326591372 0 -1510015.6326591372 -98933925.620535851 0 0 0 -32855687.239963293 6440979.174364388 1143970.5234510899 0 1143970.5234510899 -99769221.151346445 0 0 0 -32664884.691943824 -20297898.101047173 10298191.465063065 0 10298191.465063065 -104262680.48534581 0 0 0 -43596202.505237535 -6508763.5728413463 -6398909.2014580593 0 -6398909.2014580593 -103010940.11869574 0 0 0 -38331896.292037964 -820059.53000748158 4852892.5698526725 0 4852892.5698526725 -100575840.97024322 0 0 0 -35488565.17508775 -17748423.434387028 -12742988.221096411 0 -12742988.221096411 -95343602.388556644 0 0 0 -39582209.038030267 9016464.9247338772 129501.89093336463 0 129501.89093336463 -100583552.25432014 0 0 0 -32048480.565355301 3312423.4432359934 1674108.4689090848 0 1674108.4689090848 -98636427.43559289 0 0 0 -33363401.39732492 3736269.1683366895 -1781898.2504288554 0 -1781898.2504288554 -98773697.064180255 0 0 0 -33263099.763545215 -23839210.736869633 1506754.6073410213 0 1506754.6073410213 -98035013.280809522 0 0 0 -42655978.406187713 8165115.5956376791 141146.97964447737 0 141146.97964447737 -101754332.20362163 0 0 0 -32756225.812794328 4913173.0796550512 743532.44706237316 0 743532.44706237316 -102341850.97572219 0 0 0 -34100037.263623476 8568734.9875409603 -643044.38740116358 0 -643044.38740116358 -100170515.05341196 0 0 0 -32060623.0230546 3031992.1722510457 1911424.1518452764 0 1911424.1518452764 -99415885.383100629 0 0 0 -33734362.623797357 1889747.8287822008 -425757.73418939114 0 -425757.73418939114 -99785190.323419392 0 0 0 -34263404.87312305 -19198517.443265945 -6145090.7412349135 0 -6145090.7412349135 -93155726.094723523 0 0 0 -39323985.2382963 4548093.9750835896 -800889.60688659549 0 -800889.60688659549 -102441080.98051238 0 0 0 -34262545.451900125 6237025.5962871313 -363545.42746903002 0 -363545.42746903002 -102597544.57154989 0 0 0 -33726181.641342044 3894335.7860652655 -289186.54043388367 0 -289186.54043388367 -102955900.50112823 0 0 0 -34671547.650271967 8593379.4775589705 -530462.98013246059 0 -530462.98013246059 -100365806.17214036 0 0 0 -32120349.343103528 3991982.5473456383 2100035.703651309 0 2100035.703651309 -97524885.842825174 0 0 0 -32736516.153417826 2394610.1821513176 -566158.37946808338 0 -566158.37946808338 -97490995.16417551 0 0 0 -33283734.743708611 -29728008.521106616 -4722276.1538069248 0 -4722276.1538069248 -99174179.393483818 0 0 0 -45115765.770106629 5668711.7814271376 635213.27554243803 0 635213.27554243803 -102152253.64837235 0 0 0 -33769239.653430827 8974326.1509034634 353871.34432560205 0 353871.34432560205 -100417893.98767233 0 0 0 -32005248.742869139 3045849.546338737 1217871.7725665569 0 1217871.7725665569 -99956967.657138467 0 0 0 -33918891.338779867 3636469.822719276 -2067457.2970269918 0 -2067457.2970269918 -99463050.538378358 0 0 0 -33539303.250480473 -18175839.663908809 2221991.6653877534 0 2221991.6653877534 -94673737.596351981 0 0 0 -39497352.041091293 654532.38241307577 2940829.7417611778 0 2940829.7417611778 -99641263.698288247 0 0 0 -34645355.960556284 -3552490.6785424948 5725813.7017871141 0 5725813.7017871141 -102929371.54492021 0 0 0 -37268651.778212011 -25946901.918561213 -15362435.687756771 0 -15362435.687756771 -93759040.430882305 0 0 0 -41897079.822305225 -32258557.297685772 -17082864.098166257 0 -17082864.098166257 -98385868.325566083 0 0 0 -45725548.968138143 5114127.0162762403 59672.107199668884 0 59672.107199668884 -102666099.36315584 0 0 0 -34143190.321407914 -15707690.871597677 -13623861.556134164 0 -13623861.556134164 -108363193.12593085 0 0 0 -43424809.399134964 -21481549.739111274 16046275.390888646 0 16046275.390888646 -105361651.80898905 0 0 0 -44395120.541835129 5726946.2833380122 -825663.86009883881 0 -825663.86009883881 -100411069.18477045 0 0 0 -33139443.01550132 6249855.3597302884 -980951.45456242561 0 -980951.45456242561 -99614032.519898295 0 0 0 -32677462.006058887 2633547.2253184319 1311444.5075138807 0 1311444.5075138807 -99224677.907552242 0 0 0 -33806895.738781929 3504244.6369111538 1280670.236266844 0 1280670.236266844 -99166021.568505287 0 0 0 -33481621.926058054 -30451859.835762911 16599668.047245165 0 16599668.047245165 -98143974.453097925 0 0 0 -45008542.001101278 -3178694.0981322825 -5681490.2457371056 0 -5681490.2457371056 -102609056.5989722 0 0 0 -37025712.743986577 2110886.9255642891 -917286.98563408852 0 -917286.98563408852 -99194377.190138578 0 0 0 -33979221.592600822 5026988.3779182434 564781.05433854461 0 564781.05433854461 -100162031.31849003 0 0 0 -33297265.029200315 -24903061.494571917 14558353.210666358 0 14558353.210666358 -93457264.399698853 0 0 0 -41426114.062994756 405110.14084976912 -2838537.4767775834 0 -2838537.4767775834 -101257009.59001172 0 0 0 -35298164.80720669 1801795.0996212959 -1097540.1477282643 0 -1097540.1477282643 -99508077.733355522 0 0 0 -34197198.921807051 5905544.02820158 698241.46418654919 0 698241.46418654919 -99853735.644017696 0 0 0 -32881867.065535545 6650054.5682579279 -1581245.8030998707 0 -1581245.8030998707 -100467829.73631263 0 0 0 -32836221.308819175 6434801.8903226852 -1462180.5617020577 0 -1462180.5617020577 -100183908.91421413 0 0 0 -32812187.458362103 6495610.5294268131 1565467.7130692601 0 1565467.7130692601 -100671058.76054811 0 0 0 -32961406.880892515 6805469.2937686443 1495988.0343031883 0 1495988.0343031883 -99729394.671528816 0 0 0 -32523373.882216215 -3870141.6848732233 3943689.4654226303 0 3943689.4654226303 -100962154.31528759 0 0 0 -36691303.600056171 -8344843.5763743818 5494623.7859707475 0 5494623.7859707475 -103754435.55083999 0 0 0 -39234747.694525033 -3387962.9599957466 -4217276.025809437 0 -4217276.025809437 -101250290.08916879 0 0 0 -36623388.567207575 -7372843.1006492376 -4619017.7227231711 0 -4619017.7227231711 -102863041.27470124 0 0 0 -38582559.531372666 3124990.7092810869 -1615900.6737965941 0 -1615900.6737965941 -98389138.276345015 0 0 0 -33342451.64847219 6871699.3306560516 827415.48324322701 0 827415.48324322701 -100337620.0342145 0 0 0 -32713072.246245146 -29341471.299157858 10441154.113134664 0 10441154.113134664 -97704125.174132794 0 0 0 -44465958.765651733 -240969.28477758169 -2568820.8347067237 0 -2568820.8347067237 -100013516.96557117 0 0 0 -35089070.18762213 3800606.6611106396 61709.711136311293 0 61709.711136311293 -102505516.67540264 0 0 0 -34546718.50500226 2717156.7845607996 -309933.36558848247 0 -309933.36558848247 -102278640.87670302 0 0 0 -34846519.432249904 3556140.8334102631 -198885.64611522853 0 -198885.64611522853 -102173021.66157091 0 0 0 -34515908.289856195 5030989.6648819447 -1040595.5532085896 0 -1040595.5532085896 -99586610.943571329 0 0 0 -33094467.447541237 3682346.5035803318 1084926.1738421917 0 1084926.1738421917 -99847032.292384148 0 0 0 -33657640.026081324 -4512835.3731658459 7928908.1744904816 0 7928908.1744904816 -105409777.83572531 0 0 0 -38472914.623111904 -18061184.578884572 -14359646.4853599 0 -14359646.4853599 -95809225.942388952 0 0 0 -39854643.682445705 -21524363.408376709 25024634.446385909 0 25024634.446385909 -98694952.596090287 0 0 0 -42076760.601563469 -7520748.7215016708 -13813453.175173551 0 -13813453.175173551 -108022817.04129127 0 0 0 -40440248.016977511 3538241.4464716911 -1910959.0430797637 0 -1910959.0430797637 -97941581.62575388 0 0 0 -33041169.062748671 -29155997.458060667 6936867.9791161269 0 6936867.9791161269 -98221355.203199506 0 0 0 -44582073.431441054 8096904.857373476 632957.17015886307 0 632957.17015886307 -100368077.93449593 0 0 0 -32294910.57699275 958773.49565863609 -218571.9294000268 0 -218571.9294000268 -98231080.601517439 0 0 0 -34045307.487050653 -17760026.282300472 17036532.044554912 0 17036532.044554912 -98813474.054515332 0 0 0 -40800725.11788553 -2966013.6729373336 -10250116.682834685 0 -10250116.682834685 -102297644.08134609 0 0 0 -36842280.213999182 6824896.0487365723 -189117.82585549355 0 -189117.82585549355 -100123615.1360383 0 0 0 -32654551.680555582 563655.48978164303 341527.15642297268 0 341527.15642297268 -97827161.678789079 0 0 0 -34042227.166152455 868209.56924087228 -60620.721483975649 0 -60620.721483975649 -86625519.480164975 0 0 0 -30015058.46882337 -50823283.637203515 -14488642.111778315 0 -14488642.111778315 -94392480.114844576 0 0 0 -50825517.31321682 9509732.2730243206 -34284.642256498337 0 -34284.642256498337 -99928118.794230461 0 0 0 -31646435.282422066 1344157.8552311659 671427.28079515696 0 671427.28079515696 -94415171.501494646 0 0 0 -32574854.776192307 548035.49479532242 -1002450.1894251704 0 -1002450.1894251704 -93861639.303082466 0 0 0 -32659761.332900405 -40146335.816606507 -2242502.4455366991 0 -2242502.4455366991 -88612256.755642369 0 0 0 -45065507.400287099 -589234.32982704043 262720.18345353007 0 262720.18345353007 -101428697.64035809 0 0 0 -35706276.189564735 2343612.2463573217 -886833.71983671188 0 -886833.71983671188 -100012405.50681376 0 0 0 -34184077.641159654 4055381.8866138458 668885.35290974379 0 668885.35290974379 -100156773.93603516 0 0 0 -33635487.217297077 5283541.4233448505 -217997.82599434257 0 -217997.82599434257 -102603337.30974913 0 0 0 -34061928.560241461 774888.05539381504 -1382438.9300065935 0 -1382438.9300065935 -96041262.740782261 0 0 0 -33343231.139886022 1776462.550722599 -1316446.0684607178 0 -1316446.0684607178 -93395965.68918705 0 0 0 -32066826.098462582 3950572.0890028477 -256885.57516038418 0 -256885.57516038418 -99775789.669285297 0 0 0 -33538826.153098822 685486.85197663307 331135.699698627 0 331135.699698627 -99681717.198472023 0 0 0 -34648680.621273518 3754505.9672105461 365355.56479895115 0 365355.56479895115 -100398881.80017063 0 0 0 -33825531.541536078 1207685.4810345173 -522456.86948122829 0 -522456.86948122829 -99664554.025402069 0 0 0 -34459903.990528584 -4293752.335537523 -8490353.4980739132 0 -8490353.4980739132 -106235308.72313213 0 0 0 -38685171.37053439 -36817526.31155353 21713862.010865699 0 21713862.010865699 -97263413.267005563 0 0 0 -46928328.852495648 4211499.4951531291 258362.59082436562 0 258362.59082436562 -99618752.358393312 0 0 0 -33392538.502133906 840730.79180049896 -317941.17871817946 0 -317941.17871817946 -99462321.243729591 0 0 0 -34517556.65817523 4354894.0025712848 -3550926.5785622969 0 -3550926.5785622969 -96644904.524950504 0 0 0 -32301503.682832778 -38793329.036280707 24062128.863947518 0 24062128.863947518 -95549577.059005052 0 0 0 -47020017.133350015 4157941.6706859767 3493013.2249019369 0 3493013.2249019369 -96365844.631718218 0 0 0 -32272766.036361217 -38459786.681899898 -23984607.791169692 0 -23984607.791169692 -95482815.493434682 0 0 0 -46879910.761367097 -4074063.6604882479 7994239.4532756209 0 7994239.4532756209 -106742194.02999812 0 0 0 -38785690.191670239 -33525277.424702629 -20900610.038127832 0 -20900610.038127832 -95900130.047668591 0 0 0 -45298892.615329921 7419579.0147190094 625131.25620168447 0 625131.25620168447 -102067785.88624907 0 0 0 -33126872.405035615 6292315.5492100716 -12245.362821161747 0 -12245.362821161747 -102695801.94275713 0 0 0 -33741220.23774147 740704.91424524784 -139213.209957093 0 -139213.209957093 -102804314.557356 0 0 0 -35722263.375088811 1571620.5413088053 -770217.63039299846 0 -770217.63039299846 -101944544.15744236 0 0 0 -35130523.265646771 950536.02936046571 -672596.42398786545 0 -672596.42398786545 -102880980.57340784 0 0 0 -35675655.590416618 -3898582.6194675714 625346.84289821982 0 625346.84289821982 -102683630.90061054 0 0 0 -37303774.732027307 3105054.9894731045 -1848357.9453278184 0 -1848357.9453278184 -99257183.281427145 0 0 0 -33653244.90218389 -20899819.755416498 7948484.5088258237 0 7948484.5088258237 -94082055.767997056 0 0 0 -40243656.433194712 7807177.1859917641 748556.01691770554 0 748556.01691770554 -100166420.17885017 0 0 0 -32325735.04750061 1766434.1805918217 -701727.81056718528 0 -701727.81056718528 -99601183.307395816 0 0 0 -34242162.194381475 5365140.53513062 769804.86802822351 0 769804.86802822351 -102234486.10009241 0 0 0 -33904270.947736502 8513164.286870718 598978.51302221417 0 598978.51302221417 -100779658.19677114 0 0 0 -32293272.868465185 4488479.3222948313 -2167087.8112090826 0 -2167087.8112090826 -99638430.027229667 0 0 0 -33302482.746727109 2702223.2933021784 395433.63239687681 0 395433.63239687681 -100857620.39017224 0 0 0 -34354388.983904481 -16201695.674993336 2543339.1226435155 0 2543339.1226435155 -97942564.037645102 0 0 0 -39950490.89942348 3801108.8091411591 -364058.35717511177 0 -364058.35717511177 -99928811.955801487 0 0 0 -33644696.101331234 1904553.0829793215 463445.08534944057 0 463445.08534944057 -99154764.503973484 0 0 0 -34037573.997348189 3927963.0229210854 -497223.38172393478 0 -497223.38172393478 -100231597.48789263 0 0 0 -33706272.062740088 1283485.7066924199 661688.17713308334 0 661688.17713308334 -99891765.450706616 0 0 0 -34512897.910404719 4670534.158629179 -1595519.5832468569 0 -1595519.5832468569 -100083826.01744938 0 0 0 -33394652.150587082 6446921.3407423496 1347702.3030132055 0 1347702.3030132055 -100299961.51229727 0 0 0 -32848564.060044169 -10295291.039999202 8448336.2970046699 0 8448336.2970046699 -98248844.302553147 0 0 0 -37990447.369893327 -1770017.8110156655 -4846555.2376658916 0 -4846555.2376658916 -101388100.65878689 0 0 0 -36105341.464430928 1766069.5826722383 -264310.2997186482 0 -264310.2997186482 -102980648.74303317 0 0 0 -35425102.706126451 2785729.142595768 -345988.13372950256 0 -345988.13372950256 -102964148.20231533 0 0 0 -35062446.670901895 4211184.0784935355 -764798.47788369656 0 -764798.47788369656 -100081022.78037804 0 0 0 -33554443.545659602 2631021.1570780277 894700.49726445973 0 894700.49726445973 -99850947.419566631 0 0 0 -34026974.191871166 4430604.3832445145 -1473403.4198789001 0 -1473403.4198789001 -100168562.6430006 0 0 0 -33508285.390914679 5379199.1166546345 1341340.3579245806 0 1341340.3579245806 -100113031.92520428 0 0 0 -33156841.482992411 -8635936.7733736336 9452644.5393351614 0 9452644.5393351614 -99301139.154004961 0 0 0 -37777976.574582487 -3997747.4508653283 -7512765.4069736749 0 -7512765.4069736749 -99788685.738058686 0 0 0 -36325251.616123438 6061185.528080225 -1383644.5277980268 0 -1383644.5277980268 -101947038.98353434 0 0 0 -33560048.709408998 6578925.052190423 -1282522.2811410427 0 -1282522.2811410427 -100935063.7528348 0 0 0 -33024648.545225501 -2871417.4147818089 1236196.2185737491 0 1236196.2185737491 -101227349.35713172 0 0 0 -36434568.370169759 -6389292.7310224175 1533006.8783428371 0 1533006.8783428371 -102910764.64593226 0 0 0 -38255020.081934094 9203941.3447867632 -194753.51426422596 0 -194753.51426422596 -100147891.04213929 0 0 0 -31830382.394073248 8983811.8222290277 -290201.26687848568 0 -290201.26687848568 -100039486.6713078 0 0 0 -31869486.197177529 2066288.7792085409 1335427.2675846219 0 1335427.2675846219 -95156250.288987398 0 0 0 -32581486.528422475 1213114.4488502741 1288663.879317224 0 1288663.879317224 -97583259.671728611 0 0 0 -33729550.828007579 -40737095.832718343 -4528273.0096851476 0 -4528273.0096851476 -94163909.088555157 0 0 0 -47215351.722445726 -31324078.727874428 -5816013.320619069 0 -5816013.320619069 -88793016.510136738 0 0 0 -42040983.333303906 8016858.5112181902 -326886.08332622051 0 -326886.08332622051 -101625602.67690063 0 0 0 -32763060.457988739 5900255.6637268066 1114606.7445598245 0 1114606.7445598245 -102072293.94858384 0 0 0 -33660213.399699807 8189668.6833612025 -348321.42486274242 0 -348321.42486274242 -101658513.92129594 0 0 0 -32714095.833277315 5290699.5083756447 1108119.4152141511 0 1108119.4152141511 -101777605.87184954 0 0 0 -33770417.227215767 3202483.5107181072 -450320.6866568327 0 -450320.6866568327 -100075262.3970108 0 0 0 -33905472.610202551 1531096.5599131584 437542.10097193718 0 437542.10097193718 -99951888.844011307 0 0 0 -34447277.299434662 -28752400.720421374 25401603.021139257 0 25401603.021139257 -102355939.59401777 0 0 0 -45887919.110053688 -6549489.8959871531 -9883459.9411886632 0 -9883459.9411886632 -103250108.01454097 0 0 0 -38429859.268684864 7537029.6219270229 -520101.87669956684 0 -520101.87669956684 -99854383.182941675 0 0 0 -32311073.746355057 2232231.5238271952 1185493.9186196327 0 1185493.9186196327 -97457742.945299149 0 0 0 -33328928.997515082 1307481.464102447 95686.433246195316 0 95686.433246195316 -94206140.500564933 0 0 0 -32514530.662761867 -38198005.728034914 -12409558.129667498 0 -12409558.129667498 -96931638.535077631 0 0 0 -47295375.492089391 8731503.0286846161 -525249.8056614995 0 -525249.8056614995 -100721939.15619874 0 0 0 -32196652.644629955 5153289.6183978319 1823954.3782140911 0 1823954.3782140911 -101010677.4313488 0 0 0 -33550085.734532952 3114082.0516651869 -629013.0681271553 0 -629013.0681271553 -101259283.46703017 0 0 0 -34350820.495377898 -9319249.5702715218 -2726094.606103465 0 -2726094.606103465 -98664332.506385863 0 0 0 -37794253.726830065 7361813.9564138651 -366026.82312864065 0 -366026.82312864065 -101860359.10358381 0 0 0 -33074490.80150938 8283500.9600764513 -756180.50704467297 0 -756180.50704467297 -100918388.85658503 0 0 0 -32422210.76377809 5699645.7691833973 1688337.1174006462 0 1688337.1174006462 -101358437.17432785 0 0 0 -33480576.991800547 2235296.3181509972 -129997.11191606522 0 -129997.11191606522 -102119793.3729775 0 0 0 -34959573.969189286 -5252112.8855976462 -2037351.9489488602 0 -2037351.9489488602 -99367063.321346283 0 0 0 -36616711.672430396 8892816.8117239475 -115142.99208527803 0 -115142.99208527803 -100783516.18352103 0 0 0 -32161744.780129194 4667389.8435784578 1513676.5278219581 0 1513676.5278219581 -100437454.76695883 0 0 0 -33519522.723183036 3868994.8783730865 -1484914.0452721119 0 -1484914.0452721119 -100323397.72402978 0 0 0 -33759040.995979846 -15324968.441399992 -1488392.5744994581 0 -1488392.5744994581 -99711683.492868721 0 0 0 -40262828.176994056 8242828.2015244961 -346966.82269966602 0 -346966.82269966602 -101680201.20389247 0 0 0 -32703080.550828815 5457205.9227275848 1052477.0284791589 0 1052477.0284791589 -101557093.33775163 0 0 0 -33634960.595258474 8093244.6253004372 -325005.00426435471 0 -325005.00426435471 -101626676.33832499 0 0 0 -32736701.099558681 6041909.7383570671 1066024.0636282973 0 1066024.0636282973 -101877671.48428774 0 0 0 -33542516.61107564 8677830.372824192 -471744.78910422325 0 -471744.78910422325 -100133379.79202294 0 0 0 -32009442.296719551 2287821.7889740467 1725002.3194057941 0 1725002.3194057941 -98620445.545987606 0 0 0 -33716418.314954758 1640356.8935297728 -1211505.5972670913 0 -1211505.5972670913 -98262467.104911089 0 0 0 -33817738.573983312 -25179264.780093417 -6222389.9874646664 0 -6222389.9874646664 -92032776.004298121 0 0 0 -41024214.274537034 -38930384.061887637 1167066.5316735618 0 1167066.5316735618 -89607334.558271959 0 0 0 -44988201.517055854 1515796.5803829432 733196.02149766684 0 733196.02149766684 -93311521.015569687 0 0 0 -32128503.552315474 829809.30056202412 -1489649.098661691 0 -1489649.098661691 -95644371.123256445 0 0 0 -33185096.637943149 9326582.8862119913 124511.39805078506 0 124511.39805078506 -100054148.7904098 0 0 0 -31754648.066469073 8903170.8632609844 -362584.82657235861 0 -362584.82657235861 -100626446.63546562 0 0 0 -32103146.52027154 3533524.0659588575 2037516.6930516362 0 2037516.6930516362 -99611049.133399725 0 0 0 -33627133.773604035 2681517.1955688 -1225738.5898298025 0 -1225738.5898298025 -100315586.70370579 0 0 0 -34171924.327847958 -17713084.646734387 -2238216.4241423607 0 -2238216.4241423607 -95233138.75656563 0 0 0 -39531178.191154987 5443652.3410609961 228393.26108688116 0 228393.26108688116 -102557862.12446666 0 0 0 -33989973.424192011 6876018.2765207291 -1230600.4936527554 0 -1230600.4936527554 -100402169.95806789 0 0 0 -32734153.088541746 5717658.3369330801 1594442.8446893692 0 1594442.8446893692 -99353832.758117557 0 0 0 -32772661.047414597 -4215051.1391982473 4879081.6492801011 0 4879081.6492801011 -103118356.50032422 0 0 0 -37566692.673832834 -14730220.41795975 -7484732.3669903027 0 -7484732.3669903027 -101911426.86035573 0 0 0 -40824576.547410429 8803109.5183568001 533549.26486027241 0 533549.26486027241 -100286868.38372612 0 0 0 -32019315.602879167 8321273.0814628601 663643.84717857838 0 663643.84717857838 -100655005.10700202 0 0 0 -32316806.208938599 2518457.6806433797 1014477.0870292187 0 1014477.0870292187 -100028846.73395491 0 0 0 -34128636.168659031 4000522.4790186882 -1941469.7244644165 0 -1941469.7244644165 -99502681.02431941 0 0 0 -33425755.490855217 4408125.2888246775 -1972142.2538191676 0 -1972142.2538191676 -98480817.358147383 0 0 0 -32925442.224262953 1193998.6398795843 -110350.71075832844 0 -110350.71075832844 -99926477.509707808 0 0 0 -34556367.604439855 -18275028.325370699 4422261.4601598829 0 4422261.4601598829 -96265533.896867901 0 0 0 -40089196.777783513 -24441551.171717256 5343089.8022883534 0 5343089.8022883534 -100071265.29410192 0 0 0 -43579485.763036683 6597244.7737537473 -1463495.333378315 0 -1463495.333378315 -101678999.40899234 0 0 0 -33278614.122333422 -1071646.814289093 1666881.1374037433 0 1666881.1374037433 -100568106.12464178 0 0 0 -35573913.528625667 7779952.2164809704 998232.18688502908 0 998232.18688502908 -101219845.52510309 0 0 0 -32703962.658017635 3539338.9113371372 -688342.60961288214 0 -688342.60961288214 -99061298.541901588 0 0 0 -33432685.870697498 3455946.269494772 601127.04240179062 0 601127.04240179062 -99413903.052815676 0 0 0 -33585284.874162197 -20631469.23860459 19302716.716176704 0 19302716.716176704 -110645134.76978001 0 0 0 -45946811.402934656 -24691106.060935497 -18914924.385705207 0 -18914924.385705207 -110090413.39763778 0 0 0 -47173531.810500681 4278318.2099987268 692984.10419046879 0 692984.10419046879 -102189314.90301979 0 0 0 -34268848.84255743 2282721.8499259353 -1192292.3457957506 0 -1192292.3457957506 -97453817.14784658 0 0 0 -33309883.354272187 -37183149.227190316 12097193.783475094 0 12097193.783475094 -96572054.271663696 0 0 0 -46814321.224598899 7716097.0965049267 519689.78797027469 0 519689.78797027469 -100005598.10096121 0 0 0 -32301325.351559877 539868.1608401835 294567.95615983009 0 294567.95615983009 -94915137.700762451 0 0 0 -33031344.338972896 6228348.5635469556 246168.24093604088 0 246168.24093604088 -102732263.21695936 0 0 0 -33776370.128694475 3232717.0516672134 -266137.49096623063 0 -266137.49096623063 -101918095.64719963 0 0 0 -34539882.508436322 701448.72198820114 -532835.4642983973 0 -532835.4642983973 -97431014.043077946 0 0 0 -33855347.862381697 -40641543.49178452 12975576.174087387 0 12975576.174087387 -88550537.93826896 0 0 0 -45217228.500518709 7731040.1955823898 294471.9692658186 0 294471.9692658186 -99743534.567853212 0 0 0 -32204373.030294657 -665376.37320888042 1218963.213964276 0 1218963.213964276 -91387938.961098671 0 0 0 -32218660.367007613 8523093.6680167317 -620516.76100558043 0 -620516.76100558043 -100829439.98661518 0 0 0 -32307221.211509645 8444101.0533165932 -607606.04278945923 0 -607606.04278945923 -100979422.93445611 0 0 0 -32387362.658398628 5458245.6737756729 1761847.9099724889 0 1761847.9099724889 -99914554.759476423 0 0 0 -33059708.179995298 4446450.4346917868 2069473.1835246384 0 2069473.1835246384 -99900097.589635134 0 0 0 -33408776.504230142 1549796.924780488 -42135.717576295137 0 -42135.717576295137 -101168084.62576675 0 0 0 -34866400.695345283 2217841.8479869366 -301093.73329498619 0 -301093.73329498619 -101254649.72090781 0 0 0 -34662882.755522251 -15525382.546720952 -3646419.5827670097 0 -3646419.5827670097 -101921578.1600675 0 0 0 -41106436.247375995 -14880884.42572514 -2903394.3273054659 0 -2903394.3273054659 -97816181.047201201 0 0 0 -39443972.915524222 8381648.0433073044 -661337.33856418729 0 -661337.33856418729 -100613658.19826651 0 0 0 -32281203.554235697 4512785.8039288521 1971778.3938704133 0 1971778.3938704133 -98666617.202500343 0 0 0 -32953840.989499927 1280601.2285471261 38288.362739384174 0 38288.362739384174 -99593984.677906036 0 0 0 -34409684.207275599 -22934740.525039077 -5630971.9082354382 0 -5630971.9082354382 -100070734.41970688 0 0 0 -43051916.230661094 9150056.2049231529 -259071.02520668507 0 -259071.02520668507 -100092036.44179678 0 0 0 -31829693.082905531 2584074.219789505 1631782.5010490417 0 1631782.5010490417 -97722423.420834899 0 0 0 -33298422.220365763 2378101.9867376089 -1290505.6175081134 0 -1290505.6175081134 -95171311.837612867 0 0 0 -32477623.447806358 -27554839.853117853 -4074842.594169192 0 -4074842.594169192 -92073212.655845523 0 0 0 -41869818.378137171 8869176.8788738251 -352816.04413445294 0 -352816.04413445294 -100321985.83119917 0 0 0 -32008483.133313656 3025909.9035934806 1781906.9524948001 0 1781906.9524948001 -96389948.17686069 0 0 0 -32677413.395643651 1977210.7503444552 -1863445.6926323771 0 -1863445.6926323771 -97536844.820075035 0 0 0 -33445871.924405754 -35963255.362963349 -5199724.9045351017 0 -5199724.9045351017 -97122346.55075416 0 0 0 -46579960.669801131 8720622.5803644657 -553190.68017929792 0 -553190.68017929792 -100378547.42063379 0 0 0 -32080273.694094181 3584741.4872552752 2069639.163020432 0 2069639.163020432 -99264524.048277855 0 0 0 -33487923.896357834 2471757.0485785604 -918826.51470142603 0 -918826.51470142603 -99966760.518321633 0 0 0 -34123251.214410126 -20118751.267323881 -3912665.0798141845 0 -3912665.0798141845 -94897234.088829398 0 0 0 -40255594.874653637 6133888.3224186003 -1485408.323579669 0 -1485408.323579669 -99372980.062563896 0 0 0 -32633682.10905084 6625525.8728654385 1340134.9163400829 0 1340134.9163400829 -99950651.617072105 0 0 0 -32663794.010472298 -13707040.600546062 7395889.0866400003 0 7395889.0866400003 -103679560.50027955 0 0 0 -41085310.385289013 -8240276.3624749482 -5768103.5255733728 0 -5768103.5255733728 -104148422.50526452 0 0 0 -39336044.603708833 4539827.6090795994 -1802692.8532240354 0 -1802692.8532240354 -99431183.814944029 0 0 0 -33211974.672052622 8884694.482626766 350606.88145899773 0 350606.88145899773 -100621131.86563563 0 0 0 -32107753.08405295 -19524795.948199306 2800103.5723927021 0 2800103.5723927021 -99680192.632483289 0 0 0 -41721746.003238887 3091066.3809956312 1182697.1987311989 0 1182697.1987311989 -99891816.94254756 0 0 0 -33880262.696543336 971489.17782235146 -1010358.4782323837 0 -1010358.4782323837 -98246660.945964813 0 0 0 -34046310.118849754 -36547819.322167017 10485822.989156008 0 10485822.989156008 -90712521.071965456 0 0 0 -44541119.13794636 7432391.9045521021 370196.44664561749 0 370196.44664561749 -100244517.94685781 0 0 0 -32484244.11480701 1066750.1000258923 -368230.04635318369 0 -368230.04635318369 -93889393.061272979 0 0 0 -32487925.036436558 8392675.8162469864 76697.307781651616 0 76697.307781651616 -101573992.22634697 0 0 0 -32613460.743534803 4004596.9199606106 745285.95315670967 0 745285.95315670967 -102015164.6234356 0 0 0 -34303698.696216233 9288576.4803799391 -65270.720815300941 0 -65270.720815300941 -100130840.1121757 0 0 0 -31794792.271128535 2116183.1568690538 1600794.4833913893 0 1600794.4833913893 -97593550.592025518 0 0 0 -33417078.602304697 1950534.8977508545 -1969049.0369824171 0 -1969049.0369824171 -97667122.908488274 0 0 0 -33500805.803758025 -27377872.838552661 -1370494.0567033738 0 -1370494.0567033738 -91109681.725925028 0 0 0 -41470644.097567193 6497280.7340021431 -96617.187195539474 0 -96617.187195539474 -102352362.87688786 0 0 0 -33549278.750009865 5556111.5994019508 -783376.00465124846 0 -783376.00465124846 -99359294.947626591 0 0 0 -32831114.171878576 3099039.2845902443 970388.41769552231 0 970388.41769552231 -99011573.350636482 0 0 0 -33569386.923116207 3009236.2723546028 -604603.07670146227 0 -604603.07670146227 -100232556.67598724 0 0 0 -34028162.141271353 2431758.6488839388 646796.1226439476 0 646796.1226439476 -99659107.090119123 0 0 0 -34029571.954432368 -26193361.152101576 18764418.403159283 0 18764418.403159283 -104186318.1954115 0 0 0 -45632887.771629572 -10247007.472464591 -12458524.549858749 0 -12458524.549858749 -106525439.9451637 0 0 0 -40870356.596169859 8776216.9671046734 -578099.82671320438 0 -578099.82671320438 -100337214.73336935 0 0 0 -32046349.218193054 4492103.1358077526 1769065.8501913548 0 1769065.8501913548 -99425519.476092458 0 0 0 -33226695.71909976 2548924.686224699 -997863.53455674648 0 -997863.53455674648 -100067627.55121374 0 0 0 -34131546.002746224 -18827409.77918762 -5421147.9056575671 0 -5421147.9056575671 -98117949.851782084 0 0 0 -40930875.870839417 -3764755.1139469147 9978381.5144658424 0 9978381.5144658424 -104704437.42008424 0 0 0 -37964217.386910915 -16290828.969426796 -17744388.076343387 0 -17744388.076343387 -97373307.433141083 0 0 0 -39782447.740898773 4116032.6315486431 261466.65384247899 0 261466.65384247899 -102696371.38397169 0 0 0 -34503118.563348055 3148334.3584251404 -277175.42978727818 0 -277175.42978727818 -102761372.6218152 0 0 0 -34864563.392186522 6910994.9783787727 -1423677.7053107619 0 -1423677.7053107619 -101026165.36312795 0 0 0 -32940309.634662271 7027236.3543471098 1469459.0922785401 0 1469459.0922785401 -100362331.48610687 0 0 0 -32667283.296115994 -2015272.5787104368 2872322.2768983245 0 2872322.2768983245 -101825163.42765903 0 0 0 -36344152.602229357 -3300622.1161847115 -3271585.3472433686 0 -3271585.3472433686 -100787009.0794034 0 0 0 -36430670.918455899 -2091727.4203677177 -1421118.347367987 0 -1421118.347367987 -102805237.66414249 0 0 0 -36713937.779578567 9285813.2161262557 -61371.463005781174 0 -61371.463005781174 -100173599.66431604 0 0 0 -31810725.256866165 2166452.4868941307 1955590.2554308809 0 1955590.2554308809 -96046421.865281343 0 0 0 -32857989.282435656 2738467.8034238815 -1369303.3483621329 0 -1369303.3483621329 -95324851.23788619 0 0 0 -32405234.202061653 -35441347.716016419 721885.55460719019 0 721885.55460719019 -94549737.584913298 0 0 0 -45496879.855325408 8033573.5798711777 638389.51144850254 0 638389.51144850254 -101345500.83986354 0 0 0 -32659174.540997267 7901793.2171162367 770061.19722312689 0 770061.19722312689 -101615379.98030186 0 0 0 -32799755.367114902 5523829.7414653301 -532251.14583778381 0 -532251.14583778381 -102405384.17742646 0 0 0 -33908544.052586317 4232231.4326398373 -131461.21087300777 0 -131461.21087300777 -99930877.121107578 0 0 0 -33494525.990963697 693609.93822598457 249837.82139050961 0 249837.82139050961 -99141699.816094398 0 0 0 -34456831.457253933 433651.06950227614 2628784.470078826 0 2628784.470078826 -88833114.819046766 0 0 0 -30939812.312340636 -53444261.789378397 -22530830.505303536 0 -22530830.505303536 -99242193.926614657 0 0 0 -53440259.500597574 680476.90489305195 -280905.20227777958 0 -280905.20227777958 -99142152.315825656 0 0 0 -34461586.393826589 -53752993.723728821 22557847.531738598 0 22557847.531738598 -99816409.940897793 0 0 0 -53749291.282619312 4108681.7133533955 139432.95776420311 0 139432.95776420311 -100028695.53174496 0 0 0 -33572004.836436987 689074.19508042524 -2606440.8041320145 0 -2606440.8041320145 -88297909.886406437 0 0 0 -30663092.491964016 7572867.5610427856 -1255833.467533648 0 -1255833.467533648 -100663159.68760371 0 0 0 -32581602.244296312 6516524.4324501753 1520952.5643841624 0 1520952.5643841624 -101305904.99320889 0 0 0 -33176283.196265578 -2094247.0408171415 2144197.2616516352 0 2144197.2616516352 -102025785.70910841 0 0 0 -36442011.462473989 -5269458.3962415457 -3342797.2612152547 0 -3342797.2612152547 -101849773.61383939 0 0 0 -37491731.203528345 9152636.0456531048 140714.5892585516 0 140714.5892585516 -100306421.39421105 0 0 0 -31903824.871995211 2569340.2104444504 1618454.9135785252 0 1618454.9135785252 -98902236.105557203 0 0 0 -33716513.563289523 2576608.8395843506 -2136564.8831894994 0 -2136564.8831894994 -98878179.174538374 0 0 0 -33705549.617233992 -22289898.00885015 790861.56468741596 0 790861.56468741596 -92683320.017052472 0 0 0 -40240626.309065901 6967290.7574287653 -1506951.4856079221 0 -1506951.4856079221 -100485968.22417521 0 0 0 -32731537.113361478 6968739.7549357414 1352645.0560021996 0 1352645.0560021996 -101115236.58452344 0 0 0 -32951273.890355825 -5250260.4845836163 2338061.3013707697 0 2338061.3013707697 -102380635.42736208 0 0 0 -37670813.569180965 -3282336.3650828004 -3060776.614909023 0 -3060776.614909023 -102338507.65833926 0 0 0 -36967295.408197701 1508169.668913126 -876819.13143628836 0 -876819.13143628836 -96770880.630136013 0 0 0 -33341948.836427689 -42768234.742446646 9867780.5039308742 0 9867780.5039308742 -94224835.839396805 0 0 0 -47947574.7036452 1242249.9983670712 723253.48926222324 0 723253.48926222324 -91012856.909625769 0 0 0 -31419712.418940544 8213187.0372009277 251511.2679182291 0 251511.2679182291 -100011367.34788966 0 0 0 -32129363.108741045 215230.6881018877 -494134.29006958008 0 -494134.29006958008 -96808952.297418118 0 0 0 -33807802.563260674 -48923840.624365531 11692372.595503576 0 11692372.595503576 -90856438.923260495 0 0 0 -48923097.841669105 7790667.9910907745 210069.73097675547 0 210069.73097675547 -100185181.90911579 0 0 0 -32338079.871308804 413538.75486446911 449229.84311014414 0 449229.84311014414 -85790554.133728474 0 0 0 -29881955.382602438 550657.77312896517 955251.54410016537 0 955251.54410016537 -87942104.849446118 0 0 0 -30587006.476711176 8777985.6694290638 138026.09621548653 0 138026.09621548653 -99875039.294570446 0 0 0 -31883968.768799543 -48640974.79798764 8952319.7720432058 0 8952319.7720432058 -90336527.879766092 0 0 0 -48642125.937213808 762164.52951964166 -451606.36239874363 0 -451606.36239874363 -95353493.697524875 0 0 0 -33106965.208801903 4302967.7639505863 -658570.00193178654 0 -658570.00193178654 -99529384.558846951 0 0 0 -33329245.878213644 2753382.6980013847 777080.80834388733 0 777080.80834388733 -99102533.246228218 0 0 0 -33722202.691879511 -18173346.208732873 18800646.401682686 0 18800646.401682686 -100345445.84292579 0 0 0 -41481577.218080521 -8533958.3378361166 -16031605.527219296 0 -16031605.527219296 -110026406.50366545 0 0 0 -41496127.69452551 7950991.1569055319 -895984.74017930031 0 -895984.74017930031 -101197685.00822246 0 0 0 -32636342.847960949 8071063.7347307652 -1003483.2480463982 0 -1003483.2480463982 -100746025.56686074 0 0 0 -32436236.641245559 6213618.8583494425 1745369.9524817914 0 1745369.9524817914 -100206824.79374123 0 0 0 -32897622.077387094 6089976.8229417801 1632082.5402502269 0 1632082.5402502269 -101194652.83078384 0 0 0 -33286636.602744579 1157437.1546287537 1149528.3628817275 0 1149528.3628817275 -102132331.9595722 0 0 0 -35341213.181730151 -219499.98428499699 823259.73986103013 0 823259.73986103013 -102481820.40119863 0 0 0 -35945462.134919286 -11549729.412241727 -2309273.4874908328 0 -2309273.4874908328 -102666738.21763605 0 0 0 -39975763.670457214 -6026376.7988141626 -3168004.2059747875 0 -3168004.2059747875 -100923659.74385691 0 0 0 -37432512.789934859 4554105.3133552074 -814247.48051941395 0 -814247.48051941395 -99465856.42108798 0 0 0 -33219112.887706518 4175268.0729389191 970143.25883316994 0 970143.25883316994 -99027342.638820648 0 0 0 -33198226.098058701 3888737.2289810181 -2036127.6219221354 0 -2036127.6219221354 -98096655.189760685 0 0 0 -32972771.286272764 8709494.5546338558 439544.10944545269 0 439544.10944545269 -100681727.42608738 0 0 0 -32190281.505008698 -26624574.929594576 3238259.2816270143 0 3238259.2816270143 -98454450.961109102 0 0 0 -43777659.06174624 2417721.0957833529 933032.46780639887 0 933032.46780639887 -98807321.319356441 0 0 0 -33736360.078250527 -787092.37011277676 -308294.03646278381 0 -308294.03646278381 -102084277.13747716 0 0 0 -36004979.327656448 -1993594.882474184 -112487.87605893612 0 -112487.87605893612 -102622185.66279483 0 0 0 -36615523.190844297 8656502.2641818523 586393.93390972912 0 586393.93390972912 -100074583.28957891 0 0 0 -31996328.358889341 2969324.479003638 -1940281.9707472324 0 -1940281.9707472324 -99229046.159670502 0 0 0 -33690902.58823362 1918739.8930558264 779329.91768270731 0 779329.91768270731 -99213954.922015011 0 0 0 -34053325.26013574 -20926000.517057061 5707349.1139903916 0 5707349.1139903916 -93160544.686928034 0 0 0 -39930290.821394771 5320583.7220545411 -626324.11575734615 0 -626324.11575734615 -102160117.31782746 0 0 0 -33893836.758520365 7690965.1181180477 -1043113.0135435611 0 -1043113.0135435611 -101451875.67269421 0 0 0 -32816318.69410181 6604591.5044458508 1494174.9663968682 0 1494174.9663968682 -100831507.38825846 0 0 0 -32979420.559334219 1112116.7558567524 1237415.902459532 0 1237415.902459532 -102142465.42599779 0 0 0 -35360622.034549236 -5125873.5777099133 -1661599.6801210865 0 -1661599.6801210865 -101455403.08248079 0 0 0 -37303446.831066847 8135754.8488379419 949949.24428248405 0 949949.24428248405 -100823167.63130116 0 0 0 -32440594.473862082 5283744.7368855476 -1928705.2983332574 0 -1928705.2983332574 -99877246.709338665 0 0 0 -33107725.690358162 2026491.5840271711 -1008737.9788184315 0 -1008737.9788184315 -101774207.78118229 0 0 0 -34911700.669004202 -12447833.802430995 4033134.2232980728 0 4033134.2232980728 -98576219.453649387 0 0 0 -38858418.63962815 3230707.8547097407 288085.40536779165 0 288085.40536779165 -102738412.54739887 0 0 0 -34827696.642441273 -7444458.6398354173 1361324.1681935191 0 1361324.1681935191 -103036884.2955637 0 0 0 -38668470.027389705 4259131.7121348381 -463260.55803185701 0 -463260.55803185701 -102872324.58428311 0 0 0 -34514617.505252004 7071302.5304576159 1302034.7715396285 0 1302034.7715396285 -101370233.41799259 0 0 0 -33004625.810637116 5169779.218272686 -201918.38812881708 0 -201918.38812881708 -102652095.77066964 0 0 0 -34118810.793339014 9697006.4170033932 -35330.279431516574 0 -35330.279431516574 -100041915.0758791 0 0 0 -31620718.030606508 338278.39452081086 666899.01402914524 0 666899.01402914524 -92877384.491853356 0 0 0 -32388687.134066291 907728.62974399782 -608008.40589112043 0 -608008.40589112043 -91062011.566691518 0 0 0 -31553999.027931627 -48804613.383979172 -855494.37521622633 0 -855494.37521622633 -90644420.029171318 0 0 0 -48807161.694602668 4549788.6182030439 -1985400.2492557168 0 -1985400.2492557168 -100188985.2376796 0 0 0 -33473718.816816688 8837135.8114910126 374934.10488754511 0 374934.10488754511 -100825157.21878433 0 0 0 -32195807.492552757 -14241653.845619321 1447894.7305038795 0 1447894.7305038795 -98689319.559973359 0 0 0 -39525840.691957355 3501766.0458800793 958958.6127872467 0 958958.6127872467 -100923298.11751568 0 0 0 -34097536.225072265 -2640980.337916553 461445.01132923644 0 461445.01132923644 -100370634.39614093 0 0 0 -36054065.156920075 6568127.0619387627 328138.09933535755 0 328138.09933535755 -102128392.97726393 0 0 0 -33446093.07036376 5039041.2836174965 -89199.276658028364 0 -89199.276658028364 -102820325.67316675 0 0 0 -34223449.536342144 -38318424.867846012 -44206212.893209852 0 -44206212.893209852 -178751678.47826749 0 0 0 -75974536.171139702 -76791357.131841034 43976103.093745738 0 43976103.093745738 -142833543.35866472 0 0 0 -76868715.171677023 -38428878.108852603 44350210.477608666 0 44350210.477608666 -178701973.15652573 0 0 0 -75995797.942882419 -76688000.252975464 -43867482.293939017 0 -43867482.293939017 -142640307.08911085 0 0 0 -76764907.569730192 562731.62716674805 -13013.050732786665 0 -13013.050732786665 -100203892.37526464 0 0 0 -34874406.261834145 441441.00758481026 -47786.931040287018 0 -47786.931040287018 -99850775.886963844 0 0 0 -34793267.207782507 559000.6748790741 23351.616423606873 0 23351.616423606873 -100166994.23101807 0 0 0 -34862797.744648695 391764.47045766405 47335.457215428352 0 47335.457215428352 -99839865.754652739 0 0 0 -34806835.449468024 6454421.7857029438 835268.57639062405 0 835268.57639062405 -102242242.14800096 0 0 0 -33525737.126804233 3806422.0230349898 387588.07201522589 0 387588.07201522589 -102476148.08187675 0 0 0 -34534404.120594621 3325214.1495220661 -308780.24712690711 0 -308780.24712690711 -102433580.44782448 0 0 0 -34687928.204405785 8715134.9626557827 -295333.88281834126 0 -295333.88281834126 -100157324.9594686 0 0 0 -32004766.498884439 1788844.2464799881 1316530.2191493511 0 1316530.2191493511 -96096705.701208353 0 0 0 -33007751.509155035 1786618.9957153797 -838295.99129101634 0 -838295.99129101634 -91851512.713735342 0 0 0 -31522712.801306963 -42254356.63562049 -6647508.407799745 0 -6647508.407799745 -94430818.965859532 0 0 0 -47839811.460517988 7225987.5965330005 -1292189.5125608444 0 -1292189.5125608444 -100739123.56399548 0 0 0 -32729597.588611662 5988857.867554903 1776502.521984607 0 1776502.521984607 -100078121.86392498 0 0 0 -32931242.398729563 -1955859.9972816706 3022905.2504774816 0 3022905.2504774816 -102625754.46241677 0 0 0 -36603565.060894489 -8520004.7044560015 -4768858.691160351 0 -4768858.691160351 -100395251.60296224 0 0 0 -38120339.707596391 3275693.6411989555 281934.26480603218 0 281934.26480603218 -102648083.01730409 0 0 0 -34780336.281636871 -905625.78283029795 -815790.93869224191 0 -815790.93869224191 -102207409.56159818 0 0 0 -36089562.370549917 7562579.1263400316 -247080.72924005985 0 -247080.72924005985 -99873638.535895109 0 0 0 -32308870.793344378 451171.5261721611 457823.12402510643 0 457823.12402510643 -97759293.926238298 0 0 0 -34057842.840023279 7166267.7049524784 -401461.88695913553 0 -401461.88695913553 -100332856.47499752 0 0 0 -32608306.069515705 837788.66085422039 979292.93609333038 0 979292.93609333038 -98287817.354147196 0 0 0 -34107510.042652607 -632416.53192168474 -884803.72298315167 0 -884803.72298315167 -91865655.121233582 0 0 0 -32374325.078604341 -39133395.38485565 -13007837.245155174 0 -13007837.245155174 -87461109.679655463 0 0 0 -44308076.772578888 335002.23046857119 590819.88829833269 0 590819.88829833269 -93769884.480819941 0 0 0 -32702208.787623107 -37887550.114003941 -11282253.774116557 0 -11282253.774116557 -91172430.814335436 0 0 0 -45170993.324918762 2961728.6706991196 -907947.06371258199 0 -907947.06371258199 -98831420.401310444 0 0 0 -33554392.105713844 5558366.5966149569 714624.9705773592 0 714624.9705773592 -99358990.422787189 0 0 0 -32830218.339160323 5152052.0455265045 -1787797.9641056061 0 -1787797.9641056061 -100323794.62258947 0 0 0 -33310109.901972294 7942695.0477406979 1023315.7870751321 0 1023315.7870751321 -100165307.60652161 0 0 0 -32277914.395573378 -12501350.363991201 6223574.5319523364 0 6223574.5319523364 -100050605.04778409 0 0 0 -39393184.394121408 362168.5659365654 -1487839.1132515371 0 -1487839.1132515371 -100823218.99703699 0 0 0 -35161367.650885224 -30895536.432756297 18207101.533884399 0 18207101.533884399 -104474274.91469593 0 0 0 -47379433.971608303 -4933444.8291240335 -7066848.8210230544 0 -7066848.8210230544 -101461771.11973357 0 0 0 -37238325.582100153 76671.088307380676 -588965.83443725109 0 -588965.83443725109 -102470004.80312741 0 0 0 -35837666.800187111 9109586.3094028234 162073.44064104557 0 162073.44064104557 -100399670.55798805 0 0 0 -31951529.487004876 2625824.0473614931 1934071.0918588489 0 1934071.0918588489 -96585762.753983259 0 0 0 -32885978.547317624 3178697.488847971 -1749182.2395413369 0 -1749182.2395413369 -96711922.312534332 0 0 0 -32736628.688290238 -31950350.617593482 2776888.7715897486 0 2776888.7715897486 -96904809.096195251 0 0 0 -45099305.899826035 8681905.8535823822 75149.658374667168 0 75149.658374667168 -101033261.0308435 0 0 0 -32322974.312041521 8487475.4865809679 225329.48381447792 0 225329.48381447792 -101434825.72654915 0 0 0 -32531572.583988547 4606168.9935623407 1143058.6230323911 0 1143058.6230323911 -101770950.26466465 0 0 0 -34007673.44488585 3616039.5032730103 727252.44292977452 0 727252.44292977452 -101531153.52944088 0 0 0 -34270289.909158826 4813260.9520514011 -1327353.9791803658 0 -1327353.9791803658 -101851228.53993964 0 0 0 -33963288.655760884 5063410.8602229357 -1306730.8838137984 0 -1306730.8838137984 -101117275.93669605 0 0 0 -33618852.776765466 8135197.8497080803 -519611.83244502544 0 -519611.83244502544 -99935633.332416534 0 0 0 -32130152.418947935 2834224.6236672401 1443160.3043007851 0 1443160.3043007851 -97318679.5524863 0 0 0 -33069559.225086689 1576434.6806069016 -561940.2132550776 0 -561940.2132550776 -95674833.832510352 0 0 0 -32934439.703166187 -34670117.867086127 -9721513.9800594859 0 -9721513.9800594859 -97054992.590990603 0 0 0 -46103788.660326868 8052605.1482906342 -696087.98429512978 0 -696087.98429512978 -100445084.94191456 0 0 0 -32337367.92776823 3553516.5138714314 1910900.3449768424 0 1910900.3449768424 -97995407.796585321 0 0 0 -33054661.948949814 949735.13160014153 420332.73163360357 0 420332.73163360357 -98617863.808822155 0 0 0 -34183845.037027717 -28582967.842572957 -6942004.420562245 0 -6942004.420562245 -97878367.472389072 0 0 0 -44261467.360236704 2451368.6973090172 270915.2502296567 0 270915.2502296567 -102718138.73948646 0 0 0 -35093369.514762044 3246746.788444519 -1607168.4753271937 0 -1607168.4753271937 -98164140.588555813 0 0 0 -33221087.830038786 7865373.3269889355 701503.42175495625 0 701503.42175495625 -99792724.52788496 0 0 0 -32174572.920313597 -28451668.296909109 9811812.2180901021 0 9811812.2180901021 -97170428.55433169 0 0 0 -43967733.897934273 882158.37780267 -504990.25310394168 0 -504990.25310394168 -98261306.616279006 0 0 0 -34082701.883466661 5011198.3198597431 -934265.46135282516 0 -934265.46135282516 -100270982.10730791 0 0 0 -33340924.325606585 3451861.2984261513 1130216.5253004432 0 1130216.5253004432 -99309174.596459866 0 0 0 -33550059.654311657 7814017.6850407124 -1123761.33049196 0 -1123761.33049196 -100349492.76031041 0 0 0 -32387416.276344299 5574818.4787724018 1872251.375180006 0 1872251.375180006 -100785580.4790194 0 0 0 -33323766.700086594 -657178.25025552511 1504008.4509242177 0 1504008.4509242177 -101581160.4806 0 0 0 -35783418.555799425 -9447383.5614208579 -4353643.9643467665 0 -4353643.9643467665 -100671165.01904786 0 0 0 -38541492.003164083 7961117.0378995538 282049.15884947777 0 282049.15884947777 -102004578.24234891 0 0 0 -32915211.421557248 7901152.3695092201 -194818.92320644855 0 -194818.92320644855 -100028192.82726526 0 0 0 -32244464.160214901 490175.87519338774 462029.32695281506 0 462029.32695281506 -96556417.667184755 0 0 0 -33623184.627196878 422020.23155550595 -599117.14494693279 0 -599117.14494693279 -85375115.342127606 0 0 0 -29733583.288700238 -49298269.462633833 -11769403.402707336 0 -11769403.402707336 -91548839.643147856 0 0 0 -49296488.187023595 -4113606.0175449252 157067.68680208921 0 157067.68680208921 -102968089.64152265 0 0 0 -37478593.48067373 9699400.2254724503 36760.522207975388 0 36760.522207975388 -100063054.65955734 0 0 0 -31627279.051929474 441991.40072464943 683212.83604949713 0 683212.83604949713 -90688032.676878691 0 0 0 -31586114.446653843 282011.51507311087 -655908.0613502264 0 -655908.0613502264 -92621540.676695958 0 0 0 -32318835.206568073 -48406148.630372576 1820215.7074940982 0 1820215.7074940982 -89893630.053491071 0 0 0 -48404922.539352268 -3455824.2339158654 6595044.092438072 0 6595044.092438072 -100699552.63356102 0 0 0 -36454381.903616875 -30626714.084790111 -18114946.9203941 0 -18114946.9203941 -104610302.68210867 0 0 0 -47332955.868414581 -3229329.8251072168 -284395.35676297545 0 -284395.35676297545 -100719684.75546646 0 0 0 -36382155.103200793 3950710.0323015451 -378777.50955736637 0 -378777.50955736637 -102533913.17409554 0 0 0 -34504121.099627972 2449707.6611844301 68511.864978075027 0 68511.864978075027 -102720478.79416323 0 0 0 -35094769.896542549 -577760.92869544029 1127520.6987208575 0 1127520.6987208575 -93630839.334121227 0 0 0 -32973010.091985941 9473384.6454824209 43756.104251146317 0 43756.104251146317 -99965800.451982975 0 0 0 -31672345.532275319 -40410266.198299363 3150810.518180348 0 3150810.518180348 -86596103.964304075 0 0 0 -44452229.5569112 482292.29620599747 -569718.89101023972 0 -569718.89101023972 -94527673.544402122 0 0 0 -32915883.436868429 8109190.8480985165 -720983.25195145607 0 -720983.25195145607 -101216246.3270278 0 0 0 -32587469.417625427 6311183.0802066326 1282912.4695295095 0 1282912.4695295095 -101357574.33684468 0 0 0 -33266236.939823151 984785.90516412258 356163.63191986084 0 356163.63191986084 -102389882.59335983 0 0 0 -35491783.840868592 -6780968.6104921103 -1991409.5230613053 0 -1991409.5230613053 -102357190.57418883 0 0 0 -38198355.714638352 6726038.4860001802 1105583.3834932446 0 1105583.3834932446 -101946248.02852654 0 0 0 -33327073.339884281 6254148.2260196209 417430.75171512365 0 417430.75171512365 -102197578.17000651 0 0 0 -33580200.480395555 7473390.8748681545 -1237306.202868402 0 -1237306.202868402 -100118714.18228865 0 0 0 -32425863.157597065 5287579.718759656 1708477.4622665644 0 1708477.4622665644 -100037679.91227484 0 0 0 -33162535.067730308 -1737495.8166260719 2726909.5561571419 0 2726909.5561571419 -101857748.52595532 0 0 0 -36258335.519903541 -13077578.059823453 -6623047.1067353487 0 -6623047.1067353487 -100363592.55255449 0 0 0 -39704409.714332283 -475148.64867854118 -1146136.7289636433 0 -1146136.7289636433 -102840719.60018015 0 0 0 -36160553.887100577 7296884.6615074277 -636088.2051769495 0 -636088.2051769495 -100310779.91210091 0 0 0 -32554863.337707698 1935240.3167703152 1400516.0596125275 0 1400516.0596125275 -99008815.647493362 0 0 0 -33975751.365752935 364986.91972994804 668841.1834295243 0 668841.1834295243 -99228640.68597436 0 0 0 -34602278.818185449 -26609547.110816289 -10547343.638220653 0 -10547343.638220653 -92447577.078859895 0 0 0 -41669993.466386646 9093404.7060680389 -237586.39291679859 0 -237586.39291679859 -100376498.94576073 0 0 0 -31949082.983892202 2298939.3251355886 1978994.2457459569 0 1978994.2457459569 -96526915.262890816 0 0 0 -32979791.578214407 -35045469.597481832 -1816306.174324315 0 -1816306.174324315 -95204064.851300538 0 0 0 -45587337.057073861 1809968.2218062878 -181937.18150925636 0 -181937.18150925636 -102497626.71722603 0 0 0 -35240680.473396897 -139358.39879739285 -887532.09484219551 0 -887532.09484219551 -94525432.367059946 0 0 0 -33132676.768049955 -39424801.981269151 145611.4677019231 0 145611.4677019231 -85421047.432321668 0 0 0 -43696047.294756785 1447113.1388498545 -1171655.3101682067 0 -1171655.3101682067 -93539947.625297308 0 0 0 -32232492.070256591 -42333569.987452231 644874.03592562675 0 644874.03592562675 -91723528.242267162 0 0 0 -46919984.380401783 316682.9509370327 446322.1407122612 0 446322.1407122612 -93660380.20435214 0 0 0 -32670294.038695216 9561052.5784859657 32821.259338498116 0 32821.259338498116 -100004987.72457266 0 0 0 -31655377.301130295 9491929.3115200996 5376.0289725065231 0 5376.0289725065231 -100107198.36896849 0 0 0 -31715344.170106888 648992.53127622604 1250804.4917401671 0 1250804.4917401671 -93987589.25470376 0 0 0 -32668508.853199601 9307377.2964644432 -162497.97379153967 0 -162497.97379153967 -100059788.77930546 0 0 0 -31763344.018994093 1451836.4652780294 1393290.0119857788 0 1393290.0119857788 -96507819.777813673 0 0 0 -33269594.159387469 -32756651.367311209 -3009444.9320038185 0 -3009444.9320038185 -88798110.097309887 0 0 0 -42544166.512617379 7659680.0128231049 -1004251.2216139436 0 -1004251.2216139436 -99955002.35300827 0 0 0 -32303362.819064617 4783178.9024811983 1717535.5942665935 0 1717535.5942665935 -99349536.664170504 0 0 0 -33098225.216591358 -1031354.4866557121 1946295.9143272042 0 1946295.9143272042 -100587250.05872595 0 0 0 -35566511.590883553 -19137274.473121047 -8553807.6449626088 0 -8553807.6449626088 -101464443.91800606 0 0 0 -42210601.436894506 3066543.0224840641 63041.865096271038 0 63041.865096271038 -102643064.96753311 0 0 0 -34851782.680767059 8666548.4462193251 345567.0352845192 0 345567.0352845192 -101137200.91949224 0 0 0 -32364728.365645766 5099163.9199225903 -1604780.5431603789 0 -1604780.5431603789 -100410416.84402108 0 0 0 -33358938.52343452 3123858.5524258614 743672.5310407877 0 743672.5310407877 -100812111.8769455 0 0 0 -34190888.663581848 -15202957.369384408 1946537.74909392 0 1946537.74909392 -102124342.79516184 0 0 0 -41064555.0575912 7961029.8058564663 -230389.33947849274 0 -230389.33947849274 -100182563.99258375 0 0 0 -32277536.965354443 -44415.955435276031 662426.62643045187 0 662426.62643045187 -97771207.329603672 0 0 0 -34235468.149763823 -338070.54961037636 -109817.18427878618 0 -109817.18427878618 -91974998.492150307 0 0 0 -32309574.164616227 -38286023.859033324 -9719767.4317313246 0 -9719767.4317313246 -85597446.354434773 0 0 0 -43359214.574713834 8249441.0955784395 -313794.85521554947 0 -313794.85521554947 -99742980.386438653 0 0 0 -32022738.751801245 1655163.907494545 850771.62478591688 0 850771.62478591688 -96787964.654689312 0 0 0 -33296480.261518002 1368748.1077764034 -1187519.6848022882 0 -1187519.6848022882 -92184532.162915945 0 0 0 -31785524.419298887 -40639881.802539974 -10736618.847874289 0 -10736618.847874289 -92596906.043826491 0 0 0 -46632875.746228248 1132735.3627187014 -1568908.9179536402 0 -1568908.9179536402 -95863236.480347633 0 0 0 -33155675.391170025 2276062.783757925 -1220598.6835175157 0 -1220598.6835175157 -95614249.150758743 0 0 0 -32668365.228450358 7324354.6664206982 177048.99672734737 0 177048.99672734737 -101960868.93856955 0 0 0 -33122779.995252013 8607582.2558736801 -457204.40722322464 0 -457204.40722322464 -101070741.91956186 0 0 0 -32362105.88229084 4698716.9693918228 1914179.9825140834 0 1914179.9825140834 -100076229.45902395 0 0 0 -33382129.371371269 2994722.4274169803 -661627.45547929406 0 -661627.45547929406 -101359240.47975314 0 0 0 -34427581.318317652 -14778007.068444639 -1703770.2261663526 0 -1703770.2261663526 -99510530.383552313 0 0 0 -40000988.108198851 6152176.4561495781 -464155.35339146852 0 -464155.35339146852 -102380749.95758677 0 0 0 -33680000.725503206 8198522.7159638405 -583789.89386165142 0 -583789.89386165142 -100139317.73777366 0 0 0 -32179278.257633209 2291121.0317023993 1613659.5727847219 0 1613659.5727847219 -98720682.013355017 0 0 0 -33750346.343578458 1440727.3698060513 -427644.0571590364 0 -427644.0571590364 -98486928.078405619 0 0 0 -33966170.24800992 -25419611.748067141 -8251567.828566812 0 -8251567.828566812 -92376250.553363174 0 0 0 -41228551.805500604 7025831.4756977558 273259.43673346937 0 273259.43673346937 -102450377.85343528 0 0 0 -33398591.232208014 2208669.8480514288 -1537910.6779211164 0 -1537910.6779211164 -98596787.292762995 0 0 0 -33735841.105648994 -28290123.847764909 9391882.2785321549 0 9391882.2785321549 -93561999.289311707 0 0 0 -42648243.097976819 7479162.661251545 595432.86640679836 0 595432.86640679836 -100402124.06206179 0 0 0 -32523036.490283728 1172981.568171978 -612266.777441293 0 -612266.777441293 -97962220.473719001 0 0 0 -33876233.616941452 8623686.9512522221 -385552.6727693975 0 -385552.6727693975 -99851083.424466133 0 0 0 -31929588.765624762 1744842.0050075054 1283876.8025642037 0 1283876.8025642037 -97556159.380295485 0 0 0 -33533961.081350803 1273039.2249110937 -1072789.3859978914 0 -1072789.3859978914 -95546412.05983445 0 0 0 -32995680.492223144 -32577786.22667326 -7799111.391804589 0 -7799111.391804589 -91007377.160823733 0 0 0 -43254807.185623944 7866894.8257670403 -430450.77199310064 0 -430450.77199310064 -100267011.84762001 0 0 0 -32340040.957648516 1508832.1000375748 1330910.591884017 0 1330910.591884017 -97964726.785768032 0 0 0 -33759563.14000535 1196764.1285080314 -84919.153617560863 0 -84919.153617560863 -94856934.732749581 0 0 0 -32781059.711484611 -35350295.817494422 -8506781.1910350174 0 -8506781.1910350174 -92804304.954020917 0 0 0 -44854110.270030379 8953607.3023619652 -364011.56172645092 0 -364011.56172645092 -100446983.69120121 0 0 0 -32022681.736094236 4663185.3195701241 1800340.1092880368 0 1800340.1092880368 -99810945.597772956 0 0 0 -33301716.097371042 3400497.4258241057 -1182038.750259757 0 -1182038.750259757 -100033149.02356505 0 0 0 -33821428.059209287 -17452145.863465846 -2853254.9279613048 0 -2853254.9279613048 -99092056.271769822 0 0 0 -40790470.747332454 8272514.4805045128 432814.65901756287 0 432814.65901756287 -101601836.99631238 0 0 0 -32665262.88053298 8599726.581365943 437923.65812420845 0 437923.65812420845 -100994417.36729741 0 0 0 -32338141.775076032 5832378.3424955606 -1101461.4988274574 0 -1101461.4988274574 -101442794.75900221 0 0 0 -33463645.745777249 2653517.7775250673 118100.30890139937 0 118100.30890139937 -102342072.15147758 0 0 0 -34890994.030883431 5483010.2014495134 -1537730.0697183311 0 -1537730.0697183311 -101538621.09381437 0 0 0 -33619463.812327623 3778049.9289779663 580542.75621986389 0 580542.75621986389 -101881805.99462104 0 0 0 -34336314.622974873 1013007.4896936715 -388394.16723066568 0 -388394.16723066568 -102736819.54489975 0 0 0 -35603334.219322056 117777.85067808628 214408.74673229456 0 214408.74673229456 -102295667.25146681 0 0 0 -35762261.290276051 -5538406.8022953272 1217043.9091359079 0 1217043.9091359079 -99525879.711347044 0 0 0 -36772500.279774785 -7298683.5650482178 425595.13724597264 0 425595.13724597264 -102348324.88861156 0 0 0 -38376452.958781004 2443719.8071670532 -355859.37156070769 0 -355859.37156070769 -102539172.22392392 0 0 0 -35033408.345864773 1808245.0676511526 -22591.806860312819 0 -22591.806860312819 -102724006.70908856 0 0 0 -35320516.574503064 1794501.9983556867 -999220.55103582144 0 -999220.55103582144 -93336376.886060834 0 0 0 -32039656.210696876 -40325250.111766696 -1102933.2764572334 0 -1102933.2764572334 -92429946.579534754 0 0 0 -46464318.841955513 979857.8648866415 -1611490.9521151185 0 -1611490.9521151185 -95831757.317336082 0 0 0 -33198164.808357358 -34952768.163619533 -861641.00138460752 0 -861641.00138460752 -89566633.927295461 0 0 0 -43581790.731820241 9259170.2629058361 -138736.69621443748 0 -138736.69621443748 -100204003.24786234 0 0 0 -31830691.544734955 1141660.2055308223 1547191.6929590106 0 1547191.6929590106 -95615618.563241124 0 0 0 -33065885.425198615 9428800.3577270508 3468.05999147892 0 3468.05999147892 -100016594.32485962 0 0 0 -31705727.888496399 1536582.1036067009 1135774.4590004683 0 1135774.4590004683 -95419064.042539239 0 0 0 -32858868.678626537 7262343.9374364018 -1284939.9579069614 0 -1284939.9579069614 -100335296.72524416 0 0 0 -32575533.475732505 6530499.4873096943 1560231.3195534497 0 1560231.3195534497 -100596571.09638262 0 0 0 -32923125.063175678 -5003034.878238678 3274286.0972835794 0 3274286.0972835794 -102380730.72690105 0 0 0 -37584317.961798906 -9051871.4251069576 -4745785.0849523842 0 -4745785.0849523842 -103823795.89417288 0 0 0 -39506483.561747983 -5680424.3465711176 74591.139593452215 0 74591.139593452215 -99309321.795024157 0 0 0 -36746411.149558306 8723939.0676488876 173094.61396628618 0 173094.61396628618 -101178105.64362001 0 0 0 -32358958.301589966 8782024.3966929913 251140.8218997193 0 251140.8218997193 -100887579.04223394 0 0 0 -32236944.125939608 4880894.7428183742 -1633629.958702445 0 -1633629.958702445 -101229433.89047638 0 0 0 -33721988.701680288 4445293.9421313405 -1607161.4881111383 0 -1607161.4881111383 -100443059.31249309 0 0 0 -33599217.879626811 4084074.3877826929 1060614.7244667411 0 1060614.7244667411 -100846109.33665824 0 0 0 -33866712.232106447 3932867.541580026 1124042.8637495637 0 1124042.8637495637 -101358928.34938325 0 0 0 -34099121.282731108 -9358015.0179685354 1137215.6190744101 0 1137215.6190744101 -99126183.104491711 0 0 0 -37969469.342861056 -14766087.856874287 259761.96384198964 0 259761.96384198964 -101287375.90053546 0 0 0 -40618712.315093458 3942333.3315903544 -540680.16327786446 0 -540680.16327786446 -102178887.68321359 0 0 0 -34382794.023068249 8983328.7786662579 111293.05536091328 0 111293.05536091328 -100754688.50901794 0 0 0 -32119975.905623198 3803266.6637111902 1571709.1346164942 0 1571709.1346164942 -100327797.90857244 0 0 0 -33783585.93570137 4345588.5081670284 -1637253.5342976451 0 -1637253.5342976451 -100523390.120785 0 0 0 -33662230.564416409 -14913044.299282193 1210300.1862986088 0 1210300.1862986088 -99076293.720244884 0 0 0 -39896268.306834459 -10793550.451744527 688156.71748477221 0 688156.71748477221 -101776901.92095453 0 0 0 -39399658.330444604 7460690.0539602041 -1172119.4810865521 0 -1172119.4810865521 -101107484.26350021 0 0 0 -32776377.973338723 6635556.6295701265 1712013.2046763301 0 1712013.2046763301 -100145347.07460022 0 0 0 -32728426.655760527 -679862.47803390026 2242423.6404159665 0 2242423.6404159665 -102795789.00723398 0 0 0 -36216478.019843817 -7633856.3265144229 -3004724.6173742712 0 -3004724.6173742712 -101750493.51896071 0 0 0 -38284522.445916235 3665513.2281544209 -170932.28816860914 0 -170932.28816860914 -102612290.58828282 0 0 0 -34631372.076044917 -42061.523547172546 -546682.05452698469 0 -546682.05452698469 -97640873.408828735 0 0 0 -34189027.226331472 -37537780.046201631 9894333.8767039776 0 9894333.8767039776 -84500193.176346555 0 0 0 -42713290.627891861 8180696.3440191746 182771.85547673702 0 182771.85547673702 -100057600.08818531 0 0 0 -32156916.310457945 -402064.37379419804 481914.92626810074 0 481914.92626810074 -91870232.230673075 0 0 0 -32295303.811563611 7161229.69003582 -1157247.1419481635 0 -1157247.1419481635 -100768823.11376667 0 0 0 -32762657.698305607 4948373.9539598227 1851522.8913564682 0 1851522.8913564682 -99739434.62439847 0 0 0 -33176871.234653473 -506709.21630257368 2500761.7855297327 0 2500761.7855297327 -102209166.99377012 0 0 0 -35950556.673525453 -12935336.142500699 -6528191.1080950946 0 -6528191.1080950946 -98172293.573866606 0 0 0 -38887670.400728524 8328584.954736948 345898.21700201556 0 345898.21700201556 -101339280.73630524 0 0 0 -32553743.52354908 4168140.8599528596 571342.44817167521 0 571342.44817167521 -102072668.80090255 0 0 0 -34266584.779332466 1081049.4344190359 -16070.124889642 0 -16070.124889642 -102586983.06248522 0 0 0 -35527076.769823074 6692526.3731000423 863743.59986077249 0 863743.59986077249 -101735075.077034 0 0 0 -33264892.046376944 8361123.6732705832 -483302.7609552145 0 -483302.7609552145 -100282948.70786166 0 0 0 -32172638.762107134 2978735.0486047268 1707513.722165525 0 1707513.722165525 -97049662.940957069 0 0 0 -32924824.762323141 2025325.2990972996 -578643.66483433545 0 -578643.66483433545 -95427655.172985792 0 0 0 -32690815.455860972 -35906487.341635808 -7116228.2589153349 0 -7116228.2589153349 -97740850.043562233 0 0 0 -46776568.084819317 7055477.4012994766 921146.4285069257 0 921146.4285069257 -102043213.14135885 0 0 0 -33245707.509020567 
</DataArray>
</CellData>
</Piece>
</UnstructuredGrid>
</VTKFile>
