<?xml version="1.0"?>
<VTKFile type="UnstructuredGrid" version="0.1" byte_order="LittleEndian">
<UnstructuredGrid>
<Piece NumberOfPoints="3162" NumberOfCells="1054">
<Points>
<DataArray type="Float64" NumberOfComponents="3" format="ascii">
0.39507969989512881 0.74417394063201048 0 0.42715538333808079 0.70077759375307946 0 0.44764943295894188 0.73752415265401661 0 0.74417394063200648 0.6049203001048884 0 0.70087539567735502 0.57165914616526226 0 0.73752415265401194 0.55235056704108476 0 0.25582605936799319 0.39507969989513358 0 0.2963043386970643 0.4298320229681446 0 0.26247584734598628 0.44764943295894732 0 0.60492030010488373 0.25582605936799729 0 0.57188338999077359 0.29874123486230147 0 0.55175647814720108 0.26104505532086641 0 0.56566515596461675 0.63670464971409091 0 0.61233489393901674 0.60846740003560018 0 0.60879112811253555 0.66592422311595834 0 0.6519524273377173 0.64249931920594539 0 0.60879112811253555 0.66592422311595834 0 0.61233489393901674 0.60846740003560018 0 0.640156794425081 0.43301393728221721 0 0.60122390529523662 0.39097801071820221 0 0.66346942254826746 0.391530810754116 0 0.6424993192059415 0.3480475726622802 0 0.66346942254826746 0.391530810754116 0 0.60122390529523662 0.39097801071820221 0 0.74198804864688339 0.90892718720327403 0 0.77688977118331393 0.94706199857866258 0 0.71789175274016548 0.95136708251202151 0 0.091072812796719582 0.74198804864687795 0 0.052938001421335763 0.77688977118331159 0 0.04863291748797445 0.71789175274016204 0 0.89586000931544074 0.25714619498770419 0 0.94465622530468663 0.23167460333446291 0 0.94915666091748963 0.28320804985299752 0 0.25714619498771307 0.1041399906845497 0 0.23167460333446299 0.05534377469531044 0 0.28320804985300141 0.050843339082505573 0 0.89999999999958358 1 0 0.84999999999965292 1 0 0.90554214442080472 0.95994154153067524 0 0 0.89999999999958358 0 0 0.84999999999965292 0 0.040058458469322648 0.90554214442079806 0 0.040058458469319477 0.094457855579157729 0 0 0.15000000000062411 0 0 0.10000000000041601 0 0.094457855579188163 0.95994154153068711 0 0.15000000000062411 1 0 0.10000000000041601 1 0 0.90554214442081604 0.040058458469347469 0 0.84999999999960507 0 0 0.89999999999973679 0 0 0.95994154153065969 0.90554214442078618 0 1 0.84999999999960507 0 1 0.89999999999973679 0 1 0.099999999999814668 0 1 0.14999999999970359 0 0.95994154153057998 0.094457855579277675 0 0.099999999999814668 0 0 0.14999999999970359 0 0 0.094457855579284614 0.040058458469418363 0 1 0.19999999999955789 0 0.94465622530468663 0.23167460333446291 0 0.96080966346491015 0.18035159017841959 0 0.19999999999955789 0 0 0.23167460333446299 0.05534377469531044 0 0.18035159017842109 0.039190336535090492 0 0.79999999999999982 1 0 0.77688977118331393 0.94706199857866258 0 0.82675923981951416 0.95611053755456221 0 0 0.79999999999999982 0 0.052938001421335763 0.77688977118331159 0 0.043889462445437968 0.82675923981951283 0 1 0.79999999999947335 0 0.96071093996985157 0.81954008780615684 0 0.9442075111696665 0.76777356182390766 0 0.79999999999947335 0 0 0.82050174006822896 0.038839999600956771 0 0.76543419162344684 0.056452228708420968 0 0.20000000000083221 1 0 0.18045991219397989 0.960710939969875 0 0.23222643817617661 0.94420751116970569 0 0 0.20000000000083221 0 0.038839999600931263 0.17949825993190149 0 0.056452228708379938 0.23456580837661581 0 0.50000000000002642 0.7803135888501761 0 0.53770425635794761 0.80104587463999666 0 0.49771727055908782 0.83998685797641781 0 0.2196864111498267 0.50000000000003153 0 0.1989632851005598 0.53769147668950479 0 0.16001314202358469 0.49771727055909287 0 0.78031358885017377 0.49999999999997569 0 0.80106707846564795 0.46230714888029367 0 0.83998574657308889 0.50228528270184081 0 0.49999999999997108 0.21968641114982909 0 0.46229330881044273 0.19890916456654811 0 0.50228272944093777 0.16001314202359701 0 0.79999999999999982 1 0 0.75000000000034661 1 0 0.77688977118331393 0.94706199857866258 0 0 0.79999999999999982 0 0 0.75000000000034661 0 0.052938001421335763 0.77688977118331159 0 1 0.19999999999955789 0 1 0.24999999999941211 0 0.94465622530468663 0.23167460333446291 0 0.19999999999955789 0 0 0.24999999999941211 0 0 0.23167460333446299 0.05534377469531044 0 1 0.74999999999934175 0 1 0.79999999999947335 0 0.9442075111696665 0.76777356182390766 0 0.74999999999934175 0 0 0.79999999999947335 0 0 0.76543419162344684 0.056452228708420968 0 0.25000000000104028 1 0 0.20000000000083221 1 0 0.23222643817617661 0.94420751116970569 0 0 0.25000000000104028 0 0 0.20000000000083221 0 0.056452228708379938 0.23456580837661581 0 1 0.74999999999934175 0 0.9442075111696665 0.76777356182390766 0 0.94635952848698612 0.71209247961721311 0 0.74999999999934175 0 0 0.76543419162344684 0.056452228708420968 0 0.71174922810186925 0.053730171687687178 0 0.25000000000104028 1 0 0.23222643817617661 0.94420751116970569 0 0.28790752038294382 0.94635952848702642 0 0 0.25000000000104028 0 0.056452228708379938 0.23456580837661581 0 0.053730171687646627 0.28825077189828552 0 0.8289812646369813 0.82898126463698818 0 0.87660297360393757 0.8104127896505644 0 0.88962265630811221 0.85311725681459705 0 0.17101873536300011 0.82898126463696109 0 0.18958721034944021 0.87660297360394568 0 0.14688274318541941 0.88962265630811932 0 0.39507969989512881 0.74417394063201048 0 0.44764943295894188 0.73752415265401661 0 0.43306783640023289 0.78031198216144404 0 0.74417394063200648 0.6049203001048884 0 0.73752415265401194 0.55235056704108476 0 0.78031198216143516 0.56693216359979737 0 0.25582605936799319 0.39507969989513358 0 0.26247584734598628 0.44764943295894732 0 0.21968801783855879 0.43306783640023788 0 0.60492030010488373 0.25582605936799729 0 0.55175647814720108 0.26104505532086641 0 0.56683314878414581 0.21944955250104689 0 0.90554214442080472 0.95994154153067524 0 0.84999999999965292 1 0 0.86696410734367158 0.94753096683315619 0 0.040058458469322648 0.90554214442079806 0 0 0.84999999999965292 0 0.052469033166843738 0.86696410734366991 0 0.054872692726595548 0.13410685639845171 0 0 0.15000000000062411 0 0.040058458469319477 0.094457855579157729 0 0.13834721989462789 0.94095916274077984 0 0.15000000000062411 1 0 0.094457855579188163 0.95994154153068711 0 0.86589314360155567 0.054872692726639853 0 0.84999999999960507 0 0 0.90554214442081604 0.040058458469347469 0 0.94095916274074942 0.86165278010542579 0 1 0.84999999999960507 0 0.95994154153065969 0.90554214442078618 0 0.95994154153057998 0.094457855579277675 0 1 0.14999999999970359 0 0.94100406608115506 0.1383574446607955 0 0.094457855579284614 0.040058458469418363 0 0.14999999999970359 0 0 0.1383574446607988 0.058995933918849157 0 0.1104775404132264 0.2631175359816938 0 0.099694771212264055 0.22074048840547039 0 0.15899695163321451 0.22783674912227669 0 0.73688246401832591 0.11047754041323141 0 0.77925951159456153 0.09969477121230251 0 0.77216325087772952 0.15899695163319821 0 0.88949062093135778 0.73694585442531257 0 0.9041449437197947 0.7786886066890556 0 0.839908789927305 0.77106070975262608 0 0.26305414557470391 0.88949062093136155 0 0.22131139331094829 0.9041449437198319 0 0.22893929024737289 0.83990878992727813 0 0.74198804864688339 0.90892718720327403 0 0.71789175274016548 0.95136708251202151 0 0.70475631558365914 0.90098127745102974 0 0.091072812796719582 0.74198804864687795 0 0.04863291748797445 0.71789175274016204 0 0.099018722548963364 0.70475631558365193 0 0.89586000931544074 0.25714619498770419 0 0.94915666091748963 0.28320804985299752 0 0.89886191075654698 0.29506339503703172 0 0.25714619498771307 0.1041399906845497 0 0.28320804985300141 0.050843339082505573 0 0.29506339503703888 0.1011380892434444 0 0.65773042910151891 0.073296788161472337 0 0.62160809078275991 0.1093532031139005 0 0.6048537357103756 0.060530514380187868 0 0.92670321183853355 0.65773042910151081 0 0.89064679688610338 0.6216080907827598 0 0.93946948561981514 0.60485373571037115 0 0.073296788161418117 0.34226957089850552 0 0.10935320311385981 0.37839190921727089 0 0.06053051438015096 0.39514626428972788 0 0.3422695708985129 0.92670321183858773 0 0.37839190921727062 0.89064679688614412 0 0.39514626428973221 0.93946948561985189 0 0.49771727055908782 0.83998685797641781 0 0.53770425635794761 0.80104587463999666 0 0.54047998161173716 0.84333512669480526 0 0.16001314202358469 0.49771727055909287 0 0.1989632851005598 0.53769147668950479 0 0.1566648733051971 0.54047998161174216 0 0.83998574657308889 0.50228528270184081 0 0.80106707846564795 0.46230714888029367 0 0.84333218736938698 0.4595365182652234 0 0.50228272944093777 0.16001314202359701 0 0.46229330881044273 0.19890916456654811 0 0.45952001838826873 0.15666487330524251 0 0.8289812646369813 0.82898126463698818 0 0.88962265630811221 0.85311725681459705 0 0.85174853583809862 0.87705234031428159 0 0.17101873536300011 0.82898126463696109 0 0.14688274318541941 0.88962265630811932 0 0.1229476596857173 0.85174853583809695 0 0.83199780613337848 0.1690131600686714 0 0.8517485358380722 0.12294765968568611 0 0.88777909259956078 0.1484760565886154 0 0.16901316006868169 0.16800219386663079 0 0.12294765968567151 0.14825146416195439 0 0.1484760565886207 0.1122209074004519 0 0.15899695163321451 0.22783674912227669 0 0.099694771212264055 0.22074048840547039 0 0.12587517708284679 0.1889683322666954 0 0.77216325087772952 0.15899695163319821 0 0.77925951159456153 0.09969477121230251 0 0.8110316677333288 0.125875177082863 0 0.83199780613337848 0.1690131600686714 0 0.88777909259956078 0.1484760565886154 0 0.87355793346388477 0.18922011052113649 0 0.16901316006868169 0.16800219386663079 0 0.1484760565886207 0.1122209074004519 0 0.18922011052115781 0.12644206653611201 0 0.32191828326940508 0.76395804595204586 0 0.34270280102445921 0.71672416762035873 0 0.35837423432538362 0.77730446904312345 0 0.76395804595204597 0.67808171673060369 0 0.71518943060973483 0.65679402931717101 0 0.77730446904309636 0.64162576567462737 0 0.2360419540479583 0.32191828326940741 0 0.28473805236128291 0.34355768118673757 0 0.22269553095687891 0.35837423432538801 0 0.67808171673060202 0.23604195404795861 0 0.65679402931716913 0.28481056939027388 0 0.64162576567462404 0.22269553095690481 0 0.26305414557470391 0.88949062093136155 0 0.28790752038294382 0.94635952848702642 0 0.23222643817617661 0.94420751116970569 0 0.1104775404132264 0.2631175359816938 0 0.053730171687646627 0.28825077189828552 0 0.056452228708379938 0.23456580837661581 0 0.88949062093135778 0.73694585442531257 0 0.94635952848698612 0.71209247961721311 0 0.9442075111696665 0.76777356182390766 0 0.73688246401832591 0.11047754041323141 0 0.71174922810186925 0.053730171687687178 0 0.76543419162344684 0.056452228708420968 0 0.22893929024737289 0.83990878992727813 0 0.22131139331094829 0.9041449437198319 0 0.18958721034944021 0.87660297360394568 0 0.839908789927305 0.77106070975262608 0 0.9041449437197947 0.7786886066890556 0 0.87660297360393757 0.8104127896505644 0 0.35837423432538362 0.77730446904312345 0 0.34270280102445921 0.71672416762035873 0 0.39507969989512881 0.74417394063201048 0 0.77730446904309636 0.64162576567462737 0 0.71518943060973483 0.65679402931717101 0 0.74417394063200648 0.6049203001048884 0 0.22269553095687891 0.35837423432538801 0 0.28473805236128291 0.34355768118673757 0 0.25582605936799319 0.39507969989513358 0 0.64162576567462404 0.22269553095690481 0 0.65679402931716913 0.28481056939027388 0 0.60492030010488373 0.25582605936799729 0 0.57484409313590223 0.58437321637184114 0 0.53542397956703913 0.60119875982347493 0 0.53087311892591971 0.55299263141448529 0 1 0.59999999999894682 0 0.93946948561981514 0.60485373571037115 0 0.95638719633882641 0.5599388881718611 0 0.59999999999894682 0 0 0.6048537357103756 0.060530514380187868 0 0.55993888817186677 0.043612803661174412 0 0.40000000000166441 1 0 0.39514626428973221 0.93946948561985189 0 0.44006111182840962 0.9563871963389079 0 0 0.40000000000166441 0 0.06053051438015096 0.39514626428972788 0 0.043612803661092707 0.44006111182840391 0 0.43590673999053309 0.90289902042279657 0 0.48669777060454272 0.93510666819646593 0 0.44006111182840962 0.9563871963389079 0 0.097100979577207341 0.43590673999053198 0 0.064893331803534807 0.48669777060454478 0 0.043612803661092707 0.44006111182840391 0 0.90289902042272274 0.56409326000946114 0 0.93510666819640953 0.51330222939551939 0 0.95638719633882641 0.5599388881718611 0 0.56409326000946236 0.097100979577281268 0 0.5133022293955174 0.064893331803591428 0 0.55993888817186677 0.043612803661174412 0 0.57387636360620708 0.54318431390135336 0 0.57484409313590223 0.58437321637184114 0 0.53087311892591971 0.55299263141448529 0 1 0.69999999999921003 0 1 0.74999999999934175 0 0.94635952848698612 0.71209247961721311 0 0.69999999999921003 0 0 0.74999999999934175 0 0 0.71174922810186925 0.053730171687687178 0 0.30000000000124832 1 0 0.25000000000104028 1 0 0.28790752038294382 0.94635952848702642 0 0 0.30000000000124832 0 0 0.25000000000104028 0 0.053730171687646627 0.28825077189828552 0 0.90289902042272274 0.56409326000946114 0 0.85130417396420255 0.59518556406638579 0 0.85551478316835361 0.54646211938695222 0 0.43590673999053309 0.90289902042279657 0 0.40481452396081791 0.85130421228141606 0 0.45353891581270822 0.85551523377818905 0 0.56409326000946236 0.097100979577281268 0 0.59518547603920147 0.14869578771864489 0 0.54646108418729233 0.1444847662218687 0 0.097100979577207341 0.43590673999053198 0 0.14869578771858949 0.40481452396082068 0 0.1444847662218138 0.45353891581271188 0 0.90289902042272274 0.56409326000946114 0 0.89064679688610338 0.6216080907827598 0 0.85130417396420255 0.59518556406638579 0 0.56409326000946236 0.097100979577281268 0 0.62160809078275991 0.1093532031139005 0 0.59518547603920147 0.14869578771864489 0 0.43590673999053309 0.90289902042279657 0 0.37839190921727062 0.89064679688614412 0 0.40481452396081791 0.85130421228141606 0 0.097100979577207341 0.43590673999053198 0 0.10935320311385981 0.37839190921727089 0 0.14869578771858949 0.40481452396082068 0 0.74417394063200648 0.6049203001048884 0 0.69288637798153729 0.61204665218001397 0 0.70087539567735502 0.57165914616526226 0 0.39507969989512881 0.74417394063201048 0 0.38642358467307758 0.69286258923597266 0 0.42715538333808079 0.70077759375307946 0 0.60492030010488373 0.25582605936799729 0 0.61204665218000809 0.30711362201846659 0 0.57188338999077359 0.29874123486230147 0 0.25582605936799319 0.39507969989513358 0 0.30597655500381687 0.3934681685211931 0 0.2963043386970643 0.4298320229681446 0 0.51484304721220842 0.69707233951836334 0 0.57051182622447827 0.69668652018496713 0 0.54465502325161819 0.74717983044080061 0 0.30292766048163949 0.51484304721221474 0 0.30429740679959738 0.56913905146460098 0 0.25287139441262568 0.54458355434492378 0 0.70015119067225129 0.48481914991727459 0 0.69595787604187809 0.43071000156707989 0 0.74730218607442667 0.45539100053644521 0 0.48378871228000903 0.29745177826977359 0 0.43059486795334201 0.30395973419063538 0 0.45533136021725079 0.2525687312087147 0 0.91838802593870927 0.18172590289757809 0 0.96080966346491015 0.18035159017841959 0 0.94465622530468663 0.23167460333446291 0 0.18172590289758209 0.08161197406129285 0 0.18035159017842109 0.039190336535090492 0 0.23167460333446299 0.05534377469531044 0 0.81709574086843206 0.91318696080656769 0 0.82675923981951416 0.95611053755456221 0 0.77688977118331393 0.94706199857866258 0 0.086813039193431391 0.81709574086842884 0 0.043889462445437968 0.82675923981951283 0 0.052938001421335763 0.77688977118331159 0 0.91838802593884228 0.81827409710237209 0 0.9442075111696665 0.76777356182390766 0 0.96071093996985157 0.81954008780615684 0 0.82118136511706341 0.082875076569723011 0 0.76543419162344684 0.056452228708420968 0 0.82050174006822896 0.038839999600956771 0 0.1817259028976386 0.91838802593888857 0 0.23222643817617661 0.94420751116970569 0 0.18045991219397989 0.960710939969875 0 0.08287507656968085 0.1788186348829835 0 0.056452228708379938 0.23456580837661581 0 0.038839999600931263 0.17949825993190149 0 0.59819537371016407 0.74380966024143391 0 0.54465502325161819 0.74717983044080061 0 0.57051182622447827 0.69668652018496713 0 0.25619033975856881 0.59819537371016862 0 0.25287139441262568 0.54458355434492378 0 0.30429740679959738 0.56913905146460098 0 0.74380966024142703 0.40180462628984132 0 0.74730218607442667 0.45539100053644521 0 0.69595787604187809 0.43071000156707989 0 0.40180462628983732 0.2561903397585753 0 0.45533136021725079 0.2525687312087147 0 0.43059486795334201 0.30395973419063538 0 0.8312019486901514 0.72745002167959472 0 0.77998481823117694 0.71397317153691997 0 0.80847852346122429 0.67208120229789559 0 0.27254997832041528 0.8312019486901443 0 0.28602682846308641 0.77998481823117594 0 0.32791879770213411 0.80847852346120164 0 0.72767516840721058 0.16853767177393791 0 0.71397317153692708 0.22001518176882201 0 0.67208120229787616 0.1915214765387884 0 0.1685376717739448 0.27232483159280108 0 0.22001518176882229 0.28602682846307981 0 0.19152147653881049 0.32791879770215432 0 0.85607519768343354 0.69380468830529196 0 0.8312019486901514 0.72745002167959472 0 0.80847852346122429 0.67208120229789559 0 0.69379929796456197 0.14392209494791061 0 0.72767516840721058 0.16853767177393791 0 0.67208120229787616 0.1915214765387884 0 0.30619531169472608 0.85607519768342955 0 0.27254997832041528 0.8312019486901443 0 0.32791879770213411 0.80847852346120164 0 0.14392209494791439 0.30620070203545702 0 0.1685376717739448 0.27232483159280108 0 0.19152147653881049 0.32791879770215432 0 0.6519524273377173 0.64249931920594539 0 0.69288637798153729 0.61204665218001397 0 0.71518943060973483 0.65679402931717101 0 0.35944937237716967 0.65164789808436319 0 0.38642358467307758 0.69286258923597266 0 0.34270280102445921 0.71672416762035873 0 0.6424993192059415 0.3480475726622802 0 0.61204665218000809 0.30711362201846659 0 0.65679402931716913 0.28481056939027388 0 0.34804757266227387 0.35750068079406011 0 0.30597655500381687 0.3934681685211931 0 0.28473805236128291 0.34355768118673757 0 0.66919832404887702 0.81820888699730587 0 0.66923299355723143 0.8804077449518628 0 0.63969251517836323 0.84598529912890386 0 0.70085728320704077 0.84350379029875056 0 0.66923299355723143 0.8804077449518628 0 0.66919832404887702 0.81820888699730587 0 0.1817911130026923 0.66919832404888702 0 0.1195922550481313 0.66923299355722787 0 0.1540147008710982 0.63969251517836956 0 0.1564962097012354 0.70085728320703999 0 0.1195922550481313 0.66923299355722787 0 0.1817911130026923 0.66919832404888702 0 0.8182088869973061 0.33080167595111531 0 0.88040774495187946 0.33076700644278889 0 0.84598529912889664 0.36030748482164038 0 0.84350379029877964 0.29914271679296989 0 0.88040774495187946 0.33076700644278889 0 0.8182088869973061 0.33080167595111531 0 0.33080167595110582 0.18179111300269291 0 0.33076700644279272 0.1195922550481146 0 0.3603074848216346 0.15401470087110539 0 0.29914271679297122 0.15649620970120659 0 0.33076700644279272 0.1195922550481146 0 0.33080167595110582 0.18179111300269291 0 0.49189101320880302 0.59024331187324797 0 0.51172471858873747 0.64015771271794875 0 0.45517457031814612 0.62743100079604397 0 0.54901591374940373 0.42306523525165751 0 0.5047849391802508 0.40719950955717021 0 0.54715635490880632 0.37829016026862072 0 0.43590673999053309 0.90289902042279657 0 0.48758069708049379 0.89080072540186539 0 0.48669777060454272 0.93510666819646593 0 0.097100979577207341 0.43590673999053198 0 0.1091992745981364 0.48758069708049778 0 0.064893331803534807 0.48669777060454478 0 0.90289902042272274 0.56409326000946114 0 0.89079805168298443 0.51242544533572376 0 0.93510666819640953 0.51330222939551939 0 0.56409326000946236 0.097100979577281268 0 0.51241930291950477 0.1091992745981813 0 0.5133022293955174 0.064893331803591428 0 0.49189101320880302 0.59024331187324797 0 0.53542397956703913 0.60119875982347493 0 0.51172471858873747 0.64015771271794875 0 0.56566515596461675 0.63670464971409091 0 0.51172471858873747 0.64015771271794875 0 0.53542397956703913 0.60119875982347493 0 0.65773042910151891 0.073296788161472337 0 0.66251865414987876 0.1160340021949529 0 0.62160809078275991 0.1093532031139005 0 0.92670321183853355 0.65773042910151081 0 0.88396545633132484 0.6625197322180193 0 0.89064679688610338 0.6216080907827598 0 0.3422695708985129 0.92670321183858773 0 0.33748026778199908 0.88396545633134682 0 0.37839190921727062 0.89064679688614412 0 0.073296788161418117 0.34226957089850552 0 0.11603400219493119 0.33748134585014028 0 0.10935320311385981 0.37839190921727089 0 0.8289812646369813 0.82898126463698818 0 0.79422489417873421 0.79640925234634441 0 0.839908789927305 0.77106070975262608 0 0.17101873536300011 0.82898126463696109 0 0.20359074765364421 0.79422489417871855 0 0.22893929024737289 0.83990878992727813 0 0.83199780613337848 0.1690131600686714 0 0.80027482104603809 0.20596721135052129 0 0.77216325087772952 0.15899695163319821 0 0.16901316006868169 0.16800219386663079 0 0.20596721135052939 0.19972517895396219 0 0.15899695163321451 0.22783674912227669 0 0.84598529912884157 0.63969251517827153 0 0.80847852346122429 0.67208120229789559 0 0.8028306815476034 0.61296984760642026 0 0.36030748482174152 0.84598529912882459 0 0.32791879770213411 0.80847852346120164 0 0.38703015239361932 0.80283068154761972 0 0.63969251517826664 0.15401470087115929 0 0.67208120229787616 0.1915214765387884 0 0.61296984760641449 0.19716931845240021 0 0.15401470087117619 0.36030748482174652 0 0.19152147653881049 0.32791879770215432 0 0.197169318452384 0.38703015239362498 0 0.61233489393901674 0.60846740003560018 0 0.61866949026800744 0.55492322767366287 0 0.65501639383771026 0.594528181397324 0 0.74198804864688339 0.90892718720327403 0 0.78020430794084783 0.88768307197553598 0 0.77688977118331393 0.94706199857866258 0 0.091072812796719582 0.74198804864687795 0 0.11231692802445629 0.78020430794084028 0 0.052938001421335763 0.77688977118331159 0 0.81709574086843206 0.91318696080656769 0 0.77688977118331393 0.94706199857866258 0 0.78020430794084783 0.88768307197553598 0 0.086813039193431391 0.81709574086842884 0 0.052938001421335763 0.77688977118331159 0 0.11231692802445629 0.78020430794084028 0 0.73982803480991577 0.79629608696991705 0 0.79422489417873421 0.79640925234634441 0 0.78284912262770068 0.83746308049763585 0 0.8289812646369813 0.82898126463698818 0 0.78284912262770068 0.83746308049763585 0 0.79422489417873421 0.79640925234634441 0 0.20370391303007401 0.73982803480989479 0 0.20359074765364421 0.79422489417871855 0 0.16253691950235041 0.78284912262768558 0 0.17101873536300011 0.82898126463696109 0 0.16253691950235041 0.78284912262768558 0 0.20359074765364421 0.79422489417871855 0 0.79629608696994103 0.26017196519011448 0 0.80027482104603809 0.20596721135052129 0 0.84534053180161173 0.2262639405833009 0 0.83199780613337848 0.1690131600686714 0 0.84534053180161173 0.2262639405833009 0 0.80027482104603809 0.20596721135052129 0 0.26017196519013502 0.20370391303005 0 0.20596721135052939 0.19972517895396219 0 0.22626394058331961 0.15465946819838111 0 0.16901316006868169 0.16800219386663079 0 0.22626394058331961 0.15465946819838111 0 0.20596721135052939 0.19972517895396219 0 0.90045039720880915 0.9020090423547924 0 0.94156647488775558 0.94156647488774259 0 0.90554214442080472 0.95994154153067524 0 0.90082758526900886 0.098076845682916511 0 0.94156647488778256 0.058433525112256718 0 0.95994154153057998 0.094457855579277675 0 0.90082758526900886 0.098076845682916511 0 0.90554214442081604 0.040058458469347469 0 0.94156647488778256 0.058433525112256718 0 0.097990957645208238 0.90045039720880915 0 0.058433525112254137 0.94156647488774581 0 0.040058458469322648 0.90554214442079806 0 0.90045039720880915 0.9020090423547924 0 0.95994154153065969 0.90554214442078618 0 0.94156647488775558 0.94156647488774259 0 0.098076845682915317 0.099172414730993488 0 0.058433525112266523 0.058433525112214509 0 0.094457855579284614 0.040058458469418363 0 0.098076845682915317 0.099172414730993488 0 0.040058458469319477 0.094457855579157729 0 0.058433525112266523 0.058433525112214509 0 0.097990957645208238 0.90045039720880915 0 0.094457855579188163 0.95994154153068711 0 0.058433525112254137 0.94156647488774581 0 0.90289902042272274 0.56409326000946114 0 0.93946948561981514 0.60485373571037115 0 0.89064679688610338 0.6216080907827598 0 0.43590673999053309 0.90289902042279657 0 0.39514626428973221 0.93946948561985189 0 0.37839190921727062 0.89064679688614412 0 0.56409326000946236 0.097100979577281268 0 0.6048537357103756 0.060530514380187868 0 0.62160809078275991 0.1093532031139005 0 0.097100979577207341 0.43590673999053198 0 0.06053051438015096 0.39514626428972788 0 0.10935320311385981 0.37839190921727089 0 0.6519524273377173 0.64249931920594539 0 0.64518564541690571 0.69601563325001548 0 0.60879112811253555 0.66592422311595834 0 0.35944937237716967 0.65164789808436319 0 0.30421635384321521 0.64514939193436716 0 0.33231497408081678 0.60779218732873663 0 0.6424993192059415 0.3480475726622802 0 0.69601563325001248 0.35481435458309712 0 0.66346942254826746 0.391530810754116 0 0.34804757266227387 0.35750068079406011 0 0.35481435458309307 0.30398436674998969 0 0.39120887188745579 0.33407577688404289 0 1 0.5499999999988151 0 1 0.59999999999894682 0 0.95638719633882641 0.5599388881718611 0 0.5499999999988151 0 0 0.59999999999894682 0 0 0.55993888817186677 0.043612803661174412 0 0.45000000000187229 1 0 0.40000000000166441 1 0 0.44006111182840962 0.9563871963389079 0 0 0.45000000000187229 0 0 0.40000000000166441 0 0.043612803661092707 0.44006111182840391 0 1 0.049999999999899652 0 0.95994154153057998 0.094457855579277675 0 0.94156647488778256 0.058433525112256718 0 0.049999999999899652 0 0 0.094457855579284614 0.040058458469418363 0 0.058433525112266523 0.058433525112214509 0 0.94999999999986839 0 0 0.94156647488778256 0.058433525112256718 0 0.90554214442081604 0.040058458469347469 0 1 0.94999999999986839 0 0.94156647488775558 0.94156647488774259 0 0.95994154153065969 0.90554214442078618 0 0.94999999999979179 1 0 0.90554214442080472 0.95994154153067524 0 0.94156647488775558 0.94156647488774259 0 0 0.94999999999979179 0 0.040058458469322648 0.90554214442079806 0 0.058433525112254137 0.94156647488774581 0 0 0.050000000000207989 0 0.058433525112266523 0.058433525112214509 0 0.040058458469319477 0.094457855579157729 0 0.050000000000207989 1 0 0.058433525112254137 0.94156647488774581 0 0.094457855579188163 0.95994154153068711 0 0.55000000000173355 1 0 0.55307204985744796 0.94819812235491685 0 0.5931441817276254 0.95886012268751675 0 0 0.55000000000173355 0 0.051801877645083663 0.55307204985745195 0 0.041139877312483641 0.59314418172763017 0 1 0.44999999999882923 0 0.94812782820415209 0.44708943904932719 0 0.95886012268748921 0.4068558182724159 0 0.44999999999882923 0 0 0.44692795014265252 0.051801877645060238 0 0.40685581827241191 0.041139877312511682 0 0.83199780613337848 0.1690131600686714 0 0.77216325087772952 0.15899695163319821 0 0.8110316677333288 0.125875177082863 0 0.16901316006868169 0.16800219386663079 0 0.15899695163321451 0.22783674912227669 0 0.12587517708284679 0.1889683322666954 0 0.73982803480991577 0.79629608696991705 0 0.74154628962857594 0.86274820500026039 0 0.70085728320704077 0.84350379029875056 0 0.20370391303007401 0.73982803480989479 0 0.13725179499972981 0.74154628962856628 0 0.1564962097012354 0.70085728320703999 0 0.79629608696994103 0.26017196519011448 0 0.85389826602741015 0.26318949769600392 0 0.84350379029877964 0.29914271679296989 0 0.26017196519013502 0.20370391303005 0 0.26318949769601319 0.14610173397257309 0 0.29914271679297122 0.15649620970120659 0 0.53432142347292233 0.88563193847251998 0 0.48758069708049379 0.89080072540186539 0 0.49771727055908782 0.83998685797641781 0 0.1143680615274819 0.53432142347292733 0 0.1091992745981364 0.48758069708049778 0 0.16001314202358469 0.49771727055909287 0 0.88561059063756964 0.46572761956237563 0 0.89079805168298443 0.51242544533572376 0 0.83998574657308889 0.50228528270184081 0 0.46567857652706018 0.1143680615275231 0 0.51241930291950477 0.1091992745981813 0 0.50228272944093777 0.16001314202359701 0 0.1104775404132264 0.2631175359816938 0 0.099492119481027347 0.30746398533281638 0 0.053730171687646627 0.28825077189828552 0 0.26305414557470391 0.88949062093136155 0 0.30738136326657722 0.90051880305435028 0 0.28790752038294382 0.94635952848702642 0 0.73688246401832591 0.11047754041323141 0 0.69253601466723103 0.09949211948105087 0 0.71174922810186925 0.053730171687687178 0 0.88949062093135778 0.73694585442531257 0 0.90051880305432697 0.69261863673346957 0 0.94635952848698612 0.71209247961721311 0 0.77998481823117694 0.71397317153691997 0 0.76395804595204597 0.67808171673060369 0 0.80847852346122429 0.67208120229789559 0 0.28602682846308641 0.77998481823117594 0 0.32191828326940508 0.76395804595204586 0 0.32791879770213411 0.80847852346120164 0 0.71397317153692708 0.22001518176882201 0 0.67808171673060202 0.23604195404795861 0 0.67208120229787616 0.1915214765387884 0 0.22001518176882229 0.28602682846307981 0 0.2360419540479583 0.32191828326940741 0 0.19152147653881049 0.32791879770215432 0 0.8289812646369813 0.82898126463698818 0 0.839908789927305 0.77106070975262608 0 0.87660297360393757 0.8104127896505644 0 0.17101873536300011 0.82898126463696109 0 0.22893929024737289 0.83990878992727813 0 0.18958721034944021 0.87660297360394568 0 0.66548584431530877 0.55616712808283064 0 0.64455163611866495 0.50369301794551069 0 0.69798396601998558 0.5289734597937793 0 0.70015119067225129 0.48481914991727459 0 0.69798396601998558 0.5289734597937793 0 0.64455163611866495 0.50369301794551069 0 0.77998481823117694 0.71397317153691997 0 0.73984939806388494 0.70740600291923139 0 0.76395804595204597 0.67808171673060369 0 0.28602682846308641 0.77998481823117594 0 0.2925512105451914 0.73997990291173188 0 0.32191828326940508 0.76395804595204586 0 0.71397317153692708 0.22001518176882201 0 0.70740600291923772 0.26015060193611528 0 0.67808171673060202 0.23604195404795861 0 0.22001518176882229 0.28602682846307981 0 0.26014443552207939 0.29262390443653519 0 0.2360419540479583 0.32191828326940741 0 0.90045039720880915 0.9020090423547924 0 0.90554214442080472 0.95994154153067524 0 0.86696410734367158 0.94753096683315619 0 0.097990957645208238 0.90045039720880915 0 0.040058458469322648 0.90554214442079806 0 0.052469033166843738 0.86696410734366991 0 0.90082758526900886 0.098076845682916511 0 0.95994154153057998 0.094457855579277675 0 0.94100406608115506 0.1383574446607955 0 0.90045039720880915 0.9020090423547924 0 0.94095916274074942 0.86165278010542579 0 0.95994154153065969 0.90554214442078618 0 0.90082758526900886 0.098076845682916511 0 0.86589314360155567 0.054872692726639853 0 0.90554214442081604 0.040058458469347469 0 0.098076845682915317 0.099172414730993488 0 0.094457855579284614 0.040058458469418363 0 0.1383574446607988 0.058995933918849157 0 0.097990957645208238 0.90045039720880915 0 0.13834721989462789 0.94095916274077984 0 0.094457855579188163 0.95994154153068711 0 0.098076845682915317 0.099172414730993488 0 0.054872692726595548 0.13410685639845171 0 0.040058458469319477 0.094457855579157729 0 0.54901591374940373 0.42306523525165751 0 0.54715635490880632 0.37829016026862072 0 0.60122390529523662 0.39097801071820221 0 0.49854341599767982 0.37075914768127122 0 0.54715635490880632 0.37829016026862072 0 0.5047849391802508 0.40719950955717021 0 0.66548584431530877 0.55616712808283064 0 0.65501639383771026 0.594528181397324 0 0.61866949026800744 0.55492322767366287 0 0.50000000000002642 0.7803135888501761 0 0.49771727055908782 0.83998685797641781 0 0.46593838964869061 0.80781872835503554 0 0.2196864111498267 0.50000000000003153 0 0.16001314202358469 0.49771727055909287 0 0.19218127164496679 0.46593838964869538 0 0.78031358885017377 0.49999999999997569 0 0.83998574657308889 0.50228528270184081 0 0.80781854240107975 0.53406203754901738 0 0.49999999999997108 0.21968641114982909 0 0.50228272944093777 0.16001314202359701 0 0.53404982287327418 0.19215288291432539 0 0.70085728320704077 0.84350379029875056 0 0.74154628962857594 0.86274820500026039 0 0.70475631558365914 0.90098127745102974 0 0.1564962097012354 0.70085728320703999 0 0.13725179499972981 0.74154628962856628 0 0.099018722548963364 0.70475631558365193 0 0.84350379029877964 0.29914271679296989 0 0.85389826602741015 0.26318949769600392 0 0.89886191075654698 0.29506339503703172 0 0.29914271679297122 0.15649620970120659 0 0.26318949769601319 0.14610173397257309 0 0.29506339503703888 0.1011380892434444 0 0.74417394063200648 0.6049203001048884 0 0.71518943060973483 0.65679402931717101 0 0.69288637798153729 0.61204665218001397 0 0.39507969989512881 0.74417394063201048 0 0.34270280102445921 0.71672416762035873 0 0.38642358467307758 0.69286258923597266 0 0.60492030010488373 0.25582605936799729 0 0.65679402931716913 0.28481056939027388 0 0.61204665218000809 0.30711362201846659 0 0.25582605936799319 0.39507969989513358 0 0.28473805236128291 0.34355768118673757 0 0.30597655500381687 0.3934681685211931 0 0.88949062093135778 0.73694585442531257 0 0.839908789927305 0.77106070975262608 0 0.8312019486901514 0.72745002167959472 0 0.73688246401832591 0.11047754041323141 0 0.77216325087772952 0.15899695163319821 0 0.72767516840721058 0.16853767177393791 0 0.26305414557470391 0.88949062093136155 0 0.22893929024737289 0.83990878992727813 0 0.27254997832041528 0.8312019486901443 0 0.1104775404132264 0.2631175359816938 0 0.15899695163321451 0.22783674912227669 0 0.1685376717739448 0.27232483159280108 0 0.61233489393901674 0.60846740003560018 0 0.57484409313590223 0.58437321637184114 0 0.61866949026800744 0.55492322767366287 0 0.43565339604028508 0.55159384357101338 0 0.39982789553993509 0.53462762214740622 0 0.45293656999117771 0.51494832297079129 0 0.41009598069569558 0.49083935749285379 0 0.45293656999117771 0.51494832297079129 0 0.39982789553993509 0.53462762214740622 0 0.4434591735942961 0.66641640622551224 0 0.40564717507982689 0.65626423320524974 0 0.45517457031814612 0.62743100079604397 0 0.40653508887824003 0.61580573377480397 0 0.45517457031814612 0.62743100079604397 0 0.40564717507982689 0.65626423320524974 0 0.89586000931544074 0.25714619498770419 0 0.84534053180161173 0.2262639405833009 0 0.89556054516486661 0.21720615046483649 0 0.25714619498771307 0.1041399906845497 0 0.22626394058331961 0.15465946819838111 0 0.21720615046484709 0.1044394548351292 0 0.41009598069569558 0.49083935749285379 0 0.35815651743779398 0.51113440447909086 0 0.37702386074717259 0.45819417564476811 0 0.75000000000034661 1 0 0.71789175274016548 0.95136708251202151 0 0.77688977118331393 0.94706199857866258 0 0 0.75000000000034661 0 0.04863291748797445 0.71789175274016204 0 0.052938001421335763 0.77688977118331159 0 1 0.24999999999941211 0 0.94915666091748963 0.28320804985299752 0 0.94465622530468663 0.23167460333446291 0 0.24999999999941211 0 0 0.28320804985300141 0.050843339082505573 0 0.23167460333446299 0.05534377469531044 0 0.90289902042272274 0.56409326000946114 0 0.95638719633882641 0.5599388881718611 0 0.93946948561981514 0.60485373571037115 0 0.56409326000946236 0.097100979577281268 0 0.55993888817186677 0.043612803661174412 0 0.6048537357103756 0.060530514380187868 0 0.43590673999053309 0.90289902042279657 0 0.44006111182840962 0.9563871963389079 0 0.39514626428973221 0.93946948561985189 0 0.097100979577207341 0.43590673999053198 0 0.043612803661092707 0.44006111182840391 0 0.06053051438015096 0.39514626428972788 0 0.40653508887824003 0.61580573377480397 0 0.40468198875170619 0.57637931869191572 0 0.45030222762303879 0.58443295115431027 0 0.43301393728221038 0.35984320557492139 0 0.43059486795334201 0.30395973419063538 0 0.47253211736503098 0.34081710830804929 0 0.48378871228000903 0.29745177826977359 0 0.47253211736503098 0.34081710830804929 0 0.43059486795334201 0.30395973419063538 0 0.65000000000104008 1 0 0.60000000000138687 1 0 0.63753756910470316 0.95578163339252209 0 0 0.65000000000104008 0 0 0.60000000000138687 0 0.04421836660747535 0.63753756910470205 0 1 0.34999999999912063 0 1 0.3999999999989749 0 0.95581270756939096 0.36248656652865863 0 0.34999999999912063 0 0 0.3999999999989749 0 0 0.36246243089534252 0.044218366607477223 0 0.73982803480991577 0.79629608696991705 0 0.74917861927654894 0.74229989257760443 0 0.78651189793386345 0.75664155808652755 0 0.20370391303007401 0.73982803480989479 0 0.25770010742238642 0.74917861927655205 0 0.24335844191347281 0.78651189793387466 0 0.79629608696994103 0.26017196519011448 0 0.74229989257762263 0.250821380723454 0 0.7582555232258138 0.2115548431873896 0 0.26017196519013502 0.20370391303005 0 0.25082138072344978 0.25770010742236849 0 0.2115548431873881 0.2417444767741872 0 1 0.049999999999899652 0 0.94156647488778256 0.058433525112256718 0 0.96763014295114425 0.032369857048773903 0 0.049999999999899652 0 0 0.058433525112266523 0.058433525112214509 0 0.032369857048753323 0.032369857048862027 0 0.94999999999986839 0 0 0.96763014295114425 0.032369857048773903 0 0.94156647488778256 0.058433525112256718 0 0 0.050000000000207989 0 0.032369857048753323 0.032369857048862027 0 0.058433525112266523 0.058433525112214509 0 1 0.94999999999986839 0 0.96763014295120153 0.96763014295122851 0 0.94156647488775558 0.94156647488774259 0 0.94999999999979179 1 0 0.94156647488775558 0.94156647488774259 0 0.96763014295120153 0.96763014295122851 0 0.050000000000207989 1 0 0.030452409610489669 0.96954759038951022 0 0.058433525112254137 0.94156647488774581 0 0 0.94999999999979179 0 0.058433525112254137 0.94156647488774581 0 0.030452409610489669 0.96954759038951022 0 0.90045039720880915 0.9020090423547924 0 0.88962265630811221 0.85311725681459705 0 0.94095916274074942 0.86165278010542579 0 0.097990957645208238 0.90045039720880915 0 0.14688274318541941 0.88962265630811932 0 0.13834721989462789 0.94095916274077984 0 0.91838802593884228 0.81827409710237209 0 0.94095916274074942 0.86165278010542579 0 0.88962265630811221 0.85311725681459705 0 0.91838802593870927 0.18172590289757809 0 0.88777909259956078 0.1484760565886154 0 0.94100406608115506 0.1383574446607955 0 0.1817259028976386 0.91838802593888857 0 0.13834721989462789 0.94095916274077984 0 0.14688274318541941 0.88962265630811932 0 0.18172590289758209 0.08161197406129285 0 0.1484760565886207 0.1122209074004519 0 0.1383574446607988 0.058995933918849157 0 0.90082758526900886 0.098076845682916511 0 0.94100406608115506 0.1383574446607955 0 0.88777909259956078 0.1484760565886154 0 0.098076845682915317 0.099172414730993488 0 0.1383574446607988 0.058995933918849157 0 0.1484760565886207 0.1122209074004519 0 0.57387636360620708 0.54318431390135336 0 0.61866949026800744 0.55492322767366287 0 0.57484409313590223 0.58437321637184114 0 0.60122390529523662 0.39097801071820221 0 0.54715635490880632 0.37829016026862072 0 0.59596170682035776 0.34609402305862419 0 0.38703015239361932 0.80283068154761972 0 0.32791879770213411 0.80847852346120164 0 0.35837423432538362 0.77730446904312345 0 0.8028306815476034 0.61296984760642026 0 0.80847852346122429 0.67208120229789559 0 0.77730446904309636 0.64162576567462737 0 0.197169318452384 0.38703015239362498 0 0.19152147653881049 0.32791879770215432 0 0.22269553095687891 0.35837423432538801 0 0.61296984760641449 0.19716931845240021 0 0.67208120229787616 0.1915214765387884 0 0.64162576567462404 0.22269553095690481 0 0.39419886675318527 0.41912225240070788 0 0.37702386074717259 0.45819417564476811 0 0.35481422397128459 0.40312981465069342 0 0.33382663527330159 0.44130125047503482 0 0.35481422397128459 0.40312981465069342 0 0.37702386074717259 0.45819417564476811 0 0.40653508887824003 0.61580573377480397 0 0.40564717507982689 0.65626423320524974 0 0.35944937237716967 0.65164789808436319 0 0.53432142347292233 0.88563193847251998 0 0.49771727055908782 0.83998685797641781 0 0.54047998161173716 0.84333512669480526 0 0.1143680615274819 0.53432142347292733 0 0.16001314202358469 0.49771727055909287 0 0.1566648733051971 0.54047998161174216 0 0.88561059063756964 0.46572761956237563 0 0.83998574657308889 0.50228528270184081 0 0.84333218736938698 0.4595365182652234 0 0.46567857652706018 0.1143680615275231 0 0.50228272944093777 0.16001314202359701 0 0.45952001838826873 0.15666487330524251 0 0.37104651296145419 0.60545170748311072 0 0.40653508887824003 0.61580573377480397 0 0.35944937237716967 0.65164789808436319 0 0.6519524273377173 0.64249931920594539 0 0.71518943060973483 0.65679402931717101 0 0.6768914574865772 0.67861120078714243 0 0.35944937237716967 0.65164789808436319 0 0.34270280102445921 0.71672416762035873 0 0.32259853082073792 0.67670072609835186 0 0.6424993192059415 0.3480475726622802 0 0.65679402931716913 0.28481056939027388 0 0.6786112007871401 0.32310854251343019 0 0.34804757266227387 0.35750068079406011 0 0.28473805236128291 0.34355768118673757 0 0.3231032570156932 0.32141443408924047 0 0.73982803480991577 0.79629608696991705 0 0.70085728320704077 0.84350379029875056 0 0.69892030930712212 0.7971997999085858 0 0.20370391303007401 0.73982803480989479 0 0.1564962097012354 0.70085728320703999 0 0.2028002000914135 0.69892030930711557 0 0.79629608696994103 0.26017196519011448 0 0.84350379029877964 0.29914271679296989 0 0.7971997999085878 0.3010796906928917 0 0.26017196519013502 0.20370391303005 0 0.29914271679297122 0.15649620970120659 0 0.30107969069289831 0.20280020009141189 0 0.43301393728221038 0.35984320557492139 0 0.42930823106401639 0.40626685012722968 0 0.39222057657781068 0.38067796690227418 0 0.73982803480991577 0.79629608696991705 0 0.78284912262770068 0.83746308049763585 0 0.74154628962857594 0.86274820500026039 0 0.20370391303007401 0.73982803480989479 0 0.16253691950235041 0.78284912262768558 0 0.13725179499972981 0.74154628962856628 0 0.79629608696994103 0.26017196519011448 0 0.84534053180161173 0.2262639405833009 0 0.85389826602741015 0.26318949769600392 0 0.26017196519013502 0.20370391303005 0 0.22626394058331961 0.15465946819838111 0 0.26318949769601319 0.14610173397257309 0 0.56566515596461675 0.63670464971409091 0 0.57484409313590223 0.58437321637184114 0 0.61233489393901674 0.60846740003560018 0 0.84598529912884157 0.63969251517827153 0 0.85607519768343354 0.69380468830529196 0 0.80847852346122429 0.67208120229789559 0 0.63969251517826664 0.15401470087115929 0 0.69379929796456197 0.14392209494791061 0 0.67208120229787616 0.1915214765387884 0 0.36030748482174152 0.84598529912882459 0 0.30619531169472608 0.85607519768342955 0 0.32791879770213411 0.80847852346120164 0 0.15401470087117619 0.36030748482174652 0 0.14392209494791439 0.30620070203545702 0 0.19152147653881049 0.32791879770215432 0 0.20370391303007401 0.73982803480989479 0 0.24335844191347281 0.78651189793387466 0 0.20359074765364421 0.79422489417871855 0 0.73982803480991577 0.79629608696991705 0 0.78651189793386345 0.75664155808652755 0 0.79422489417873421 0.79640925234634441 0 0.26017196519013502 0.20370391303005 0 0.2115548431873881 0.2417444767741872 0 0.20596721135052939 0.19972517895396219 0 0.79629608696994103 0.26017196519011448 0 0.7582555232258138 0.2115548431873896 0 0.80027482104603809 0.20596721135052129 0 0.51172471858873747 0.64015771271794875 0 0.47818752133962877 0.66454462905280853 0 0.45517457031814612 0.62743100079604397 0 0.54901591374940373 0.42306523525165751 0 0.60122390529523662 0.39097801071820221 0 0.59313386551587477 0.43977047843653239 0 0.640156794425081 0.43301393728221721 0 0.59313386551587477 0.43977047843653239 0 0.60122390529523662 0.39097801071820221 0 0.70252050881959183 0.70358884261915833 0 0.71518943060973483 0.65679402931717101 0 0.73984939806388494 0.70740600291923139 0 0.29641115738084339 0.70252050881958938 0 0.34270280102445921 0.71672416762035873 0 0.2925512105451914 0.73997990291173188 0 0.76395804595204597 0.67808171673060369 0 0.73984939806388494 0.70740600291923139 0 0.71518943060973483 0.65679402931717101 0 0.32191828326940508 0.76395804595204586 0 0.2925512105451914 0.73997990291173188 0 0.34270280102445921 0.71672416762035873 0 0.70358884261915744 0.29747949118041561 0 0.65679402931716913 0.28481056939027388 0 0.70740600291923772 0.26015060193611528 0 0.29747949118041711 0.2964111573808435 0 0.28473805236128291 0.34355768118673757 0 0.26014443552207939 0.29262390443653519 0 0.67808171673060202 0.23604195404795861 0 0.70740600291923772 0.26015060193611528 0 0.65679402931716913 0.28481056939027388 0 0.2360419540479583 0.32191828326940741 0 0.26014443552207939 0.29262390443653519 0 0.28473805236128291 0.34355768118673757 0 0.74198804864688339 0.90892718720327403 0 0.70475631558365914 0.90098127745102974 0 0.74154628962857594 0.86274820500026039 0 0.091072812796719582 0.74198804864687795 0 0.099018722548963364 0.70475631558365193 0 0.13725179499972981 0.74154628962856628 0 0.89586000931544074 0.25714619498770419 0 0.89886191075654698 0.29506339503703172 0 0.85389826602741015 0.26318949769600392 0 0.25714619498771307 0.1041399906845497 0 0.29506339503703888 0.1011380892434444 0 0.26318949769601319 0.14610173397257309 0 0.59819537371016407 0.74380966024143391 0 0.64203711532612107 0.74316477213290444 0 0.61896574319320252 0.795216048370321 0 0.66820316019503978 0.77769800602796979 0 0.61896574319320252 0.795216048370321 0 0.64203711532612107 0.74316477213290444 0 0.25619033975856881 0.59819537371016862 0 0.25684529255773247 0.64203554247963057 0 0.2047839516296828 0.61896574319320252 0 0.22230199397202771 0.66820316019503168 0 0.2047839516296828 0.61896574319320252 0 0.25684529255773247 0.64203554247963057 0 0.74380966024142703 0.40180462628984132 0 0.74316477213289889 0.35796288467388632 0 0.79521604837030013 0.38103425680679831 0 0.77769800602796679 0.33179683980497482 0 0.79521604837030013 0.38103425680679831 0 0.74316477213289889 0.35796288467388632 0 0.40180462628983732 0.2561903397585753 0 0.3579628846738841 0.25683522786710378 0 0.38103425680679859 0.2047839516297037 0 0.33179683980498331 0.2223019939720311 0 0.38103425680679859 0.2047839516297037 0 0.3579628846738841 0.25683522786710378 0 0.92670321183853355 0.65773042910151081 0 0.93946948561981514 0.60485373571037115 0 0.96654491682122368 0.6363613838740827 0 0.65773042910151891 0.073296788161472337 0 0.6048537357103756 0.060530514380187868 0 0.63635157668793507 0.033457646040912177 0 0.3422695708985129 0.92670321183858773 0 0.39514626428973221 0.93946948561985189 0 0.36363861612613613 0.96654491682121313 0 0.073296788161418117 0.34226957089850552 0 0.06053051438015096 0.39514626428972788 0 0.033457646040922301 0.36364842331228431 0 0.6519524273377173 0.64249931920594539 0 0.6768914574865772 0.67861120078714243 0 0.64518564541690571 0.69601563325001548 0 0.35944937237716967 0.65164789808436319 0 0.32259853082073792 0.67670072609835186 0 0.30421635384321521 0.64514939193436716 0 0.6424993192059415 0.3480475726622802 0 0.6786112007871401 0.32310854251343019 0 0.69601563325001248 0.35481435458309712 0 0.34804757266227387 0.35750068079406011 0 0.3231032570156932 0.32141443408924047 0 0.35481435458309307 0.30398436674998969 0 0.73982803480991577 0.79629608696991705 0 0.71159714897733284 0.75039044679290845 0 0.74917861927654894 0.74229989257760443 0 0.20370391303007401 0.73982803480989479 0 0.249609553207091 0.71159714897732929 0 0.25770010742238642 0.74917861927655205 0 0.79629608696994103 0.26017196519011448 0 0.75039044679291111 0.28840285102267788 0 0.74229989257762263 0.250821380723454 0 0.26017196519013502 0.20370391303005 0 0.28840285102268098 0.24960955320708811 0 0.25082138072344978 0.25770010742236849 0 0.43565339604028508 0.55159384357101338 0 0.45030222762303879 0.58443295115431027 0 0.40468198875170619 0.57637931869191572 0 0.3999999999989749 0 0 0.44999999999882923 0 0 0.40685581827241191 0.041139877312511682 0 1 0.3999999999989749 0 1 0.44999999999882923 0 0.95886012268748921 0.4068558182724159 0 0 0.60000000000138687 0 0 0.55000000000173355 0 0.041139877312483641 0.59314418172763017 0 0.60000000000138687 1 0 0.55000000000173355 1 0 0.5931441817276254 0.95886012268751675 0 1 0.049999999999899652 0 1 0.099999999999814668 0 0.95994154153057998 0.094457855579277675 0 0.049999999999899652 0 0 0.099999999999814668 0 0 0.094457855579284614 0.040058458469418363 0 0.94999999999979179 1 0 0.89999999999958358 1 0 0.90554214442080472 0.95994154153067524 0 0 0.94999999999979179 0 0 0.89999999999958358 0 0.040058458469322648 0.90554214442079806 0 1 0.89999999999973679 0 1 0.94999999999986839 0 0.95994154153065969 0.90554214442078618 0 0.89999999999973679 0 0 0.94999999999986839 0 0 0.90554214442081604 0.040058458469347469 0 0.10000000000041601 1 0 0.050000000000207989 1 0 0.094457855579188163 0.95994154153068711 0 0 0.10000000000041601 0 0 0.050000000000207989 0 0.040058458469319477 0.094457855579157729 0 0.88949062093135778 0.73694585442531257 0 0.8312019486901514 0.72745002167959472 0 0.85607519768343354 0.69380468830529196 0 0.73688246401832591 0.11047754041323141 0 0.72767516840721058 0.16853767177393791 0 0.69379929796456197 0.14392209494791061 0 0.26305414557470391 0.88949062093136155 0 0.27254997832041528 0.8312019486901443 0 0.30619531169472608 0.85607519768342955 0 0.1104775404132264 0.2631175359816938 0 0.1685376717739448 0.27232483159280108 0 0.14392209494791439 0.30620070203545702 0 0.51484304721220842 0.69707233951836334 0 0.54465502325161819 0.74717983044080061 0 0.49073113440598592 0.73759004618730417 0 0.30292766048163949 0.51484304721221474 0 0.25287139441262568 0.54458355434492378 0 0.262418491288269 0.49071922292154141 0 0.70015119067225129 0.48481914991727459 0 0.74730218607442667 0.45539100053644521 0 0.73815142352639962 0.50697050072007344 0 0.48378871228000903 0.29745177826977359 0 0.45533136021725079 0.2525687312087147 0 0.50732841191799194 0.2613117081243182 0 0.66548584431530877 0.55616712808283064 0 0.61866949026800744 0.55492322767366287 0 0.64455163611866495 0.50369301794551069 0 0.5586987495249669 0.33382663527330653 0 0.59596170682035776 0.34609402305862419 0 0.54715635490880632 0.37829016026862072 0 0.41009598069569558 0.49083935749285379 0 0.42340342337193693 0.44762131874855388 0 0.46152714345798918 0.47344359412352599 0 0.63969251517836323 0.84598529912890386 0 0.61896574319320252 0.795216048370321 0 0.66919832404887702 0.81820888699730587 0 0.1540147008710982 0.63969251517836956 0 0.2047839516296828 0.61896574319320252 0 0.1817911130026923 0.66919832404888702 0 0.84598529912889664 0.36030748482164038 0 0.79521604837030013 0.38103425680679831 0 0.8182088869973061 0.33080167595111531 0 0.3603074848216346 0.15401470087110539 0 0.38103425680679859 0.2047839516297037 0 0.33080167595110582 0.18179111300269291 0 0.60000000000138687 1 0 0.5931441817276254 0.95886012268751675 0 0.63753756910470316 0.95578163339252209 0 0 0.60000000000138687 0 0.041139877312483641 0.59314418172763017 0 0.04421836660747535 0.63753756910470205 0 1 0.3999999999989749 0 0.95886012268748921 0.4068558182724159 0 0.95581270756939096 0.36248656652865863 0 0.3999999999989749 0 0 0.40685581827241191 0.041139877312511682 0 0.36246243089534252 0.044218366607477223 0 0.6519524273377173 0.64249931920594539 0 0.61233489393901674 0.60846740003560018 0 0.65501639383771026 0.594528181397324 0 0.6424993192059415 0.3480475726622802 0 0.60122390529523662 0.39097801071820221 0 0.59596170682035776 0.34609402305862419 0 0.56566515596461675 0.63670464971409091 0 0.60879112811253555 0.66592422311595834 0 0.57051182622447827 0.69668652018496713 0 0.35984320557492089 0.56698606271778873 0 0.33231497408081678 0.60779218732873663 0 0.30429740679959738 0.56913905146460098 0 0.640156794425081 0.43301393728221721 0 0.66346942254826746 0.391530810754116 0 0.69595787604187809 0.43071000156707989 0 0.43301393728221038 0.35984320557492139 0 0.39120887188745579 0.33407577688404289 0 0.43059486795334201 0.30395973419063538 0 0.59999999999894682 0 0 0.63635157668793507 0.033457646040912177 0 0.6048537357103756 0.060530514380187868 0 1 0.59999999999894682 0 0.96654491682122368 0.6363613838740827 0 0.93946948561981514 0.60485373571037115 0 0 0.40000000000166441 0 0.033457646040922301 0.36364842331228431 0 0.06053051438015096 0.39514626428972788 0 0.40000000000166441 1 0 0.36363861612613613 0.96654491682121313 0 0.39514626428973221 0.93946948561985189 0 0.50000000000002642 0.7803135888501761 0 0.49073113440598592 0.73759004618730417 0 0.54465502325161819 0.74717983044080061 0 0.2196864111498267 0.50000000000003153 0 0.262418491288269 0.49071922292154141 0 0.25287139441262568 0.54458355434492378 0 0.78031358885017377 0.49999999999997569 0 0.73815142352639962 0.50697050072007344 0 0.74730218607442667 0.45539100053644521 0 0.49999999999997108 0.21968641114982909 0 0.50732841191799194 0.2613117081243182 0 0.45533136021725079 0.2525687312087147 0 0.39507969989512881 0.74417394063201048 0 0.43306783640023289 0.78031198216144404 0 0.38703015239361932 0.80283068154761972 0 0.25582605936799319 0.39507969989513358 0 0.21968801783855879 0.43306783640023788 0 0.197169318452384 0.38703015239362498 0 0.74417394063200648 0.6049203001048884 0 0.78031198216143516 0.56693216359979737 0 0.8028306815476034 0.61296984760642026 0 0.60492030010488373 0.25582605936799729 0 0.56683314878414581 0.21944955250104689 0 0.61296984760641449 0.19716931845240021 0 0.77998481823117694 0.71397317153691997 0 0.74917861927654894 0.74229989257760443 0 0.73984939806388494 0.70740600291923139 0 0.28602682846308641 0.77998481823117594 0 0.25770010742238642 0.74917861927655205 0 0.2925512105451914 0.73997990291173188 0 0.71397317153692708 0.22001518176882201 0 0.74229989257762263 0.250821380723454 0 0.70740600291923772 0.26015060193611528 0 0.22001518176882229 0.28602682846307981 0 0.25082138072344978 0.25770010742236849 0 0.26014443552207939 0.29262390443653519 0 0.49189101320880302 0.59024331187324797 0 0.53087311892591971 0.55299263141448529 0 0.53542397956703913 0.60119875982347493 0 0.41009598069569558 0.49083935749285379 0 0.46152714345798918 0.47344359412352599 0 0.45293656999117771 0.51494832297079129 0 0.66820316019503978 0.77769800602796979 0 0.66919832404887702 0.81820888699730587 0 0.61896574319320252 0.795216048370321 0 0.22230199397202771 0.66820316019503168 0 0.1817911130026923 0.66919832404888702 0 0.2047839516296828 0.61896574319320252 0 0.77769800602796679 0.33179683980497482 0 0.8182088869973061 0.33080167595111531 0 0.79521604837030013 0.38103425680679831 0 0.33179683980498331 0.2223019939720311 0 0.33080167595110582 0.18179111300269291 0 0.38103425680679859 0.2047839516297037 0 0.83199780613337848 0.1690131600686714 0 0.87355793346388477 0.18922011052113649 0 0.84534053180161173 0.2262639405833009 0 0.16901316006868169 0.16800219386663079 0 0.18922011052115781 0.12644206653611201 0 0.22626394058331961 0.15465946819838111 0 0.58981073711177334 0.48140931020849848 0 0.62619054498681193 0.46482944251856079 0 0.64455163611866495 0.50369301794551069 0 0.59621567360238914 0.5184866806641607 0 0.58981073711177334 0.48140931020849848 0 0.64455163611866495 0.50369301794551069 0 0.53432142347292233 0.88563193847251998 0 0.54047998161173716 0.84333512669480526 0 0.58267137064684116 0.87013301365640838 0 0.56759263990989184 0.81794319034601648 0 0.58267137064684116 0.87013301365640838 0 0.54047998161173716 0.84333512669480526 0 0.1143680615274819 0.53432142347292733 0 0.1566648733051971 0.54047998161174216 0 0.12986698634359389 0.58267137064684615 0 0.18205680965398621 0.56759263990989739 0 0.12986698634359389 0.58267137064684615 0 0.1566648733051971 0.54047998161174216 0 0.88561059063756964 0.46572761956237563 0 0.84333218736938698 0.4595365182652234 0 0.87012666750595846 0.41743873185103042 0 0.81794319034597418 0.43240736009009317 0 0.87012666750595846 0.41743873185103042 0 0.84333218736938698 0.4595365182652234 0 0.46567857652706018 0.1143680615275231 0 0.45952001838826873 0.15666487330524251 0 0.41732862935313042 0.12986698634362279 0 0.43240736009008851 0.18205680965402779 0 0.41732862935313042 0.12986698634362279 0 0.45952001838826873 0.15666487330524251 0 0.70085728320704077 0.84350379029875056 0 0.70475631558365914 0.90098127745102974 0 0.66923299355723143 0.8804077449518628 0 0.1564962097012354 0.70085728320703999 0 0.099018722548963364 0.70475631558365193 0 0.1195922550481313 0.66923299355722787 0 0.84350379029877964 0.29914271679296989 0 0.89886191075654698 0.29506339503703172 0 0.88040774495187946 0.33076700644278889 0 0.29914271679297122 0.15649620970120659 0 0.29506339503703888 0.1011380892434444 0 0.33076700644279272 0.1195922550481146 0 0.839908789927305 0.77106070975262608 0 0.78651189793386345 0.75664155808652755 0 0.8312019486901514 0.72745002167959472 0 0.22893929024737289 0.83990878992727813 0 0.24335844191347281 0.78651189793387466 0 0.27254997832041528 0.8312019486901443 0 0.77216325087772952 0.15899695163319821 0 0.7582555232258138 0.2115548431873896 0 0.72767516840721058 0.16853767177393791 0 0.15899695163321451 0.22783674912227669 0 0.2115548431873881 0.2417444767741872 0 0.1685376717739448 0.27232483159280108 0 0.89586000931544074 0.25714619498770419 0 0.85389826602741015 0.26318949769600392 0 0.84534053180161173 0.2262639405833009 0 0.25714619498771307 0.1041399906845497 0 0.26318949769601319 0.14610173397257309 0 0.22626394058331961 0.15465946819838111 0 0.49771727055908782 0.83998685797641781 0 0.45353891581270822 0.85551523377818905 0 0.46593838964869061 0.80781872835503554 0 0.16001314202358469 0.49771727055909287 0 0.1444847662218138 0.45353891581271188 0 0.19218127164496679 0.46593838964869538 0 0.83998574657308889 0.50228528270184081 0 0.85551478316835361 0.54646211938695222 0 0.80781854240107975 0.53406203754901738 0 0.50228272944093777 0.16001314202359701 0 0.54646108418729233 0.1444847662218687 0 0.53404982287327418 0.19215288291432539 0 0.51484304721220842 0.69707233951836334 0 0.47818752133962877 0.66454462905280853 0 0.51172471858873747 0.64015771271794875 0 0.30292766048163949 0.51484304721221474 0 0.33436424489304489 0.47849603121740791 0 0.35815651743779398 0.51113440447909086 0 0.6027107599280892 0.83436006790502326 0 0.63969251517836323 0.84598529912890386 0 0.62483828039315681 0.8780818733396436 0 0.1656399320949789 0.60271075992809464 0 0.1540147008710982 0.63969251517836956 0 0.1219181266603569 0.62483828039315903 0 0.83436006790498052 0.39728924007189959 0 0.84598529912889664 0.36030748482164038 0 0.87815187193233801 0.37523526017134418 0 0.3972892400718947 0.16563993209502181 0 0.3603074848216346 0.15401470087110539 0 0.37516171960683908 0.121918126660369 0 0.70015119067225129 0.48481914991727459 0 0.64455163611866495 0.50369301794551069 0 0.66329969176266512 0.46626046872004567 0 0.57387636360620708 0.54318431390135336 0 0.53087311892591971 0.55299263141448529 0 0.554170140907293 0.50922353359177785 0 0.50333998054938722 0.50119715791968966 0 0.50753758205811061 0.4506562873613274 0 0.54783891860069212 0.46640164214823893 0 0.58267137064684116 0.87013301365640838 0 0.6027107599280892 0.83436006790502326 0 0.62483828039315681 0.8780818733396436 0 0.12986698634359389 0.58267137064684615 0 0.1656399320949789 0.60271075992809464 0 0.1219181266603569 0.62483828039315903 0 0.87012666750595846 0.41743873185103042 0 0.83436006790498052 0.39728924007189959 0 0.87815187193233801 0.37523526017134418 0 0.41732862935313042 0.12986698634362279 0 0.3972892400718947 0.16563993209502181 0 0.37516171960683908 0.121918126660369 0 0.35984320557492089 0.56698606271778873 0 0.35815651743779398 0.51113440447909086 0 0.39982789553993509 0.53462762214740622 0 0.43087117257049001 0.8215422551712771 0 0.46593838964869061 0.80781872835503554 0 0.45353891581270822 0.85551523377818905 0 0.17845774482872559 0.43087117257049429 0 0.19218127164496679 0.46593838964869538 0 0.1444847662218138 0.45353891581271188 0 0.8215422551712277 0.56912882742954496 0 0.80781854240107975 0.53406203754901738 0 0.85551478316835361 0.54646211938695222 0 0.56912882742954041 0.17845774482877461 0 0.53404982287327418 0.19215288291432539 0 0.54646108418729233 0.1444847662218687 0 0.89586000931544074 0.25714619498770419 0 0.89556054516486661 0.21720615046483649 0 0.94465622530468663 0.23167460333446291 0 0.91838802593870927 0.18172590289757809 0 0.94465622530468663 0.23167460333446291 0 0.89556054516486661 0.21720615046483649 0 0.25714619498771307 0.1041399906845497 0 0.21720615046484709 0.1044394548351292 0 0.23167460333446299 0.05534377469531044 0 0.18172590289758209 0.08161197406129285 0 0.23167460333446299 0.05534377469531044 0 0.21720615046484709 0.1044394548351292 0 0.50333998054938722 0.50119715791968966 0 0.54783891860069212 0.46640164214823893 0 0.554170140907293 0.50922353359177785 0 0.16901316006868169 0.16800219386663079 0 0.12587517708284679 0.1889683322666954 0 0.12294765968567151 0.14825146416195439 0 0.83199780613337848 0.1690131600686714 0 0.8110316677333288 0.125875177082863 0 0.8517485358380722 0.12294765968568611 0 0.74198804864688339 0.90892718720327403 0 0.74154628962857594 0.86274820500026039 0 0.78020430794084783 0.88768307197553598 0 0.78284912262770068 0.83746308049763585 0 0.78020430794084783 0.88768307197553598 0 0.74154628962857594 0.86274820500026039 0 0.091072812796719582 0.74198804864687795 0 0.13725179499972981 0.74154628962856628 0 0.11231692802445629 0.78020430794084028 0 0.16253691950235041 0.78284912262768558 0 0.11231692802445629 0.78020430794084028 0 0.13725179499972981 0.74154628962856628 0 0.82118136511706341 0.082875076569723011 0 0.77925951159456153 0.09969477121230251 0 0.76543419162344684 0.056452228708420968 0 0.08287507656968085 0.1788186348829835 0 0.099694771212264055 0.22074048840547039 0 0.056452228708379938 0.23456580837661581 0 0.91838802593884228 0.81827409710237209 0 0.9041449437197947 0.7786886066890556 0 0.9442075111696665 0.76777356182390766 0 0.1817259028976386 0.91838802593888857 0 0.22131139331094829 0.9041449437198319 0 0.23222643817617661 0.94420751116970569 0 0.73688246401832591 0.11047754041323141 0 0.76543419162344684 0.056452228708420968 0 0.77925951159456153 0.09969477121230251 0 0.1104775404132264 0.2631175359816938 0 0.056452228708379938 0.23456580837661581 0 0.099694771212264055 0.22074048840547039 0 0.88949062093135778 0.73694585442531257 0 0.9442075111696665 0.76777356182390766 0 0.9041449437197947 0.7786886066890556 0 0.26305414557470391 0.88949062093136155 0 0.23222643817617661 0.94420751116970569 0 0.22131139331094829 0.9041449437198319 0 0.73984939806388494 0.70740600291923139 0 0.71159714897733284 0.75039044679290845 0 0.70252050881959183 0.70358884261915833 0 0.74917861927654894 0.74229989257760443 0 0.71159714897733284 0.75039044679290845 0 0.73984939806388494 0.70740600291923139 0 0.2925512105451914 0.73997990291173188 0 0.249609553207091 0.71159714897732929 0 0.29641115738084339 0.70252050881958938 0 0.25770010742238642 0.74917861927655205 0 0.249609553207091 0.71159714897732929 0 0.2925512105451914 0.73997990291173188 0 0.70740600291923772 0.26015060193611528 0 0.75039044679291111 0.28840285102267788 0 0.70358884261915744 0.29747949118041561 0 0.74229989257762263 0.250821380723454 0 0.75039044679291111 0.28840285102267788 0 0.70740600291923772 0.26015060193611528 0 0.26014443552207939 0.29262390443653519 0 0.28840285102268098 0.24960955320708811 0 0.29747949118041711 0.2964111573808435 0 0.25082138072344978 0.25770010742236849 0 0.28840285102268098 0.24960955320708811 0 0.26014443552207939 0.29262390443653519 0 0.88949062093135778 0.73694585442531257 0 0.85607519768343354 0.69380468830529196 0 0.90051880305432697 0.69261863673346957 0 0.26305414557470391 0.88949062093136155 0 0.30619531169472608 0.85607519768342955 0 0.30738136326657722 0.90051880305435028 0 0.73688246401832591 0.11047754041323141 0 0.69379929796456197 0.14392209494791061 0 0.69253601466723103 0.09949211948105087 0 0.1104775404132264 0.2631175359816938 0 0.14392209494791439 0.30620070203545702 0 0.099492119481027347 0.30746398533281638 0 0.58981073711177334 0.48140931020849848 0 0.54783891860069212 0.46640164214823893 0 0.59313386551587477 0.43977047843653239 0 0.640156794425081 0.43301393728221721 0 0.69595787604187809 0.43071000156707989 0 0.66329969176266512 0.46626046872004567 0 0.70015119067225129 0.48481914991727459 0 0.66329969176266512 0.46626046872004567 0 0.69595787604187809 0.43071000156707989 0 0.8289812646369813 0.82898126463698818 0 0.81306033001437827 0.8677384967307622 0 0.78284912262770068 0.83746308049763585 0 0.17101873536300011 0.82898126463696109 0 0.1322615032692282 0.8130603300143705 0 0.16253691950235041 0.78284912262768558 0 0.84534053180161173 0.2262639405833009 0 0.87355793346388477 0.18922011052113649 0 0.89556054516486661 0.21720615046483649 0 0.22626394058331961 0.15465946819838111 0 0.18922011052115781 0.12644206653611201 0 0.21720615046484709 0.1044394548351292 0 0.90082758526900886 0.098076845682916511 0 0.86148619541339633 0.089689702191568438 0 0.86589314360155567 0.054872692726639853 0 0.098076845682915317 0.099172414730993488 0 0.089689702191541126 0.13851380458662241 0 0.054872692726595548 0.13410685639845171 0 0.84598529912884157 0.63969251517827153 0 0.89064679688610338 0.6216080907827598 0 0.88396545633132484 0.6625197322180193 0 0.63969251517826664 0.15401470087115929 0 0.62160809078275991 0.1093532031139005 0 0.66251865414987876 0.1160340021949529 0 0.36030748482174152 0.84598529912882459 0 0.37839190921727062 0.89064679688614412 0 0.33748026778199908 0.88396545633134682 0 0.15401470087117619 0.36030748482174652 0 0.10935320311385981 0.37839190921727089 0 0.11603400219493119 0.33748134585014028 0 0.82118136511706341 0.082875076569723011 0 0.8517485358380722 0.12294765968568611 0 0.8110316677333288 0.125875177082863 0 0.08287507656968085 0.1788186348829835 0 0.12294765968567151 0.14825146416195439 0 0.12587517708284679 0.1889683322666954 0 0.75000000000034661 1 0 0.7000000000006934 1 0 0.71789175274016548 0.95136708251202151 0 0 0.75000000000034661 0 0 0.7000000000006934 0 0.04863291748797445 0.71789175274016204 0 1 0.24999999999941211 0 1 0.29999999999926641 0 0.94915666091748963 0.28320804985299752 0 0.24999999999941211 0 0 0.29999999999926641 0 0 0.28320804985300141 0.050843339082505573 0 0.55000000000173355 1 0 0.51507566941747085 0.9626786017237855 0 0.55307204985744796 0.94819812235491685 0 0 0.55000000000173355 0 0.037321398276215258 0.51507566941747263 0 0.051801877645083663 0.55307204985745195 0 1 0.44999999999882923 0 0.96266688603193029 0.48495124540067203 0 0.94812782820415209 0.44708943904932719 0 0.44999999999882923 0 0 0.48492433058289169 0.037321398276272413 0 0.44692795014265252 0.051801877645060238 0 0.49854341599767982 0.37075914768127122 0 0.51491507395299929 0.3326740076510219 0 0.54715635490880632 0.37829016026862072 0 0.91838802593884228 0.81827409710237209 0 0.88962265630811221 0.85311725681459705 0 0.87660297360393757 0.8104127896505644 0 0.1817259028976386 0.91838802593888857 0 0.14688274318541941 0.88962265630811932 0 0.18958721034944021 0.87660297360394568 0 0.50333998054938722 0.50119715791968966 0 0.554170140907293 0.50922353359177785 0 0.53087311892591971 0.55299263141448529 0 0.91890123454466932 0.39094742729597309 0 0.95886012268748921 0.4068558182724159 0 0.90991454156957952 0.4312731559748802 0 0.94812782820415209 0.44708943904932719 0 0.90991454156957952 0.4312731559748802 0 0.95886012268748921 0.4068558182724159 0 0.84999999999965292 1 0 0.82675923981951416 0.95611053755456221 0 0.86696410734367158 0.94753096683315619 0 0 0.84999999999965292 0 0.043889462445437968 0.82675923981951283 0 0.052469033166843738 0.86696410734366991 0 0.1817259028976386 0.91838802593888857 0 0.18045991219397989 0.960710939969875 0 0.13834721989462789 0.94095916274077984 0 0.91838802593884228 0.81827409710237209 0 0.96071093996985157 0.81954008780615684 0 0.94095916274074942 0.86165278010542579 0 0.08287507656968085 0.1788186348829835 0 0.038839999600931263 0.17949825993190149 0 0.054872692726595548 0.13410685639845171 0 0.82118136511706341 0.082875076569723011 0 0.82050174006822896 0.038839999600956771 0 0.86589314360155567 0.054872692726639853 0 0.15000000000062411 1 0 0.13834721989462789 0.94095916274077984 0 0.18045991219397989 0.960710939969875 0 1 0.84999999999960507 0 0.94095916274074942 0.86165278010542579 0 0.96071093996985157 0.81954008780615684 0 0 0.15000000000062411 0 0.054872692726595548 0.13410685639845171 0 0.038839999600931263 0.17949825993190149 0 0.84999999999960507 0 0 0.86589314360155567 0.054872692726639853 0 0.82050174006822896 0.038839999600956771 0 1 0.14999999999970359 0 0.96080966346491015 0.18035159017841959 0 0.94100406608115506 0.1383574446607955 0 0.14999999999970359 0 0 0.18035159017842109 0.039190336535090492 0 0.1383574446607988 0.058995933918849157 0 0.91838802593870927 0.18172590289757809 0 0.94100406608115506 0.1383574446607955 0 0.96080966346491015 0.18035159017841959 0 0.18172590289758209 0.08161197406129285 0 0.1383574446607988 0.058995933918849157 0 0.18035159017842109 0.039190336535090492 0 0.40653508887824003 0.61580573377480397 0 0.45030222762303879 0.58443295115431027 0 0.45517457031814612 0.62743100079604397 0 0.50333998054938722 0.50119715791968966 0 0.53087311892591971 0.55299263141448529 0 0.47974773860103892 0.54872726831320284 0 0.33382663527330159 0.44130125047503482 0 0.30597655500381687 0.3934681685211931 0 0.35481422397128459 0.40312981465069342 0 0.34804757266227387 0.35750068079406011 0 0.35481422397128459 0.40312981465069342 0 0.30597655500381687 0.3934681685211931 0 0.39419886675318527 0.41912225240070788 0 0.39222057657781068 0.38067796690227418 0 0.42930823106401639 0.40626685012722968 0 0.5586987495249669 0.33382663527330653 0 0.54715635490880632 0.37829016026862072 0 0.51491507395299929 0.3326740076510219 0 0.84598529912884157 0.63969251517827153 0 0.88396545633132484 0.6625197322180193 0 0.85607519768343354 0.69380468830529196 0 0.63969251517826664 0.15401470087115929 0 0.66251865414987876 0.1160340021949529 0 0.69379929796456197 0.14392209494791061 0 0.36030748482174152 0.84598529912882459 0 0.33748026778199908 0.88396545633134682 0 0.30619531169472608 0.85607519768342955 0 0.15401470087117619 0.36030748482174652 0 0.11603400219493119 0.33748134585014028 0 0.14392209494791439 0.30620070203545702 0 0.41009598069569558 0.49083935749285379 0 0.39982789553993509 0.53462762214740622 0 0.35815651743779398 0.51113440447909086 0 0.43087117257049001 0.8215422551712771 0 0.38703015239361932 0.80283068154761972 0 0.43306783640023289 0.78031198216144404 0 0.8215422551712277 0.56912882742954496 0 0.8028306815476034 0.61296984760642026 0 0.78031198216143516 0.56693216359979737 0 0.17845774482872559 0.43087117257049429 0 0.197169318452384 0.38703015239362498 0 0.21968801783855879 0.43306783640023788 0 0.56912882742954041 0.17845774482877461 0 0.61296984760641449 0.19716931845240021 0 0.56683314878414581 0.21944955250104689 0 0.86696410734367158 0.94753096683315619 0 0.82675923981951416 0.95611053755456221 0 0.85382799508926477 0.91295829388058414 0 0.052469033166843738 0.86696410734366991 0 0.043889462445437968 0.82675923981951283 0 0.087041706119416085 0.85382799508926188 0 0.81709574086843206 0.91318696080656769 0 0.85382799508926477 0.91295829388058414 0 0.82675923981951416 0.95611053755456221 0 0.086813039193431391 0.81709574086842884 0 0.087041706119416085 0.85382799508926188 0 0.043889462445437968 0.82675923981951283 0 0.77998481823117694 0.71397317153691997 0 0.8312019486901514 0.72745002167959472 0 0.78651189793386345 0.75664155808652755 0 0.28602682846308641 0.77998481823117594 0 0.27254997832041528 0.8312019486901443 0 0.24335844191347281 0.78651189793387466 0 0.71397317153692708 0.22001518176882201 0 0.72767516840721058 0.16853767177393791 0 0.7582555232258138 0.2115548431873896 0 0.22001518176882229 0.28602682846307981 0 0.1685376717739448 0.27232483159280108 0 0.2115548431873881 0.2417444767741872 0 0.54901591374940373 0.42306523525165751 0 0.50753758205811061 0.4506562873613274 0 0.5047849391802508 0.40719950955717021 0 0.54901591374940373 0.42306523525165751 0 0.59313386551587477 0.43977047843653239 0 0.54783891860069212 0.46640164214823893 0 0.81709574086843206 0.91318696080656769 0 0.81306033001437827 0.8677384967307622 0 0.85174853583809862 0.87705234031428159 0 0.086813039193431391 0.81709574086842884 0 0.1322615032692282 0.8130603300143705 0 0.1229476596857173 0.85174853583809695 0 0.839908789927305 0.77106070975262608 0 0.79422489417873421 0.79640925234634441 0 0.78651189793386345 0.75664155808652755 0 0.22893929024737289 0.83990878992727813 0 0.20359074765364421 0.79422489417871855 0 0.24335844191347281 0.78651189793387466 0 0.77216325087772952 0.15899695163319821 0 0.80027482104603809 0.20596721135052129 0 0.7582555232258138 0.2115548431873896 0 0.15899695163321451 0.22783674912227669 0 0.20596721135052939 0.19972517895396219 0 0.2115548431873881 0.2417444767741872 0 0.70087539567735502 0.57165914616526226 0 0.65501639383771026 0.594528181397324 0 0.66548584431530877 0.55616712808283064 0 0.69288637798153729 0.61204665218001397 0 0.65501639383771026 0.594528181397324 0 0.70087539567735502 0.57165914616526226 0 0.57188338999077359 0.29874123486230147 0 0.59596170682035776 0.34609402305862419 0 0.5586987495249669 0.33382663527330653 0 0.61204665218000809 0.30711362201846659 0 0.59596170682035776 0.34609402305862419 0 0.57188338999077359 0.29874123486230147 0 0.55307204985744796 0.94819812235491685 0 0.56877264426066887 0.91182300080710277 0 0.5931441817276254 0.95886012268751675 0 0.60938371359314658 0.91847489683800321 0 0.5931441817276254 0.95886012268751675 0 0.56877264426066887 0.91182300080710277 0 0.051801877645083663 0.55307204985745195 0 0.088176999192898689 0.56877264426067353 0 0.041139877312483641 0.59314418172763017 0 0.081525103161997597 0.6093837135931508 0 0.041139877312483641 0.59314418172763017 0 0.088176999192898689 0.56877264426067353 0 0.44692795014265252 0.051801877645060238 0 0.43122735573933979 0.088176999192917438 0 0.40685581827241191 0.041139877312511682 0 0.39061628640684498 0.081525103161991672 0 0.40685581827241191 0.041139877312511682 0 0.43122735573933979 0.088176999192917438 0 0.56566515596461675 0.63670464971409091 0 0.54058719659441246 0.66889411379075558 0 0.51172471858873747 0.64015771271794875 0 0.35984320557492089 0.56698606271778873 0 0.331306197573488 0.54052564146842386 0 0.35815651743779398 0.51113440447909086 0 0.51484304721220842 0.69707233951836334 0 0.51172471858873747 0.64015771271794875 0 0.54058719659441246 0.66889411379075558 0 0.30292766048163949 0.51484304721221474 0 0.35815651743779398 0.51113440447909086 0 0.331306197573488 0.54052564146842386 0 0.90045039720880915 0.9020090423547924 0 0.86696410734367158 0.94753096683315619 0 0.85382799508926477 0.91295829388058414 0 0.097990957645208238 0.90045039720880915 0 0.052469033166843738 0.86696410734366991 0 0.087041706119416085 0.85382799508926188 0 0.82118136511706341 0.082875076569723011 0 0.86589314360155567 0.054872692726639853 0 0.86148619541339633 0.089689702191568438 0 0.08287507656968085 0.1788186348829835 0 0.054872692726595548 0.13410685639845171 0 0.089689702191541126 0.13851380458662241 0 0.67757268808231397 0.93106206656183088 0 0.70475631558365914 0.90098127745102974 0 0.71789175274016548 0.95136708251202151 0 0.068937933438162791 0.67757268808231053 0 0.099018722548963364 0.70475631558365193 0 0.04863291748797445 0.71789175274016204 0 0.93106206656185309 0.32242731191769503 0 0.89886191075654698 0.29506339503703172 0 0.94915666091748963 0.28320804985299752 0 0.32242731191769902 0.068937933438140794 0 0.29506339503703888 0.1011380892434444 0 0.28320804985300141 0.050843339082505573 0 0.59819537371016407 0.74380966024143391 0 0.57578062281532438 0.77751665353176347 0 0.54465502325161819 0.74717983044080061 0 0.25619033975856881 0.59819537371016862 0 0.2224870800581388 0.57577541371134155 0 0.25287139441262568 0.54458355434492378 0 0.74380966024142703 0.40180462628984132 0 0.77752557158083724 0.42422273168818408 0 0.74730218607442667 0.45539100053644521 0 0.40180462628983732 0.2561903397585753 0 0.42421838472613971 0.22246502005787769 0 0.45533136021725079 0.2525687312087147 0 0.56566515596461675 0.63670464971409091 0 0.53542397956703913 0.60119875982347493 0 0.57484409313590223 0.58437321637184114 0 0.59819537371016407 0.74380966024143391 0 0.57051182622447827 0.69668652018496713 0 0.6083790122881827 0.70496300707145865 0 0.25619033975856881 0.59819537371016862 0 0.30429740679959738 0.56913905146460098 0 0.29503699292854352 0.60837901228818936 0 0.74380966024142703 0.40180462628984132 0 0.69595787604187809 0.43071000156707989 0 0.70496300707145554 0.39162098771181952 0 0.40180462628983732 0.2561903397585753 0 0.43059486795334201 0.30395973419063538 0 0.39162098771181342 0.29503699292854563 0 0.50000000000002642 0.7803135888501761 0 0.54465502325161819 0.74717983044080061 0 0.53770425635794761 0.80104587463999666 0 0.2196864111498267 0.50000000000003153 0 0.25287139441262568 0.54458355434492378 0 0.1989632851005598 0.53769147668950479 0 0.78031358885017377 0.49999999999997569 0 0.74730218607442667 0.45539100053644521 0 0.80106707846564795 0.46230714888029367 0 0.49999999999997108 0.21968641114982909 0 0.45533136021725079 0.2525687312087147 0 0.46229330881044273 0.19890916456654811 0 0.51484304721220842 0.69707233951836334 0 0.54058719659441246 0.66889411379075558 0 0.57051182622447827 0.69668652018496713 0 0.30292766048163949 0.51484304721221474 0 0.331306197573488 0.54052564146842386 0 0.30429740679959738 0.56913905146460098 0 0.56566515596461675 0.63670464971409091 0 0.57051182622447827 0.69668652018496713 0 0.54058719659441246 0.66889411379075558 0 0.35984320557492089 0.56698606271778873 0 0.30429740679959738 0.56913905146460098 0 0.331306197573488 0.54052564146842386 0 0.60938371359314658 0.91847489683800321 0 0.58267137064684116 0.87013301365640838 0 0.62483828039315681 0.8780818733396436 0 0.081525103161997597 0.6093837135931508 0 0.12986698634359389 0.58267137064684615 0 0.1219181266603569 0.62483828039315903 0 0.91890123454466932 0.39094742729597309 0 0.87012666750595846 0.41743873185103042 0 0.87815187193233801 0.37523526017134418 0 0.39061628640684498 0.081525103161991672 0 0.41732862935313042 0.12986698634362279 0 0.37516171960683908 0.121918126660369 0 0.5133022293955174 0.064893331803591428 0 0.52499999999875446 0.029444907164469181 0 0.55993888817186677 0.043612803661174412 0 0.064893331803534807 0.48669777060454478 0 0.029444907164209121 0.47500000000196552 0 0.043612803661092707 0.44006111182840391 0 0.93510666819640953 0.51330222939551939 0 0.97055509283553232 0.52499999999875435 0 0.95638719633882641 0.5599388881718611 0 0.48669777060454272 0.93510666819646593 0 0.47500000000196563 0.970555092835793 0 0.44006111182840962 0.9563871963389079 0 0.56759263990989184 0.81794319034601648 0 0.54047998161173716 0.84333512669480526 0 0.53770425635794761 0.80104587463999666 0 0.18205680965398621 0.56759263990989739 0 0.1566648733051971 0.54047998161174216 0 0.1989632851005598 0.53769147668950479 0 0.81794319034597418 0.43240736009009317 0 0.84333218736938698 0.4595365182652234 0 0.80106707846564795 0.46230714888029367 0 0.43240736009008851 0.18205680965402779 0 0.45952001838826873 0.15666487330524251 0 0.46229330881044273 0.19890916456654811 0 0.50333998054938722 0.50119715791968966 0 0.47974773860103892 0.54872726831320284 0 0.45293656999117771 0.51494832297079129 0 0.73982803480991577 0.79629608696991705 0 0.69892030930712212 0.7971997999085858 0 0.71159714897733284 0.75039044679290845 0 0.20370391303007401 0.73982803480989479 0 0.2028002000914135 0.69892030930711557 0 0.249609553207091 0.71159714897732929 0 0.79629608696994103 0.26017196519011448 0 0.7971997999085878 0.3010796906928917 0 0.75039044679291111 0.28840285102267788 0 0.26017196519013502 0.20370391303005 0 0.30107969069289831 0.20280020009141189 0 0.28840285102268098 0.24960955320708811 0 0.43087117257049001 0.8215422551712771 0 0.40481452396081791 0.85130421228141606 0 0.38703015239361932 0.80283068154761972 0 0.36030748482174152 0.84598529912882459 0 0.38703015239361932 0.80283068154761972 0 0.40481452396081791 0.85130421228141606 0 0.17845774482872559 0.43087117257049429 0 0.14869578771858949 0.40481452396082068 0 0.197169318452384 0.38703015239362498 0 0.8215422551712277 0.56912882742954496 0 0.85130417396420255 0.59518556406638579 0 0.8028306815476034 0.61296984760642026 0 0.84598529912884157 0.63969251517827153 0 0.8028306815476034 0.61296984760642026 0 0.85130417396420255 0.59518556406638579 0 0.15401470087117619 0.36030748482174652 0 0.197169318452384 0.38703015239362498 0 0.14869578771858949 0.40481452396082068 0 0.56912882742954041 0.17845774482877461 0 0.59518547603920147 0.14869578771864489 0 0.61296984760641449 0.19716931845240021 0 0.63969251517826664 0.15401470087115929 0 0.61296984760641449 0.19716931845240021 0 0.59518547603920147 0.14869578771864489 0 0.6519524273377173 0.64249931920594539 0 0.65501639383771026 0.594528181397324 0 0.69288637798153729 0.61204665218001397 0 0.6424993192059415 0.3480475726622802 0 0.59596170682035776 0.34609402305862419 0 0.61204665218000809 0.30711362201846659 0 0.35944937237716967 0.65164789808436319 0 0.40564717507982689 0.65626423320524974 0 0.38642358467307758 0.69286258923597266 0 0.90045039720880915 0.9020090423547924 0 0.85174853583809862 0.87705234031428159 0 0.88962265630811221 0.85311725681459705 0 0.097990957645208238 0.90045039720880915 0 0.1229476596857173 0.85174853583809695 0 0.14688274318541941 0.88962265630811932 0 0.90082758526900886 0.098076845682916511 0 0.88777909259956078 0.1484760565886154 0 0.8517485358380722 0.12294765968568611 0 0.098076845682915317 0.099172414730993488 0 0.1484760565886207 0.1122209074004519 0 0.12294765968567151 0.14825146416195439 0 0.35815651743779398 0.51113440447909086 0 0.33436424489304489 0.47849603121740791 0 0.37702386074717259 0.45819417564476811 0 0.92670321183853355 0.65773042910151081 0 0.94635952848698612 0.71209247961721311 0 0.90051880305432697 0.69261863673346957 0 0.65773042910151891 0.073296788161472337 0 0.71174922810186925 0.053730171687687178 0 0.69253601466723103 0.09949211948105087 0 0.3422695708985129 0.92670321183858773 0 0.28790752038294382 0.94635952848702642 0 0.30738136326657722 0.90051880305435028 0 0.073296788161418117 0.34226957089850552 0 0.053730171687646627 0.28825077189828552 0 0.099492119481027347 0.30746398533281638 0 0.43565339604028508 0.55159384357101338 0 0.45293656999117771 0.51494832297079129 0 0.47974773860103892 0.54872726831320284 0 0.33382663527330159 0.44130125047503482 0 0.2963043386970643 0.4298320229681446 0 0.30597655500381687 0.3934681685211931 0 1 0.69999999999921003 0 0.94635952848698612 0.71209247961721311 0 0.96779701826738695 0.67105375815842694 0 0.69999999999921003 0 0 0.71174922810186925 0.053730171687687178 0 0.67098510785536181 0.032220921767549461 0 0.30000000000124832 1 0 0.28790752038294382 0.94635952848702642 0 0.32894624184180998 0.96779701826738929 0 0 0.30000000000124832 0 0.053730171687646627 0.28825077189828552 0 0.032220921767546963 0.32901489214487523 0 0.56759263990989184 0.81794319034601648 0 0.57578062281532438 0.77751665353176347 0 0.61896574319320252 0.795216048370321 0 0.59819537371016407 0.74380966024143391 0 0.61896574319320252 0.795216048370321 0 0.57578062281532438 0.77751665353176347 0 0.25619033975856881 0.59819537371016862 0 0.2047839516296828 0.61896574319320252 0 0.2224870800581388 0.57577541371134155 0 0.18205680965398621 0.56759263990989739 0 0.2224870800581388 0.57577541371134155 0 0.2047839516296828 0.61896574319320252 0 0.74380966024142703 0.40180462628984132 0 0.79521604837030013 0.38103425680679831 0 0.77752557158083724 0.42422273168818408 0 0.81794319034597418 0.43240736009009317 0 0.77752557158083724 0.42422273168818408 0 0.79521604837030013 0.38103425680679831 0 0.40180462628983732 0.2561903397585753 0 0.38103425680679859 0.2047839516297037 0 0.42421838472613971 0.22246502005787769 0 0.43240736009008851 0.18205680965402779 0 0.42421838472613971 0.22246502005787769 0 0.38103425680679859 0.2047839516297037 0 0.63969251517836323 0.84598529912890386 0 0.6027107599280892 0.83436006790502326 0 0.61896574319320252 0.795216048370321 0 0.1540147008710982 0.63969251517836956 0 0.1656399320949789 0.60271075992809464 0 0.2047839516296828 0.61896574319320252 0 0.84598529912889664 0.36030748482164038 0 0.83436006790498052 0.39728924007189959 0 0.79521604837030013 0.38103425680679831 0 0.3603074848216346 0.15401470087110539 0 0.3972892400718947 0.16563993209502181 0 0.38103425680679859 0.2047839516297037 0 0.53432142347292233 0.88563193847251998 0 0.58267137064684116 0.87013301365640838 0 0.56877264426066887 0.91182300080710277 0 0.1143680615274819 0.53432142347292733 0 0.12986698634359389 0.58267137064684615 0 0.088176999192898689 0.56877264426067353 0 0.91890123454466932 0.39094742729597309 0 0.90991454156957952 0.4312731559748802 0 0.87012666750595846 0.41743873185103042 0 0.46567857652706018 0.1143680615275231 0 0.41732862935313042 0.12986698634362279 0 0.43122735573933979 0.088176999192917438 0 0.60938371359314658 0.91847489683800321 0 0.56877264426066887 0.91182300080710277 0 0.58267137064684116 0.87013301365640838 0 0.081525103161997597 0.6093837135931508 0 0.088176999192898689 0.56877264426067353 0 0.12986698634359389 0.58267137064684615 0 0.88561059063756964 0.46572761956237563 0 0.87012666750595846 0.41743873185103042 0 0.90991454156957952 0.4312731559748802 0 0.39061628640684498 0.081525103161991672 0 0.43122735573933979 0.088176999192917438 0 0.41732862935313042 0.12986698634362279 0 0.56759263990989184 0.81794319034601648 0 0.6027107599280892 0.83436006790502326 0 0.58267137064684116 0.87013301365640838 0 0.18205680965398621 0.56759263990989739 0 0.1656399320949789 0.60271075992809464 0 0.12986698634359389 0.58267137064684615 0 0.81794319034597418 0.43240736009009317 0 0.83436006790498052 0.39728924007189959 0 0.87012666750595846 0.41743873185103042 0 0.43240736009008851 0.18205680965402779 0 0.3972892400718947 0.16563993209502181 0 0.41732862935313042 0.12986698634362279 0 0.77998481823117694 0.71397317153691997 0 0.78651189793386345 0.75664155808652755 0 0.74917861927654894 0.74229989257760443 0 0.28602682846308641 0.77998481823117594 0 0.24335844191347281 0.78651189793387466 0 0.25770010742238642 0.74917861927655205 0 0.71397317153692708 0.22001518176882201 0 0.7582555232258138 0.2115548431873896 0 0.74229989257762263 0.250821380723454 0 0.22001518176882229 0.28602682846307981 0 0.2115548431873881 0.2417444767741872 0 0.25082138072344978 0.25770010742236849 0 0.8215422551712277 0.56912882742954496 0 0.78031198216143516 0.56693216359979737 0 0.80781854240107975 0.53406203754901738 0 0.43087117257049001 0.8215422551712771 0 0.43306783640023289 0.78031198216144404 0 0.46593838964869061 0.80781872835503554 0 0.56912882742954041 0.17845774482877461 0 0.56683314878414581 0.21944955250104689 0 0.53404982287327418 0.19215288291432539 0 0.17845774482872559 0.43087117257049429 0 0.21968801783855879 0.43306783640023788 0 0.19218127164496679 0.46593838964869538 0 0.92670321183853355 0.65773042910151081 0 0.96779701826738695 0.67105375815842694 0 0.94635952848698612 0.71209247961721311 0 0.65773042910151891 0.073296788161472337 0 0.67098510785536181 0.032220921767549461 0 0.71174922810186925 0.053730171687687178 0 0.3422695708985129 0.92670321183858773 0 0.32894624184180998 0.96779701826738929 0 0.28790752038294382 0.94635952848702642 0 0.073296788161418117 0.34226957089850552 0 0.032220921767546963 0.32901489214487523 0 0.053730171687646627 0.28825077189828552 0 0.51484304721220842 0.69707233951836334 0 0.46736891737654429 0.70015537930374983 0 0.47818752133962877 0.66454462905280853 0 0.30292766048163949 0.51484304721221474 0 0.29988655052531688 0.46700727827593119 0 0.33436424489304489 0.47849603121740791 0 0.53432142347292233 0.88563193847251998 0 0.52425337578225772 0.9223731761594427 0 0.48758069708049379 0.89080072540186539 0 0.1143680615274819 0.53432142347292733 0 0.07762682384055844 0.52425337578226128 0 0.1091992745981364 0.48758069708049778 0 0.88561059063756964 0.46572761956237563 0 0.92203742772043751 0.47579485578641628 0 0.89079805168298443 0.51242544533572376 0 0.46567857652706018 0.1143680615275231 0 0.47574662421782782 0.077626823840590969 0 0.51241930291950477 0.1091992745981813 0 0.49189101320880302 0.59024331187324797 0 0.47974773860103892 0.54872726831320284 0 0.53087311892591971 0.55299263141448529 0 0.81709574086843206 0.91318696080656769 0 0.78020430794084783 0.88768307197553598 0 0.81306033001437827 0.8677384967307622 0 0.086813039193431391 0.81709574086842884 0 0.11231692802445629 0.78020430794084028 0 0.1322615032692282 0.8130603300143705 0 0.90045039720880915 0.9020090423547924 0 0.85382799508926477 0.91295829388058414 0 0.85174853583809862 0.87705234031428159 0 0.097990957645208238 0.90045039720880915 0 0.087041706119416085 0.85382799508926188 0 0.1229476596857173 0.85174853583809695 0 0.82118136511706341 0.082875076569723011 0 0.86148619541339633 0.089689702191568438 0 0.8517485358380722 0.12294765968568611 0 0.08287507656968085 0.1788186348829835 0 0.089689702191541126 0.13851380458662241 0 0.12294765968567151 0.14825146416195439 0 0.56759263990989184 0.81794319034601648 0 0.61896574319320252 0.795216048370321 0 0.6027107599280892 0.83436006790502326 0 0.18205680965398621 0.56759263990989739 0 0.2047839516296828 0.61896574319320252 0 0.1656399320949789 0.60271075992809464 0 0.81794319034597418 0.43240736009009317 0 0.79521604837030013 0.38103425680679831 0 0.83436006790498052 0.39728924007189959 0 0.43240736009008851 0.18205680965402779 0 0.38103425680679859 0.2047839516297037 0 0.3972892400718947 0.16563993209502181 0 0.91838802593870927 0.18172590289757809 0 0.87355793346388477 0.18922011052113649 0 0.88777909259956078 0.1484760565886154 0 0.18172590289758209 0.08161197406129285 0 0.18922011052115781 0.12644206653611201 0 0.1484760565886207 0.1122209074004519 0 0.50333998054938722 0.50119715791968966 0 0.46152714345798918 0.47344359412352599 0 0.50753758205811061 0.4506562873613274 0 0.46102425708533701 0.43254199134332588 0 0.50753758205811061 0.4506562873613274 0 0.46152714345798918 0.47344359412352599 0 0.70252050881959183 0.70358884261915833 0 0.67626275269587088 0.72713741921009012 0 0.6768914574865772 0.67861120078714243 0 0.29641115738084339 0.70252050881958938 0 0.27349656744860212 0.67581741996408695 0 0.32259853082073792 0.67670072609835186 0 0.70358884261915744 0.29747949118041561 0 0.72713741921008324 0.32373724730413678 0 0.6786112007871401 0.32310854251343019 0 0.29747949118041711 0.2964111573808435 0 0.32373692627050221 0.27286413781593999 0 0.3231032570156932 0.32141443408924047 0 0.43301393728221038 0.35984320557492139 0 0.39222057657781068 0.38067796690227418 0 0.39120887188745579 0.33407577688404289 0 0.48669777060454272 0.93510666819646593 0 0.48758069708049379 0.89080072540186539 0 0.52425337578225772 0.9223731761594427 0 0.064893331803534807 0.48669777060454478 0 0.1091992745981364 0.48758069708049778 0 0.07762682384055844 0.52425337578226128 0 0.93510666819640953 0.51330222939551939 0 0.89079805168298443 0.51242544533572376 0 0.92203742772043751 0.47579485578641628 0 0.5133022293955174 0.064893331803591428 0 0.51241930291950477 0.1091992745981813 0 0.47574662421782782 0.077626823840590969 0 0.4434591735942961 0.66641640622551224 0 0.42715538333808079 0.70077759375307946 0 0.40564717507982689 0.65626423320524974 0 0.38642358467307758 0.69286258923597266 0 0.40564717507982689 0.65626423320524974 0 0.42715538333808079 0.70077759375307946 0 0.57387636360620708 0.54318431390135336 0 0.554170140907293 0.50922353359177785 0 0.59621567360238914 0.5184866806641607 0 0.84999999999965292 1 0 0.79999999999999982 1 0 0.82675923981951416 0.95611053755456221 0 0 0.84999999999965292 0 0 0.79999999999999982 0 0.043889462445437968 0.82675923981951283 0 1 0.14999999999970359 0 1 0.19999999999955789 0 0.96080966346491015 0.18035159017841959 0 0.14999999999970359 0 0 0.19999999999955789 0 0 0.18035159017842109 0.039190336535090492 0 1 0.79999999999947335 0 1 0.84999999999960507 0 0.96071093996985157 0.81954008780615684 0 0.79999999999947335 0 0 0.84999999999960507 0 0 0.82050174006822896 0.038839999600956771 0 0.20000000000083221 1 0 0.15000000000062411 1 0 0.18045991219397989 0.960710939969875 0 0 0.20000000000083221 0 0 0.15000000000062411 0 0.038839999600931263 0.17949825993190149 0 0.64518564541690571 0.69601563325001548 0 0.6768914574865772 0.67861120078714243 0 0.67626275269587088 0.72713741921009012 0 0.30421635384321521 0.64514939193436716 0 0.32259853082073792 0.67670072609835186 0 0.27349656744860212 0.67581741996408695 0 0.69601563325001248 0.35481435458309712 0 0.6786112007871401 0.32310854251343019 0 0.72713741921008324 0.32373724730413678 0 0.35481435458309307 0.30398436674998969 0 0.3231032570156932 0.32141443408924047 0 0.32373692627050221 0.27286413781593999 0 0.49771727055908782 0.83998685797641781 0 0.48758069708049379 0.89080072540186539 0 0.45353891581270822 0.85551523377818905 0 0.16001314202358469 0.49771727055909287 0 0.1091992745981364 0.48758069708049778 0 0.1444847662218138 0.45353891581271188 0 0.83998574657308889 0.50228528270184081 0 0.89079805168298443 0.51242544533572376 0 0.85551478316835361 0.54646211938695222 0 0.50228272944093777 0.16001314202359701 0 0.51241930291950477 0.1091992745981813 0 0.54646108418729233 0.1444847662218687 0 0.70252050881959183 0.70358884261915833 0 0.6768914574865772 0.67861120078714243 0 0.71518943060973483 0.65679402931717101 0 0.29641115738084339 0.70252050881958938 0 0.32259853082073792 0.67670072609835186 0 0.34270280102445921 0.71672416762035873 0 0.70358884261915744 0.29747949118041561 0 0.6786112007871401 0.32310854251343019 0 0.65679402931716913 0.28481056939027388 0 0.29747949118041711 0.2964111573808435 0 0.3231032570156932 0.32141443408924047 0 0.28473805236128291 0.34355768118673757 0 0.92670321183853355 0.65773042910151081 0 0.96654491682122368 0.6363613838740827 0 0.96779701826738695 0.67105375815842694 0 0.65773042910151891 0.073296788161472337 0 0.63635157668793507 0.033457646040912177 0 0.67098510785536181 0.032220921767549461 0 0.073296788161418117 0.34226957089850552 0 0.033457646040922301 0.36364842331228431 0 0.032220921767546963 0.32901489214487523 0 0.3422695708985129 0.92670321183858773 0 0.36363861612613613 0.96654491682121313 0 0.32894624184180998 0.96779701826738929 0 1 0.64999999999907843 0 1 0.69999999999921003 0 0.96779701826738695 0.67105375815842694 0 0.64999999999907843 0 0 0.69999999999921003 0 0 0.67098510785536181 0.032220921767549461 0 0.35000000000145642 1 0 0.30000000000124832 1 0 0.32894624184180998 0.96779701826738929 0 0 0.35000000000145642 0 0 0.30000000000124832 0 0.032220921767546963 0.32901489214487523 0 0 0.40000000000166441 0 0 0.35000000000145642 0 0.033457646040922301 0.36364842331228431 0 0.40000000000166441 1 0 0.35000000000145642 1 0 0.36363861612613613 0.96654491682121313 0 0.59999999999894682 0 0 0.64999999999907843 0 0 0.63635157668793507 0.033457646040912177 0 1 0.59999999999894682 0 1 0.64999999999907843 0 0.96654491682122368 0.6363613838740827 0 0.81709574086843206 0.91318696080656769 0 0.85174853583809862 0.87705234031428159 0 0.85382799508926477 0.91295829388058414 0 0.086813039193431391 0.81709574086842884 0 0.1229476596857173 0.85174853583809695 0 0.087041706119416085 0.85382799508926188 0 0.90082758526900886 0.098076845682916511 0 0.8517485358380722 0.12294765968568611 0 0.86148619541339633 0.089689702191568438 0 0.098076845682915317 0.099172414730993488 0 0.12294765968567151 0.14825146416195439 0 0.089689702191541126 0.13851380458662241 0 0.59819537371016407 0.74380966024143391 0 0.6083790122881827 0.70496300707145865 0 0.64203711532612107 0.74316477213290444 0 0.64518564541690571 0.69601563325001548 0 0.64203711532612107 0.74316477213290444 0 0.6083790122881827 0.70496300707145865 0 0.25619033975856881 0.59819537371016862 0 0.29503699292854352 0.60837901228818936 0 0.25684529255773247 0.64203554247963057 0 0.30421635384321521 0.64514939193436716 0 0.25684529255773247 0.64203554247963057 0 0.29503699292854352 0.60837901228818936 0 0.74380966024142703 0.40180462628984132 0 0.70496300707145554 0.39162098771181952 0 0.74316477213289889 0.35796288467388632 0 0.69601563325001248 0.35481435458309712 0 0.74316477213289889 0.35796288467388632 0 0.70496300707145554 0.39162098771181952 0 0.40180462628983732 0.2561903397585753 0 0.39162098771181342 0.29503699292854563 0 0.3579628846738841 0.25683522786710378 0 0.35481435458309307 0.30398436674998969 0 0.3579628846738841 0.25683522786710378 0 0.39162098771181342 0.29503699292854563 0 0.8289812646369813 0.82898126463698818 0 0.85174853583809862 0.87705234031428159 0 0.81306033001437827 0.8677384967307622 0 0.17101873536300011 0.82898126463696109 0 0.1229476596857173 0.85174853583809695 0 0.1322615032692282 0.8130603300143705 0 0.8215422551712277 0.56912882742954496 0 0.85551478316835361 0.54646211938695222 0 0.85130417396420255 0.59518556406638579 0 0.43087117257049001 0.8215422551712771 0 0.45353891581270822 0.85551523377818905 0 0.40481452396081791 0.85130421228141606 0 0.56912882742954041 0.17845774482877461 0 0.54646108418729233 0.1444847662218687 0 0.59518547603920147 0.14869578771864489 0 0.17845774482872559 0.43087117257049429 0 0.1444847662218138 0.45353891581271188 0 0.14869578771858949 0.40481452396082068 0 0.49854341599767982 0.37075914768127122 0 0.46543211128216788 0.38788423543681888 0 0.47253211736503098 0.34081710830804929 0 0.43301393728221038 0.35984320557492139 0 0.47253211736503098 0.34081710830804929 0 0.46543211128216788 0.38788423543681888 0 0.36030748482174152 0.84598529912882459 0 0.40481452396081791 0.85130421228141606 0 0.37839190921727062 0.89064679688614412 0 0.84598529912884157 0.63969251517827153 0 0.85130417396420255 0.59518556406638579 0 0.89064679688610338 0.6216080907827598 0 0.15401470087117619 0.36030748482174652 0 0.14869578771858949 0.40481452396082068 0 0.10935320311385981 0.37839190921727089 0 0.63969251517826664 0.15401470087115929 0 0.59518547603920147 0.14869578771864489 0 0.62160809078275991 0.1093532031139005 0 0.64455163611866495 0.50369301794551069 0 0.61866949026800744 0.55492322767366287 0 0.59621567360238914 0.5184866806641607 0 0.64518564541690571 0.69601563325001548 0 0.6083790122881827 0.70496300707145865 0 0.60879112811253555 0.66592422311595834 0 0.30421635384321521 0.64514939193436716 0 0.29503699292854352 0.60837901228818936 0 0.33231497408081678 0.60779218732873663 0 0.69601563325001248 0.35481435458309712 0 0.70496300707145554 0.39162098771181952 0 0.66346942254826746 0.391530810754116 0 0.35481435458309307 0.30398436674998969 0 0.39162098771181342 0.29503699292854563 0 0.39120887188745579 0.33407577688404289 0 0.39507969989512881 0.74417394063201048 0 0.38703015239361932 0.80283068154761972 0 0.35837423432538362 0.77730446904312345 0 0.74417394063200648 0.6049203001048884 0 0.8028306815476034 0.61296984760642026 0 0.77730446904309636 0.64162576567462737 0 0.25582605936799319 0.39507969989513358 0 0.197169318452384 0.38703015239362498 0 0.22269553095687891 0.35837423432538801 0 0.60492030010488373 0.25582605936799729 0 0.61296984760641449 0.19716931845240021 0 0.64162576567462404 0.22269553095690481 0 0.46102425708533701 0.43254199134332588 0 0.46152714345798918 0.47344359412352599 0 0.42340342337193693 0.44762131874855388 0 0.5586987495249669 0.33382663527330653 0 0.52929435216580312 0.29671213472503383 0 0.57188338999077359 0.29874123486230147 0 0.58981073711177334 0.48140931020849848 0 0.554170140907293 0.50922353359177785 0 0.54783891860069212 0.46640164214823893 0 0.35944937237716967 0.65164789808436319 0 0.33231497408081678 0.60779218732873663 0 0.37104651296145419 0.60545170748311072 0 0.58981073711177334 0.48140931020849848 0 0.59621567360238914 0.5184866806641607 0 0.554170140907293 0.50922353359177785 0 0.55000000000173355 1 0 0.50000000000205869 1 0 0.51507566941747085 0.9626786017237855 0 0 0.55000000000173355 0 0 0.50000000000205869 0 0.037321398276215258 0.51507566941747263 0 1 0.44999999999882923 0 1 0.49999999999869432 0 0.96266688603193029 0.48495124540067203 0 0.44999999999882923 0 0 0.49999999999869432 0 0 0.48492433058289169 0.037321398276272413 0 0.78031198216143516 0.56693216359979737 0 0.76797069865873757 0.53315993670164308 0 0.80781854240107975 0.53406203754901738 0 0.43306783640023289 0.78031198216144404 0 0.46634612187967051 0.76767585524061377 0 0.46593838964869061 0.80781872835503554 0 0.56683314878414581 0.21944955250104689 0 0.53265327255359129 0.23135454206919101 0 0.53404982287327418 0.19215288291432539 0 0.21968801783855879 0.43306783640023788 0 0.23232476702437141 0.46634525369567709 0 0.19218127164496679 0.46593838964869538 0 0.5586987495249669 0.33382663527330653 0 0.51491507395299929 0.3326740076510219 0 0.52929435216580312 0.29671213472503383 0 0.43565339604028508 0.55159384357101338 0 0.47974773860103892 0.54872726831320284 0 0.45030222762303879 0.58443295115431027 0 0.50333998054938722 0.50119715791968966 0 0.45293656999117771 0.51494832297079129 0 0.46152714345798918 0.47344359412352599 0 0 0 0 0.032369857048753323 0.032369857048862027 0 0 0.050000000000207989 0 1 0 0 0.96763014295114425 0.032369857048773903 0 0.94999999999986839 0 0 1 0 0 1 0.049999999999899652 0 0.96763014295114425 0.032369857048773903 0 0 0 0 0.049999999999899652 0 0 0.032369857048753323 0.032369857048862027 0 1 1 0 0.94999999999979179 1 0 0.96763014295120153 0.96763014295122851 0 1 1 0 0.96763014295120153 0.96763014295122851 0 1 0.94999999999986839 0 0 1 0 0.030452409610489669 0.96954759038951022 0 0.050000000000207989 1 0 0 1 0 0 0.94999999999979179 0 0.030452409610489669 0.96954759038951022 0 0.35984320557492089 0.56698606271778873 0 0.39982789553993509 0.53462762214740622 0 0.40468198875170619 0.57637931869191572 0 0.41009598069569558 0.49083935749285379 0 0.37702386074717259 0.45819417564476811 0 0.42340342337193693 0.44762131874855388 0 0.39419886675318527 0.41912225240070788 0 0.42340342337193693 0.44762131874855388 0 0.37702386074717259 0.45819417564476811 0 0.60938371359314658 0.91847489683800321 0 0.63753756910470316 0.95578163339252209 0 0.5931441817276254 0.95886012268751675 0 0.081525103161997597 0.6093837135931508 0 0.04421836660747535 0.63753756910470205 0 0.041139877312483641 0.59314418172763017 0 0.91890123454466932 0.39094742729597309 0 0.95581270756939096 0.36248656652865863 0 0.95886012268748921 0.4068558182724159 0 0.39061628640684498 0.081525103161991672 0 0.36246243089534252 0.044218366607477223 0 0.40685581827241191 0.041139877312511682 0 0.66820316019503978 0.77769800602796979 0 0.67626275269587088 0.72713741921009012 0 0.71159714897733284 0.75039044679290845 0 0.22230199397202771 0.66820316019503168 0 0.27349656744860212 0.67581741996408695 0 0.249609553207091 0.71159714897732929 0 0.77769800602796679 0.33179683980497482 0 0.72713741921008324 0.32373724730413678 0 0.75039044679291111 0.28840285102267788 0 0.33179683980498331 0.2223019939720311 0 0.32373692627050221 0.27286413781593999 0 0.28840285102268098 0.24960955320708811 0 0.54901591374940373 0.42306523525165751 0 0.54783891860069212 0.46640164214823893 0 0.50753758205811061 0.4506562873613274 0 0.34804757266227387 0.35750068079406011 0 0.39120887188745579 0.33407577688404289 0 0.39222057657781068 0.38067796690227418 0 0.7000000000006934 1 0 0.6766004019857832 0.9676421564932749 0 0.71789175274016548 0.95136708251202151 0 0 0.7000000000006934 0 0.032357843506722522 0.67660040198578164 0 0.04863291748797445 0.71789175274016204 0 0.67757268808231397 0.93106206656183088 0 0.71789175274016548 0.95136708251202151 0 0.6766004019857832 0.9676421564932749 0 0.068937933438162791 0.67757268808231053 0 0.04863291748797445 0.71789175274016204 0 0.032357843506722522 0.67660040198578164 0 1 0.29999999999926641 0 0.96720628700974665 0.32362438565954771 0 0.94915666091748963 0.28320804985299752 0 0.29999999999926641 0 0 0.32361955853288599 0.032799927825624707 0 0.28320804985300141 0.050843339082505573 0 0.93106206656185309 0.32242731191769503 0 0.94915666091748963 0.28320804985299752 0 0.96720628700974665 0.32362438565954771 0 0.32242731191769902 0.068937933438140794 0 0.28320804985300141 0.050843339082505573 0 0.32361955853288599 0.032799927825624707 0 0.91838802593884228 0.81827409710237209 0 0.87660297360393757 0.8104127896505644 0 0.9041449437197947 0.7786886066890556 0 0.1817259028976386 0.91838802593888857 0 0.18958721034944021 0.87660297360394568 0 0.22131139331094829 0.9041449437198319 0 0.76395804595204597 0.67808171673060369 0 0.77730446904309636 0.64162576567462737 0 0.80847852346122429 0.67208120229789559 0 0.32191828326940508 0.76395804595204586 0 0.35837423432538362 0.77730446904312345 0 0.32791879770213411 0.80847852346120164 0 0.67808171673060202 0.23604195404795861 0 0.64162576567462404 0.22269553095690481 0 0.67208120229787616 0.1915214765387884 0 0.2360419540479583 0.32191828326940741 0 0.22269553095687891 0.35837423432538801 0 0.19152147653881049 0.32791879770215432 0 0.82118136511706341 0.082875076569723011 0 0.8110316677333288 0.125875177082863 0 0.77925951159456153 0.09969477121230251 0 0.08287507656968085 0.1788186348829835 0 0.12587517708284679 0.1889683322666954 0 0.099694771212264055 0.22074048840547039 0 0.43301393728221038 0.35984320557492139 0 0.46543211128216788 0.38788423543681888 0 0.42930823106401639 0.40626685012722968 0 0.43590673999053309 0.90289902042279657 0 0.45353891581270822 0.85551523377818905 0 0.48758069708049379 0.89080072540186539 0 0.097100979577207341 0.43590673999053198 0 0.1444847662218138 0.45353891581271188 0 0.1091992745981364 0.48758069708049778 0 0.90289902042272274 0.56409326000946114 0 0.85551478316835361 0.54646211938695222 0 0.89079805168298443 0.51242544533572376 0 0.56409326000946236 0.097100979577281268 0 0.54646108418729233 0.1444847662218687 0 0.51241930291950477 0.1091992745981813 0 0.51484304721220842 0.69707233951836334 0 0.49073113440598592 0.73759004618730417 0 0.46736891737654429 0.70015537930374983 0 0.44764943295894188 0.73752415265401661 0 0.46736891737654429 0.70015537930374983 0 0.49073113440598592 0.73759004618730417 0 0.30292766048163949 0.51484304721221474 0 0.262418491288269 0.49071922292154141 0 0.29988655052531688 0.46700727827593119 0 0.26247584734598628 0.44764943295894732 0 0.29988655052531688 0.46700727827593119 0 0.262418491288269 0.49071922292154141 0 0.70015119067225129 0.48481914991727459 0 0.73815142352639962 0.50697050072007344 0 0.69798396601998558 0.5289734597937793 0 0.73752415265401194 0.55235056704108476 0 0.69798396601998558 0.5289734597937793 0 0.73815142352639962 0.50697050072007344 0 0.67757268808231397 0.93106206656183088 0 0.6441774148058701 0.91458123574274031 0 0.66923299355723143 0.8804077449518628 0 0.068937933438162791 0.67757268808231053 0 0.085418764257258195 0.64417741480586865 0 0.1195922550481313 0.66923299355722787 0 0.93106206656185309 0.32242731191769503 0 0.91286712511202617 0.35637271447129198 0 0.88040774495187946 0.33076700644278889 0 0.32242731191769902 0.068937933438140794 0 0.35582258519414178 0.085418764257258431 0 0.33076700644279272 0.1195922550481146 0 0.63969251517836323 0.84598529912890386 0 0.66923299355723143 0.8804077449518628 0 0.62483828039315681 0.8780818733396436 0 0.1540147008710982 0.63969251517836956 0 0.1195922550481313 0.66923299355722787 0 0.1219181266603569 0.62483828039315903 0 0.84598529912889664 0.36030748482164038 0 0.88040774495187946 0.33076700644278889 0 0.87815187193233801 0.37523526017134418 0 0.3603074848216346 0.15401470087110539 0 0.33076700644279272 0.1195922550481146 0 0.37516171960683908 0.121918126660369 0 0.46102425708533701 0.43254199134332588 0 0.5047849391802508 0.40719950955717021 0 0.50753758205811061 0.4506562873613274 0 0.85607519768343354 0.69380468830529196 0 0.88396545633132484 0.6625197322180193 0 0.90051880305432697 0.69261863673346957 0 0.30619531169472608 0.85607519768342955 0 0.33748026778199908 0.88396545633134682 0 0.30738136326657722 0.90051880305435028 0 0.69379929796456197 0.14392209494791061 0 0.66251865414987876 0.1160340021949529 0 0.69253601466723103 0.09949211948105087 0 0.14392209494791439 0.30620070203545702 0 0.11603400219493119 0.33748134585014028 0 0.099492119481027347 0.30746398533281638 0 0.78284912262770068 0.83746308049763585 0 0.81306033001437827 0.8677384967307622 0 0.78020430794084783 0.88768307197553598 0 0.16253691950235041 0.78284912262768558 0 0.1322615032692282 0.8130603300143705 0 0.11231692802445629 0.78020430794084028 0 0.66820316019503978 0.77769800602796979 0 0.64203711532612107 0.74316477213290444 0 0.67626275269587088 0.72713741921009012 0 0.22230199397202771 0.66820316019503168 0 0.25684529255773247 0.64203554247963057 0 0.27349656744860212 0.67581741996408695 0 0.77769800602796679 0.33179683980497482 0 0.74316477213289889 0.35796288467388632 0 0.72713741921008324 0.32373724730413678 0 0.33179683980498331 0.2223019939720311 0 0.3579628846738841 0.25683522786710378 0 0.32373692627050221 0.27286413781593999 0 0.4434591735942961 0.66641640622551224 0 0.45517457031814612 0.62743100079604397 0 0.47818752133962877 0.66454462905280853 0 0.7000000000006934 1 0 0.65000000000104008 1 0 0.6766004019857832 0.9676421564932749 0 0 0.7000000000006934 0 0 0.65000000000104008 0 0.032357843506722522 0.67660040198578164 0 1 0.29999999999926641 0 1 0.34999999999912063 0 0.96720628700974665 0.32362438565954771 0 0.29999999999926641 0 0 0.34999999999912063 0 0 0.32361955853288599 0.032799927825624707 0 0.49854341599767982 0.37075914768127122 0 0.47253211736503098 0.34081710830804929 0 0.51491507395299929 0.3326740076510219 0 0.50000000000205869 1 0 0.45000000000187229 1 0 0.47500000000196563 0.970555092835793 0 0 0.50000000000205869 0 0 0.45000000000187229 0 0.029444907164209121 0.47500000000196552 0 1 0.49999999999869432 0 1 0.5499999999988151 0 0.97055509283553232 0.52499999999875435 0 0.49999999999869432 0 0 0.5499999999988151 0 0 0.52499999999875446 0.029444907164469181 0 0.91838802593870927 0.18172590289757809 0 0.89556054516486661 0.21720615046483649 0 0.87355793346388477 0.18922011052113649 0 0.18172590289758209 0.08161197406129285 0 0.21720615046484709 0.1044394548351292 0 0.18922011052115781 0.12644206653611201 0 0.48378871228000903 0.29745177826977359 0 0.51491507395299929 0.3326740076510219 0 0.47253211736503098 0.34081710830804929 0 0.58981073711177334 0.48140931020849848 0 0.59313386551587477 0.43977047843653239 0 0.62619054498681193 0.46482944251856079 0 0.640156794425081 0.43301393728221721 0 0.62619054498681193 0.46482944251856079 0 0.59313386551587477 0.43977047843653239 0 0 0.45000000000187229 0 0.043612803661092707 0.44006111182840391 0 0.029444907164209121 0.47500000000196552 0 0.45000000000187229 1 0 0.44006111182840962 0.9563871963389079 0 0.47500000000196563 0.970555092835793 0 0.5499999999988151 0 0 0.55993888817186677 0.043612803661174412 0 0.52499999999875446 0.029444907164469181 0 1 0.5499999999988151 0 0.95638719633882641 0.5599388881718611 0 0.97055509283553232 0.52499999999875435 0 0.57051182622447827 0.69668652018496713 0 0.60879112811253555 0.66592422311595834 0 0.6083790122881827 0.70496300707145865 0 0.30429740679959738 0.56913905146460098 0 0.33231497408081678 0.60779218732873663 0 0.29503699292854352 0.60837901228818936 0 0.69595787604187809 0.43071000156707989 0 0.66346942254826746 0.391530810754116 0 0.70496300707145554 0.39162098771181952 0 0.43059486795334201 0.30395973419063538 0 0.39120887188745579 0.33407577688404289 0 0.39162098771181342 0.29503699292854563 0 0.35984320557492089 0.56698606271778873 0 0.37104651296145419 0.60545170748311072 0 0.33231497408081678 0.60779218732873663 0 0.43565339604028508 0.55159384357101338 0 0.40468198875170619 0.57637931869191572 0 0.39982789553993509 0.53462762214740622 0 0.66820316019503978 0.77769800602796979 0 0.71159714897733284 0.75039044679290845 0 0.69892030930712212 0.7971997999085858 0 0.22230199397202771 0.66820316019503168 0 0.249609553207091 0.71159714897732929 0 0.2028002000914135 0.69892030930711557 0 0.77769800602796679 0.33179683980497482 0 0.75039044679291111 0.28840285102267788 0 0.7971997999085878 0.3010796906928917 0 0.33179683980498331 0.2223019939720311 0 0.28840285102268098 0.24960955320708811 0 0.30107969069289831 0.20280020009141189 0 0.34804757266227387 0.35750068079406011 0 0.39222057657781068 0.38067796690227418 0 0.35481422397128459 0.40312981465069342 0 0.67757268808231397 0.93106206656183088 0 0.66923299355723143 0.8804077449518628 0 0.70475631558365914 0.90098127745102974 0 0.068937933438162791 0.67757268808231053 0 0.1195922550481313 0.66923299355722787 0 0.099018722548963364 0.70475631558365193 0 0.93106206656185309 0.32242731191769503 0 0.88040774495187946 0.33076700644278889 0 0.89886191075654698 0.29506339503703172 0 0.32242731191769902 0.068937933438140794 0 0.33076700644279272 0.1195922550481146 0 0.29506339503703888 0.1011380892434444 0 0.53432142347292233 0.88563193847251998 0 0.56877264426066887 0.91182300080710277 0 0.52425337578225772 0.9223731761594427 0 0.1143680615274819 0.53432142347292733 0 0.088176999192898689 0.56877264426067353 0 0.07762682384055844 0.52425337578226128 0 0.46567857652706018 0.1143680615275231 0 0.43122735573933979 0.088176999192917438 0 0.47574662421782782 0.077626823840590969 0 0.39419886675318527 0.41912225240070788 0 0.35481422397128459 0.40312981465069342 0 0.39222057657781068 0.38067796690227418 0 1 0.49999999999869432 0 0.97055509283553232 0.52499999999875435 0 0.96266688603193029 0.48495124540067203 0 0.49999999999869432 0 0 0.52499999999875446 0.029444907164469181 0 0.48492433058289169 0.037321398276272413 0 0.93510666819640953 0.51330222939551939 0 0.96266688603193029 0.48495124540067203 0 0.97055509283553232 0.52499999999875435 0 0.5133022293955174 0.064893331803591428 0 0.48492433058289169 0.037321398276272413 0 0.52499999999875446 0.029444907164469181 0 0 0.50000000000205869 0 0.029444907164209121 0.47500000000196552 0 0.037321398276215258 0.51507566941747263 0 0.50000000000205869 1 0 0.47500000000196563 0.970555092835793 0 0.51507566941747085 0.9626786017237855 0 0.48669777060454272 0.93510666819646593 0 0.51507566941747085 0.9626786017237855 0 0.47500000000196563 0.970555092835793 0 0.064893331803534807 0.48669777060454478 0 0.037321398276215258 0.51507566941747263 0 0.029444907164209121 0.47500000000196552 0 0.55307204985744796 0.94819812235491685 0 0.52425337578225772 0.9223731761594427 0 0.56877264426066887 0.91182300080710277 0 0.051801877645083663 0.55307204985745195 0 0.07762682384055844 0.52425337578226128 0 0.088176999192898689 0.56877264426067353 0 0.44692795014265252 0.051801877645060238 0 0.47574662421782782 0.077626823840590969 0 0.43122735573933979 0.088176999192917438 0 0.70085728320704077 0.84350379029875056 0 0.66919832404887702 0.81820888699730587 0 0.69892030930712212 0.7971997999085858 0 0.1564962097012354 0.70085728320703999 0 0.1817911130026923 0.66919832404888702 0 0.2028002000914135 0.69892030930711557 0 0.84350379029877964 0.29914271679296989 0 0.8182088869973061 0.33080167595111531 0 0.7971997999085878 0.3010796906928917 0 0.29914271679297122 0.15649620970120659 0 0.33080167595110582 0.18179111300269291 0 0.30107969069289831 0.20280020009141189 0 0.33382663527330159 0.44130125047503482 0 0.37702386074717259 0.45819417564476811 0 0.33436424489304489 0.47849603121740791 0 0.44764943295894188 0.73752415265401661 0 0.46634612187967051 0.76767585524061377 0 0.43306783640023289 0.78031198216144404 0 0.73752415265401194 0.55235056704108476 0 0.76797069865873757 0.53315993670164308 0 0.78031198216143516 0.56693216359979737 0 0.26247584734598628 0.44764943295894732 0 0.23232476702437141 0.46634525369567709 0 0.21968801783855879 0.43306783640023788 0 0.55175647814720108 0.26104505532086641 0 0.53265327255359129 0.23135454206919101 0 0.56683314878414581 0.21944955250104689 0 0.65000000000104008 1 0 0.63753756910470316 0.95578163339252209 0 0.6766004019857832 0.9676421564932749 0 0 0.65000000000104008 0 0.04421836660747535 0.63753756910470205 0 0.032357843506722522 0.67660040198578164 0 1 0.34999999999912063 0 0.95581270756939096 0.36248656652865863 0 0.96720628700974665 0.32362438565954771 0 0.34999999999912063 0 0 0.36246243089534252 0.044218366607477223 0 0.32361955853288599 0.032799927825624707 0 0.67757268808231397 0.93106206656183088 0 0.6766004019857832 0.9676421564932749 0 0.63753756910470316 0.95578163339252209 0 0.068937933438162791 0.67757268808231053 0 0.032357843506722522 0.67660040198578164 0 0.04421836660747535 0.63753756910470205 0 0.93106206656185309 0.32242731191769503 0 0.96720628700974665 0.32362438565954771 0 0.95581270756939096 0.36248656652865863 0 0.32242731191769902 0.068937933438140794 0 0.32361955853288599 0.032799927825624707 0 0.36246243089534252 0.044218366607477223 0 0.94812782820415209 0.44708943904932719 0 0.92203742772043751 0.47579485578641628 0 0.90991454156957952 0.4312731559748802 0 0.88561059063756964 0.46572761956237563 0 0.90991454156957952 0.4312731559748802 0 0.92203742772043751 0.47579485578641628 0 0.49189101320880302 0.59024331187324797 0 0.45517457031814612 0.62743100079604397 0 0.45030222762303879 0.58443295115431027 0 0.54465502325161819 0.74717983044080061 0 0.57578062281532438 0.77751665353176347 0 0.53770425635794761 0.80104587463999666 0 0.25287139441262568 0.54458355434492378 0 0.2224870800581388 0.57577541371134155 0 0.1989632851005598 0.53769147668950479 0 0.74730218607442667 0.45539100053644521 0 0.77752557158083724 0.42422273168818408 0 0.80106707846564795 0.46230714888029367 0 0.45533136021725079 0.2525687312087147 0 0.42421838472613971 0.22246502005787769 0 0.46229330881044273 0.19890916456654811 0 0.57387636360620708 0.54318431390135336 0 0.59621567360238914 0.5184866806641607 0 0.61866949026800744 0.55492322767366287 0 0.66923299355723143 0.8804077449518628 0 0.6441774148058701 0.91458123574274031 0 0.62483828039315681 0.8780818733396436 0 0.1195922550481313 0.66923299355722787 0 0.085418764257258195 0.64417741480586865 0 0.1219181266603569 0.62483828039315903 0 0.88040774495187946 0.33076700644278889 0 0.91286712511202617 0.35637271447129198 0 0.87815187193233801 0.37523526017134418 0 0.33076700644279272 0.1195922550481146 0 0.35582258519414178 0.085418764257258431 0 0.37516171960683908 0.121918126660369 0 0.49189101320880302 0.59024331187324797 0 0.45030222762303879 0.58443295115431027 0 0.47974773860103892 0.54872726831320284 0 0.92670321183853355 0.65773042910151081 0 0.90051880305432697 0.69261863673346957 0 0.88396545633132484 0.6625197322180193 0 0.65773042910151891 0.073296788161472337 0 0.69253601466723103 0.09949211948105087 0 0.66251865414987876 0.1160340021949529 0 0.3422695708985129 0.92670321183858773 0 0.30738136326657722 0.90051880305435028 0 0.33748026778199908 0.88396545633134682 0 0.073296788161418117 0.34226957089850552 0 0.099492119481027347 0.30746398533281638 0 0.11603400219493119 0.33748134585014028 0 0.60938371359314658 0.91847489683800321 0 0.6441774148058701 0.91458123574274031 0 0.63753756910470316 0.95578163339252209 0 0.081525103161997597 0.6093837135931508 0 0.085418764257258195 0.64417741480586865 0 0.04421836660747535 0.63753756910470205 0 0.91890123454466932 0.39094742729597309 0 0.91286712511202617 0.35637271447129198 0 0.95581270756939096 0.36248656652865863 0 0.39061628640684498 0.081525103161991672 0 0.35582258519414178 0.085418764257258431 0 0.36246243089534252 0.044218366607477223 0 0.67757268808231397 0.93106206656183088 0 0.63753756910470316 0.95578163339252209 0 0.6441774148058701 0.91458123574274031 0 0.068937933438162791 0.67757268808231053 0 0.04421836660747535 0.63753756910470205 0 0.085418764257258195 0.64417741480586865 0 0.93106206656185309 0.32242731191769503 0 0.95581270756939096 0.36248656652865863 0 0.91286712511202617 0.35637271447129198 0 0.32242731191769902 0.068937933438140794 0 0.36246243089534252 0.044218366607477223 0 0.35582258519414178 0.085418764257258431 0 0.56759263990989184 0.81794319034601648 0 0.53770425635794761 0.80104587463999666 0 0.57578062281532438 0.77751665353176347 0 0.18205680965398621 0.56759263990989739 0 0.1989632851005598 0.53769147668950479 0 0.2224870800581388 0.57577541371134155 0 0.81794319034597418 0.43240736009009317 0 0.80106707846564795 0.46230714888029367 0 0.77752557158083724 0.42422273168818408 0 0.43240736009008851 0.18205680965402779 0 0.46229330881044273 0.19890916456654811 0 0.42421838472613971 0.22246502005787769 0 0.4434591735942961 0.66641640622551224 0 0.46736891737654429 0.70015537930374983 0 0.42715538333808079 0.70077759375307946 0 0.44764943295894188 0.73752415265401661 0 0.42715538333808079 0.70077759375307946 0 0.46736891737654429 0.70015537930374983 0 0.66548584431530877 0.55616712808283064 0 0.69798396601998558 0.5289734597937793 0 0.70087539567735502 0.57165914616526226 0 0.33382663527330159 0.44130125047503482 0 0.29988655052531688 0.46700727827593119 0 0.2963043386970643 0.4298320229681446 0 0.73752415265401194 0.55235056704108476 0 0.70087539567735502 0.57165914616526226 0 0.69798396601998558 0.5289734597937793 0 0.26247584734598628 0.44764943295894732 0 0.2963043386970643 0.4298320229681446 0 0.29988655052531688 0.46700727827593119 0 0.46102425708533701 0.43254199134332588 0 0.46543211128216788 0.38788423543681888 0 0.5047849391802508 0.40719950955717021 0 0.49854341599767982 0.37075914768127122 0 0.5047849391802508 0.40719950955717021 0 0.46543211128216788 0.38788423543681888 0 0.55175647814720108 0.26104505532086641 0 0.57188338999077359 0.29874123486230147 0 0.52929435216580312 0.29671213472503383 0 0.48378871228000903 0.29745177826977359 0 0.52929435216580312 0.29671213472503383 0 0.51491507395299929 0.3326740076510219 0 0.46102425708533701 0.43254199134332588 0 0.42340342337193693 0.44762131874855388 0 0.42930823106401639 0.40626685012722968 0 0.39419886675318527 0.41912225240070788 0 0.42930823106401639 0.40626685012722968 0 0.42340342337193693 0.44762131874855388 0 0.94812782820415209 0.44708943904932719 0 0.96266688603193029 0.48495124540067203 0 0.92203742772043751 0.47579485578641628 0 0.44692795014265252 0.051801877645060238 0 0.48492433058289169 0.037321398276272413 0 0.47574662421782782 0.077626823840590969 0 0.93510666819640953 0.51330222939551939 0 0.92203742772043751 0.47579485578641628 0 0.96266688603193029 0.48495124540067203 0 0.5133022293955174 0.064893331803591428 0 0.47574662421782782 0.077626823840590969 0 0.48492433058289169 0.037321398276272413 0 0.55307204985744796 0.94819812235491685 0 0.51507566941747085 0.9626786017237855 0 0.52425337578225772 0.9223731761594427 0 0.051801877645083663 0.55307204985745195 0 0.037321398276215258 0.51507566941747263 0 0.07762682384055844 0.52425337578226128 0 0.48669777060454272 0.93510666819646593 0 0.52425337578225772 0.9223731761594427 0 0.51507566941747085 0.9626786017237855 0 0.064893331803534807 0.48669777060454478 0 0.07762682384055844 0.52425337578226128 0 0.037321398276215258 0.51507566941747263 0 0.70252050881959183 0.70358884261915833 0 0.71159714897733284 0.75039044679290845 0 0.67626275269587088 0.72713741921009012 0 0.29641115738084339 0.70252050881958938 0 0.249609553207091 0.71159714897732929 0 0.27349656744860212 0.67581741996408695 0 0.70358884261915744 0.29747949118041561 0 0.75039044679291111 0.28840285102267788 0 0.72713741921008324 0.32373724730413678 0 0.29747949118041711 0.2964111573808435 0 0.28840285102268098 0.24960955320708811 0 0.32373692627050221 0.27286413781593999 0 0.48378871228000903 0.29745177826977359 0 0.50732841191799194 0.2613117081243182 0 0.52929435216580312 0.29671213472503383 0 0.50000000000002642 0.7803135888501761 0 0.46634612187967051 0.76767585524061377 0 0.49073113440598592 0.73759004618730417 0 0.44764943295894188 0.73752415265401661 0 0.49073113440598592 0.73759004618730417 0 0.46634612187967051 0.76767585524061377 0 0.73752415265401194 0.55235056704108476 0 0.73815142352639962 0.50697050072007344 0 0.76797069865873757 0.53315993670164308 0 0.78031358885017377 0.49999999999997569 0 0.76797069865873757 0.53315993670164308 0 0.73815142352639962 0.50697050072007344 0 0.2196864111498267 0.50000000000003153 0 0.23232476702437141 0.46634525369567709 0 0.262418491288269 0.49071922292154141 0 0.26247584734598628 0.44764943295894732 0 0.262418491288269 0.49071922292154141 0 0.23232476702437141 0.46634525369567709 0 0.55175647814720108 0.26104505532086641 0 0.50732841191799194 0.2613117081243182 0 0.53265327255359129 0.23135454206919101 0 0.49999999999997108 0.21968641114982909 0 0.53265327255359129 0.23135454206919101 0 0.50732841191799194 0.2613117081243182 0 0.64455163611866495 0.50369301794551069 0 0.62619054498681193 0.46482944251856079 0 0.66329969176266512 0.46626046872004567 0 0.50000000000002642 0.7803135888501761 0 0.46593838964869061 0.80781872835503554 0 0.46634612187967051 0.76767585524061377 0 0.2196864111498267 0.50000000000003153 0 0.19218127164496679 0.46593838964869538 0 0.23232476702437141 0.46634525369567709 0 0.78031358885017377 0.49999999999997569 0 0.80781854240107975 0.53406203754901738 0 0.76797069865873757 0.53315993670164308 0 0.49999999999997108 0.21968641114982909 0 0.53404982287327418 0.19215288291432539 0 0.53265327255359129 0.23135454206919101 0 0.55175647814720108 0.26104505532086641 0 0.52929435216580312 0.29671213472503383 0 0.50732841191799194 0.2613117081243182 0 0.64518564541690571 0.69601563325001548 0 0.67626275269587088 0.72713741921009012 0 0.64203711532612107 0.74316477213290444 0 0.30421635384321521 0.64514939193436716 0 0.27349656744860212 0.67581741996408695 0 0.25684529255773247 0.64203554247963057 0 0.69601563325001248 0.35481435458309712 0 0.72713741921008324 0.32373724730413678 0 0.74316477213289889 0.35796288467388632 0 0.35481435458309307 0.30398436674998969 0 0.32373692627050221 0.27286413781593999 0 0.3579628846738841 0.25683522786710378 0 0.640156794425081 0.43301393728221721 0 0.66329969176266512 0.46626046872004567 0 0.62619054498681193 0.46482944251856079 0 1 0.64999999999907843 0 0.96779701826738695 0.67105375815842694 0 0.96654491682122368 0.6363613838740827 0 0.64999999999907843 0 0 0.67098510785536181 0.032220921767549461 0 0.63635157668793507 0.033457646040912177 0 0.35000000000145642 1 0 0.32894624184180998 0.96779701826738929 0 0.36363861612613613 0.96654491682121313 0 0 0.35000000000145642 0 0.032220921767546963 0.32901489214487523 0 0.033457646040922301 0.36364842331228431 0 0.66820316019503978 0.77769800602796979 0 0.69892030930712212 0.7971997999085858 0 0.66919832404887702 0.81820888699730587 0 0.22230199397202771 0.66820316019503168 0 0.2028002000914135 0.69892030930711557 0 0.1817911130026923 0.66919832404888702 0 0.77769800602796679 0.33179683980497482 0 0.7971997999085878 0.3010796906928917 0 0.8182088869973061 0.33080167595111531 0 0.33179683980498331 0.2223019939720311 0 0.30107969069289831 0.20280020009141189 0 0.33080167595110582 0.18179111300269291 0 0.4434591735942961 0.66641640622551224 0 0.47818752133962877 0.66454462905280853 0 0.46736891737654429 0.70015537930374983 0 0.33382663527330159 0.44130125047503482 0 0.33436424489304489 0.47849603121740791 0 0.29988655052531688 0.46700727827593119 0 0.46102425708533701 0.43254199134332588 0 0.42930823106401639 0.40626685012722968 0 0.46543211128216788 0.38788423543681888 0 0.35984320557492089 0.56698606271778873 0 0.40468198875170619 0.57637931869191572 0 0.37104651296145419 0.60545170748311072 0 0.60938371359314658 0.91847489683800321 0 0.62483828039315681 0.8780818733396436 0 0.6441774148058701 0.91458123574274031 0 0.081525103161997597 0.6093837135931508 0 0.1219181266603569 0.62483828039315903 0 0.085418764257258195 0.64417741480586865 0 0.91890123454466932 0.39094742729597309 0 0.87815187193233801 0.37523526017134418 0 0.91286712511202617 0.35637271447129198 0 0.39061628640684498 0.081525103161991672 0 0.37516171960683908 0.121918126660369 0 0.35582258519414178 0.085418764257258431 0 0.40653508887824003 0.61580573377480397 0 0.37104651296145419 0.60545170748311072 0 0.40468198875170619 0.57637931869191572 0 
</DataArray>
</Points>
<Cells>
<DataArray type="UInt32" Name="connectivity" format="ascii">
0 1 2 3 4 5 6 7 8 9 10 11 12 13 14 15 16 17 18 19 20 21 22 23 24 25 26 27 28 29 30 31 32 33 34 35 36 37 38 39 40 41 42 43 44 45 46 47 48 49 50 51 52 53 54 55 56 57 58 59 60 61 62 63 64 65 66 67 68 69 70 71 72 73 74 75 76 77 78 79 80 81 82 83 84 85 86 87 88 89 90 91 92 93 94 95 96 97 98 99 100 101 102 103 104 105 106 107 108 109 110 111 112 113 114 115 116 117 118 119 120 121 122 123 124 125 126 127 128 129 130 131 132 133 134 135 136 137 138 139 140 141 142 143 144 145 146 147 148 149 150 151 152 153 154 155 156 157 158 159 160 161 162 163 164 165 166 167 168 169 170 171 172 173 174 175 176 177 178 179 180 181 182 183 184 185 186 187 188 189 190 191 192 193 194 195 196 197 198 199 200 201 202 203 204 205 206 207 208 209 210 211 212 213 214 215 216 217 218 219 220 221 222 223 224 225 226 227 228 229 230 231 232 233 234 235 236 237 238 239 240 241 242 243 244 245 246 247 248 249 250 251 252 253 254 255 256 257 258 259 260 261 262 263 264 265 266 267 268 269 270 271 272 273 274 275 276 277 278 279 280 281 282 283 284 285 286 287 288 289 290 291 292 293 294 295 296 297 298 299 300 301 302 303 304 305 306 307 308 309 310 311 312 313 314 315 316 317 318 319 320 321 322 323 324 325 326 327 328 329 330 331 332 333 334 335 336 337 338 339 340 341 342 343 344 345 346 347 348 349 350 351 352 353 354 355 356 357 358 359 360 361 362 363 364 365 366 367 368 369 370 371 372 373 374 375 376 377 378 379 380 381 382 383 384 385 386 387 388 389 390 391 392 393 394 395 396 397 398 399 400 401 402 403 404 405 406 407 408 409 410 411 412 413 414 415 416 417 418 419 420 421 422 423 424 425 426 427 428 429 430 431 432 433 434 435 436 437 438 439 440 441 442 443 444 445 446 447 448 449 450 451 452 453 454 455 456 457 458 459 460 461 462 463 464 465 466 467 468 469 470 471 472 473 474 475 476 477 478 479 480 481 482 483 484 485 486 487 488 489 490 491 492 493 494 495 496 497 498 499 500 501 502 503 504 505 506 507 508 509 510 511 512 513 514 515 516 517 518 519 520 521 522 523 524 525 526 527 528 529 530 531 532 533 534 535 536 537 538 539 540 541 542 543 544 545 546 547 548 549 550 551 552 553 554 555 556 557 558 559 560 561 562 563 564 565 566 567 568 569 570 571 572 573 574 575 576 577 578 579 580 581 582 583 584 585 586 587 588 589 590 591 592 593 594 595 596 597 598 599 600 601 602 603 604 605 606 607 608 609 610 611 612 613 614 615 616 617 618 619 620 621 622 623 624 625 626 627 628 629 630 631 632 633 634 635 636 637 638 639 640 641 642 643 644 645 646 647 648 649 650 651 652 653 654 655 656 657 658 659 660 661 662 663 664 665 666 667 668 669 670 671 672 673 674 675 676 677 678 679 680 681 682 683 684 685 686 687 688 689 690 691 692 693 694 695 696 697 698 699 700 701 702 703 704 705 706 707 708 709 710 711 712 713 714 715 716 717 718 719 720 721 722 723 724 725 726 727 728 729 730 731 732 733 734 735 736 737 738 739 740 741 742 743 744 745 746 747 748 749 750 751 752 753 754 755 756 757 758 759 760 761 762 763 764 765 766 767 768 769 770 771 772 773 774 775 776 777 778 779 780 781 782 783 784 785 786 787 788 789 790 791 792 793 794 795 796 797 798 799 800 801 802 803 804 805 806 807 808 809 810 811 812 813 814 815 816 817 818 819 820 821 822 823 824 825 826 827 828 829 830 831 832 833 834 835 836 837 838 839 840 841 842 843 844 845 846 847 848 849 850 851 852 853 854 855 856 857 858 859 860 861 862 863 864 865 866 867 868 869 870 871 872 873 874 875 876 877 878 879 880 881 882 883 884 885 886 887 888 889 890 891 892 893 894 895 896 897 898 899 900 901 902 903 904 905 906 907 908 909 910 911 912 913 914 915 916 917 918 919 920 921 922 923 924 925 926 927 928 929 930 931 932 933 934 935 936 937 938 939 940 941 942 943 944 945 946 947 948 949 950 951 952 953 954 955 956 957 958 959 960 961 962 963 964 965 966 967 968 969 970 971 972 973 974 975 976 977 978 979 980 981 982 983 984 985 986 987 988 989 990 991 992 993 994 995 996 997 998 999 1000 1001 1002 1003 1004 1005 1006 1007 1008 1009 1010 1011 1012 1013 1014 1015 1016 1017 1018 1019 1020 1021 1022 1023 1024 1025 1026 1027 1028 1029 1030 1031 1032 1033 1034 1035 1036 1037 1038 1039 1040 1041 1042 1043 1044 1045 1046 1047 1048 1049 1050 1051 1052 1053 1054 1055 1056 1057 1058 1059 1060 1061 1062 1063 1064 1065 1066 1067 1068 1069 1070 1071 1072 1073 1074 1075 1076 1077 1078 1079 1080 1081 1082 1083 1084 1085 1086 1087 1088 1089 1090 1091 1092 1093 1094 1095 1096 1097 1098 1099 1100 1101 1102 1103 1104 1105 1106 1107 1108 1109 1110 1111 1112 1113 1114 1115 1116 1117 1118 1119 1120 1121 1122 1123 1124 1125 1126 1127 1128 1129 1130 1131 1132 1133 1134 1135 1136 1137 1138 1139 1140 1141 1142 1143 1144 1145 1146 1147 1148 1149 1150 1151 1152 1153 1154 1155 1156 1157 1158 1159 1160 1161 1162 1163 1164 1165 1166 1167 1168 1169 1170 1171 1172 1173 1174 1175 1176 1177 1178 1179 1180 1181 1182 1183 1184 1185 1186 1187 1188 1189 1190 1191 1192 1193 1194 1195 1196 1197 1198 1199 1200 1201 1202 1203 1204 1205 1206 1207 1208 1209 1210 1211 1212 1213 1214 1215 1216 1217 1218 1219 1220 1221 1222 1223 1224 1225 1226 1227 1228 1229 1230 1231 1232 1233 1234 1235 1236 1237 1238 1239 1240 1241 1242 1243 1244 1245 1246 1247 1248 1249 1250 1251 1252 1253 1254 1255 1256 1257 1258 1259 1260 1261 1262 1263 1264 1265 1266 1267 1268 1269 1270 1271 1272 1273 1274 1275 1276 1277 1278 1279 1280 1281 1282 1283 1284 1285 1286 1287 1288 1289 1290 1291 1292 1293 1294 1295 1296 1297 1298 1299 1300 1301 1302 1303 1304 1305 1306 1307 1308 1309 1310 1311 1312 1313 1314 1315 1316 1317 1318 1319 1320 1321 1322 1323 1324 1325 1326 1327 1328 1329 1330 1331 1332 1333 1334 1335 1336 1337 1338 1339 1340 1341 1342 1343 1344 1345 1346 1347 1348 1349 1350 1351 1352 1353 1354 1355 1356 1357 1358 1359 1360 1361 1362 1363 1364 1365 1366 1367 1368 1369 1370 1371 1372 1373 1374 1375 1376 1377 1378 1379 1380 1381 1382 1383 1384 1385 1386 1387 1388 1389 1390 1391 1392 1393 1394 1395 1396 1397 1398 1399 1400 1401 1402 1403 1404 1405 1406 1407 1408 1409 1410 1411 1412 1413 1414 1415 1416 1417 1418 1419 1420 1421 1422 1423 1424 1425 1426 1427 1428 1429 1430 1431 1432 1433 1434 1435 1436 1437 1438 1439 1440 1441 1442 1443 1444 1445 1446 1447 1448 1449 1450 1451 1452 1453 1454 1455 1456 1457 1458 1459 1460 1461 1462 1463 1464 1465 1466 1467 1468 1469 1470 1471 1472 1473 1474 1475 1476 1477 1478 1479 1480 1481 1482 1483 1484 1485 1486 1487 1488 1489 1490 1491 1492 1493 1494 1495 1496 1497 1498 1499 1500 1501 1502 1503 1504 1505 1506 1507 1508 1509 1510 1511 1512 1513 1514 1515 1516 1517 1518 1519 1520 1521 1522 1523 1524 1525 1526 1527 1528 1529 1530 1531 1532 1533 1534 1535 1536 1537 1538 1539 1540 1541 1542 1543 1544 1545 1546 1547 1548 1549 1550 1551 1552 1553 1554 1555 1556 1557 1558 1559 1560 1561 1562 1563 1564 1565 1566 1567 1568 1569 1570 1571 1572 1573 1574 1575 1576 1577 1578 1579 1580 1581 1582 1583 1584 1585 1586 1587 1588 1589 1590 1591 1592 1593 1594 1595 1596 1597 1598 1599 1600 1601 1602 1603 1604 1605 1606 1607 1608 1609 1610 1611 1612 1613 1614 1615 1616 1617 1618 1619 1620 1621 1622 1623 1624 1625 1626 1627 1628 1629 1630 1631 1632 1633 1634 1635 1636 1637 1638 1639 1640 1641 1642 1643 1644 1645 1646 1647 1648 1649 1650 1651 1652 1653 1654 1655 1656 1657 1658 1659 1660 1661 1662 1663 1664 1665 1666 1667 1668 1669 1670 1671 1672 1673 1674 1675 1676 1677 1678 1679 1680 1681 1682 1683 1684 1685 1686 1687 1688 1689 1690 1691 1692 1693 1694 1695 1696 1697 1698 1699 1700 1701 1702 1703 1704 1705 1706 1707 1708 1709 1710 1711 1712 1713 1714 1715 1716 1717 1718 1719 1720 1721 1722 1723 1724 1725 1726 1727 1728 1729 1730 1731 1732 1733 1734 1735 1736 1737 1738 1739 1740 1741 1742 1743 1744 1745 1746 1747 1748 1749 1750 1751 1752 1753 1754 1755 1756 1757 1758 1759 1760 1761 1762 1763 1764 1765 1766 1767 1768 1769 1770 1771 1772 1773 1774 1775 1776 1777 1778 1779 1780 1781 1782 1783 1784 1785 1786 1787 1788 1789 1790 1791 1792 1793 1794 1795 1796 1797 1798 1799 1800 1801 1802 1803 1804 1805 1806 1807 1808 1809 1810 1811 1812 1813 1814 1815 1816 1817 1818 1819 1820 1821 1822 1823 1824 1825 1826 1827 1828 1829 1830 1831 1832 1833 1834 1835 1836 1837 1838 1839 1840 1841 1842 1843 1844 1845 1846 1847 1848 1849 1850 1851 1852 1853 1854 1855 1856 1857 1858 1859 1860 1861 1862 1863 1864 1865 1866 1867 1868 1869 1870 1871 1872 1873 1874 1875 1876 1877 1878 1879 1880 1881 1882 1883 1884 1885 1886 1887 1888 1889 1890 1891 1892 1893 1894 1895 1896 1897 1898 1899 1900 1901 1902 1903 1904 1905 1906 1907 1908 1909 1910 1911 1912 1913 1914 1915 1916 1917 1918 1919 1920 1921 1922 1923 1924 1925 1926 1927 1928 1929 1930 1931 1932 1933 1934 1935 1936 1937 1938 1939 1940 1941 1942 1943 1944 1945 1946 1947 1948 1949 1950 1951 1952 1953 1954 1955 1956 1957 1958 1959 1960 1961 1962 1963 1964 1965 1966 1967 1968 1969 1970 1971 1972 1973 1974 1975 1976 1977 1978 1979 1980 1981 1982 1983 1984 1985 1986 1987 1988 1989 1990 1991 1992 1993 1994 1995 1996 1997 1998 1999 2000 2001 2002 2003 2004 2005 2006 2007 2008 2009 2010 2011 2012 2013 2014 2015 2016 2017 2018 2019 2020 2021 2022 2023 2024 2025 2026 2027 2028 2029 2030 2031 2032 2033 2034 2035 2036 2037 2038 2039 2040 2041 2042 2043 2044 2045 2046 2047 2048 2049 2050 2051 2052 2053 2054 2055 2056 2057 2058 2059 2060 2061 2062 2063 2064 2065 2066 2067 2068 2069 2070 2071 2072 2073 2074 2075 2076 2077 2078 2079 2080 2081 2082 2083 2084 2085 2086 2087 2088 2089 2090 2091 2092 2093 2094 2095 2096 2097 2098 2099 2100 2101 2102 2103 2104 2105 2106 2107 2108 2109 2110 2111 2112 2113 2114 2115 2116 2117 2118 2119 2120 2121 2122 2123 2124 2125 2126 2127 2128 2129 2130 2131 2132 2133 2134 2135 2136 2137 2138 2139 2140 2141 2142 2143 2144 2145 2146 2147 2148 2149 2150 2151 2152 2153 2154 2155 2156 2157 2158 2159 2160 2161 2162 2163 2164 2165 2166 2167 2168 2169 2170 2171 2172 2173 2174 2175 2176 2177 2178 2179 2180 2181 2182 2183 2184 2185 2186 2187 2188 2189 2190 2191 2192 2193 2194 2195 2196 2197 2198 2199 2200 2201 2202 2203 2204 2205 2206 2207 2208 2209 2210 2211 2212 2213 2214 2215 2216 2217 2218 2219 2220 2221 2222 2223 2224 2225 2226 2227 2228 2229 2230 2231 2232 2233 2234 2235 2236 2237 2238 2239 2240 2241 2242 2243 2244 2245 2246 2247 2248 2249 2250 2251 2252 2253 2254 2255 2256 2257 2258 2259 2260 2261 2262 2263 2264 2265 2266 2267 2268 2269 2270 2271 2272 2273 2274 2275 2276 2277 2278 2279 2280 2281 2282 2283 2284 2285 2286 2287 2288 2289 2290 2291 2292 2293 2294 2295 2296 2297 2298 2299 2300 2301 2302 2303 2304 2305 2306 2307 2308 2309 2310 2311 2312 2313 2314 2315 2316 2317 2318 2319 2320 2321 2322 2323 2324 2325 2326 2327 2328 2329 2330 2331 2332 2333 2334 2335 2336 2337 2338 2339 2340 2341 2342 2343 2344 2345 2346 2347 2348 2349 2350 2351 2352 2353 2354 2355 2356 2357 2358 2359 2360 2361 2362 2363 2364 2365 2366 2367 2368 2369 2370 2371 2372 2373 2374 2375 2376 2377 2378 2379 2380 2381 2382 2383 2384 2385 2386 2387 2388 2389 2390 2391 2392 2393 2394 2395 2396 2397 2398 2399 2400 2401 2402 2403 2404 2405 2406 2407 2408 2409 2410 2411 2412 2413 2414 2415 2416 2417 2418 2419 2420 2421 2422 2423 2424 2425 2426 2427 2428 2429 2430 2431 2432 2433 2434 2435 2436 2437 2438 2439 2440 2441 2442 2443 2444 2445 2446 2447 2448 2449 2450 2451 2452 2453 2454 2455 2456 2457 2458 2459 2460 2461 2462 2463 2464 2465 2466 2467 2468 2469 2470 2471 2472 2473 2474 2475 2476 2477 2478 2479 2480 2481 2482 2483 2484 2485 2486 2487 2488 2489 2490 2491 2492 2493 2494 2495 2496 2497 2498 2499 2500 2501 2502 2503 2504 2505 2506 2507 2508 2509 2510 2511 2512 2513 2514 2515 2516 2517 2518 2519 2520 2521 2522 2523 2524 2525 2526 2527 2528 2529 2530 2531 2532 2533 2534 2535 2536 2537 2538 2539 2540 2541 2542 2543 2544 2545 2546 2547 2548 2549 2550 2551 2552 2553 2554 2555 2556 2557 2558 2559 2560 2561 2562 2563 2564 2565 2566 2567 2568 2569 2570 2571 2572 2573 2574 2575 2576 2577 2578 2579 2580 2581 2582 2583 2584 2585 2586 2587 2588 2589 2590 2591 2592 2593 2594 2595 2596 2597 2598 2599 2600 2601 2602 2603 2604 2605 2606 2607 2608 2609 2610 2611 2612 2613 2614 2615 2616 2617 2618 2619 2620 2621 2622 2623 2624 2625 2626 2627 2628 2629 2630 2631 2632 2633 2634 2635 2636 2637 2638 2639 2640 2641 2642 2643 2644 2645 2646 2647 2648 2649 2650 2651 2652 2653 2654 2655 2656 2657 2658 2659 2660 2661 2662 2663 2664 2665 2666 2667 2668 2669 2670 2671 2672 2673 2674 2675 2676 2677 2678 2679 2680 2681 2682 2683 2684 2685 2686 2687 2688 2689 2690 2691 2692 2693 2694 2695 2696 2697 2698 2699 2700 2701 2702 2703 2704 2705 2706 2707 2708 2709 2710 2711 2712 2713 2714 2715 2716 2717 2718 2719 2720 2721 2722 2723 2724 2725 2726 2727 2728 2729 2730 2731 2732 2733 2734 2735 2736 2737 2738 2739 2740 2741 2742 2743 2744 2745 2746 2747 2748 2749 2750 2751 2752 2753 2754 2755 2756 2757 2758 2759 2760 2761 2762 2763 2764 2765 2766 2767 2768 2769 2770 2771 2772 2773 2774 2775 2776 2777 2778 2779 2780 2781 2782 2783 2784 2785 2786 2787 2788 2789 2790 2791 2792 2793 2794 2795 2796 2797 2798 2799 2800 2801 2802 2803 2804 2805 2806 2807 2808 2809 2810 2811 2812 2813 2814 2815 2816 2817 2818 2819 2820 2821 2822 2823 2824 2825 2826 2827 2828 2829 2830 2831 2832 2833 2834 2835 2836 2837 2838 2839 2840 2841 2842 2843 2844 2845 2846 2847 2848 2849 2850 2851 2852 2853 2854 2855 2856 2857 2858 2859 2860 2861 2862 2863 2864 2865 2866 2867 2868 2869 2870 2871 2872 2873 2874 2875 2876 2877 2878 2879 2880 2881 2882 2883 2884 2885 2886 2887 2888 2889 2890 2891 2892 2893 2894 2895 2896 2897 2898 2899 2900 2901 2902 2903 2904 2905 2906 2907 2908 2909 2910 2911 2912 2913 2914 2915 2916 2917 2918 2919 2920 2921 2922 2923 2924 2925 2926 2927 2928 2929 2930 2931 2932 2933 2934 2935 2936 2937 2938 2939 2940 2941 2942 2943 2944 2945 2946 2947 2948 2949 2950 2951 2952 2953 2954 2955 2956 2957 2958 2959 2960 2961 2962 2963 2964 2965 2966 2967 2968 2969 2970 2971 2972 2973 2974 2975 2976 2977 2978 2979 2980 2981 2982 2983 2984 2985 2986 2987 2988 2989 2990 2991 2992 2993 2994 2995 2996 2997 2998 2999 3000 3001 3002 3003 3004 3005 3006 3007 3008 3009 3010 3011 3012 3013 3014 3015 3016 3017 3018 3019 3020 3021 3022 3023 3024 3025 3026 3027 3028 3029 3030 3031 3032 3033 3034 3035 3036 3037 3038 3039 3040 3041 3042 3043 3044 3045 3046 3047 3048 3049 3050 3051 3052 3053 3054 3055 3056 3057 3058 3059 3060 3061 3062 3063 3064 3065 3066 3067 3068 3069 3070 3071 3072 3073 3074 3075 3076 3077 3078 3079 3080 3081 3082 3083 3084 3085 3086 3087 3088 3089 3090 3091 3092 3093 3094 3095 3096 3097 3098 3099 3100 3101 3102 3103 3104 3105 3106 3107 3108 3109 3110 3111 3112 3113 3114 3115 3116 3117 3118 3119 3120 3121 3122 3123 3124 3125 3126 3127 3128 3129 3130 3131 3132 3133 3134 3135 3136 3137 3138 3139 3140 3141 3142 3143 3144 3145 3146 3147 3148 3149 3150 3151 3152 3153 3154 3155 3156 3157 3158 3159 3160 3161 
</DataArray>
<DataArray type="UInt32" Name="offsets" format="ascii">
3 6 9 12 15 18 21 24 27 30 33 36 39 42 45 48 51 54 57 60 63 66 69 72 75 78 81 84 87 90 93 96 99 102 105 108 111 114 117 120 123 126 129 132 135 138 141 144 147 150 153 156 159 162 165 168 171 174 177 180 183 186 189 192 195 198 201 204 207 210 213 216 219 222 225 228 231 234 237 240 243 246 249 252 255 258 261 264 267 270 273 276 279 282 285 288 291 294 297 300 303 306 309 312 315 318 321 324 327 330 333 336 339 342 345 348 351 354 357 360 363 366 369 372 375 378 381 384 387 390 393 396 399 402 405 408 411 414 417 420 423 426 429 432 435 438 441 444 447 450 453 456 459 462 465 468 471 474 477 480 483 486 489 492 495 498 501 504 507 510 513 516 519 522 525 528 531 534 537 540 543 546 549 552 555 558 561 564 567 570 573 576 579 582 585 588 591 594 597 600 603 606 609 612 615 618 621 624 627 630 633 636 639 642 645 648 651 654 657 660 663 666 669 672 675 678 681 684 687 690 693 696 699 702 705 708 711 714 717 720 723 726 729 732 735 738 741 744 747 750 753 756 759 762 765 768 771 774 777 780 783 786 789 792 795 798 801 804 807 810 813 816 819 822 825 828 831 834 837 840 843 846 849 852 855 858 861 864 867 870 873 876 879 882 885 888 891 894 897 900 903 906 909 912 915 918 921 924 927 930 933 936 939 942 945 948 951 954 957 960 963 966 969 972 975 978 981 984 987 990 993 996 999 1002 1005 1008 1011 1014 1017 1020 1023 1026 1029 1032 1035 1038 1041 1044 1047 1050 1053 1056 1059 1062 1065 1068 1071 1074 1077 1080 1083 1086 1089 1092 1095 1098 1101 1104 1107 1110 1113 1116 1119 1122 1125 1128 1131 1134 1137 1140 1143 1146 1149 1152 1155 1158 1161 1164 1167 1170 1173 1176 1179 1182 1185 1188 1191 1194 1197 1200 1203 1206 1209 1212 1215 1218 1221 1224 1227 1230 1233 1236 1239 1242 1245 1248 1251 1254 1257 1260 1263 1266 1269 1272 1275 1278 1281 1284 1287 1290 1293 1296 1299 1302 1305 1308 1311 1314 1317 1320 1323 1326 1329 1332 1335 1338 1341 1344 1347 1350 1353 1356 1359 1362 1365 1368 1371 1374 1377 1380 1383 1386 1389 1392 1395 1398 1401 1404 1407 1410 1413 1416 1419 1422 1425 1428 1431 1434 1437 1440 1443 1446 1449 1452 1455 1458 1461 1464 1467 1470 1473 1476 1479 1482 1485 1488 1491 1494 1497 1500 1503 1506 1509 1512 1515 1518 1521 1524 1527 1530 1533 1536 1539 1542 1545 1548 1551 1554 1557 1560 1563 1566 1569 1572 1575 1578 1581 1584 1587 1590 1593 1596 1599 1602 1605 1608 1611 1614 1617 1620 1623 1626 1629 1632 1635 1638 1641 1644 1647 1650 1653 1656 1659 1662 1665 1668 1671 1674 1677 1680 1683 1686 1689 1692 1695 1698 1701 1704 1707 1710 1713 1716 1719 1722 1725 1728 1731 1734 1737 1740 1743 1746 1749 1752 1755 1758 1761 1764 1767 1770 1773 1776 1779 1782 1785 1788 1791 1794 1797 1800 1803 1806 1809 1812 1815 1818 1821 1824 1827 1830 1833 1836 1839 1842 1845 1848 1851 1854 1857 1860 1863 1866 1869 1872 1875 1878 1881 1884 1887 1890 1893 1896 1899 1902 1905 1908 1911 1914 1917 1920 1923 1926 1929 1932 1935 1938 1941 1944 1947 1950 1953 1956 1959 1962 1965 1968 1971 1974 1977 1980 1983 1986 1989 1992 1995 1998 2001 2004 2007 2010 2013 2016 2019 2022 2025 2028 2031 2034 2037 2040 2043 2046 2049 2052 2055 2058 2061 2064 2067 2070 2073 2076 2079 2082 2085 2088 2091 2094 2097 2100 2103 2106 2109 2112 2115 2118 2121 2124 2127 2130 2133 2136 2139 2142 2145 2148 2151 2154 2157 2160 2163 2166 2169 2172 2175 2178 2181 2184 2187 2190 2193 2196 2199 2202 2205 2208 2211 2214 2217 2220 2223 2226 2229 2232 2235 2238 2241 2244 2247 2250 2253 2256 2259 2262 2265 2268 2271 2274 2277 2280 2283 2286 2289 2292 2295 2298 2301 2304 2307 2310 2313 2316 2319 2322 2325 2328 2331 2334 2337 2340 2343 2346 2349 2352 2355 2358 2361 2364 2367 2370 2373 2376 2379 2382 2385 2388 2391 2394 2397 2400 2403 2406 2409 2412 2415 2418 2421 2424 2427 2430 2433 2436 2439 2442 2445 2448 2451 2454 2457 2460 2463 2466 2469 2472 2475 2478 2481 2484 2487 2490 2493 2496 2499 2502 2505 2508 2511 2514 2517 2520 2523 2526 2529 2532 2535 2538 2541 2544 2547 2550 2553 2556 2559 2562 2565 2568 2571 2574 2577 2580 2583 2586 2589 2592 2595 2598 2601 2604 2607 2610 2613 2616 2619 2622 2625 2628 2631 2634 2637 2640 2643 2646 2649 2652 2655 2658 2661 2664 2667 2670 2673 2676 2679 2682 2685 2688 2691 2694 2697 2700 2703 2706 2709 2712 2715 2718 2721 2724 2727 2730 2733 2736 2739 2742 2745 2748 2751 2754 2757 2760 2763 2766 2769 2772 2775 2778 2781 2784 2787 2790 2793 2796 2799 2802 2805 2808 2811 2814 2817 2820 2823 2826 2829 2832 2835 2838 2841 2844 2847 2850 2853 2856 2859 2862 2865 2868 2871 2874 2877 2880 2883 2886 2889 2892 2895 2898 2901 2904 2907 2910 2913 2916 2919 2922 2925 2928 2931 2934 2937 2940 2943 2946 2949 2952 2955 2958 2961 2964 2967 2970 2973 2976 2979 2982 2985 2988 2991 2994 2997 3000 3003 3006 3009 3012 3015 3018 3021 3024 3027 3030 3033 3036 3039 3042 3045 3048 3051 3054 3057 3060 3063 3066 3069 3072 3075 3078 3081 3084 3087 3090 3093 3096 3099 3102 3105 3108 3111 3114 3117 3120 3123 3126 3129 3132 3135 3138 3141 3144 3147 3150 3153 3156 3159 3162 
</DataArray>
<DataArray type="UInt32" Name="types" format="ascii">
5 5 5 5 5 5 5 5 5 5 5 5 5 5 5 5 5 5 5 5 5 5 5 5 5 5 5 5 5 5 5 5 5 5 5 5 5 5 5 5 5 5 5 5 5 5 5 5 5 5 5 5 5 5 5 5 5 5 5 5 5 5 5 5 5 5 5 5 5 5 5 5 5 5 5 5 5 5 5 5 5 5 5 5 5 5 5 5 5 5 5 5 5 5 5 5 5 5 5 5 5 5 5 5 5 5 5 5 5 5 5 5 5 5 5 5 5 5 5 5 5 5 5 5 5 5 5 5 5 5 5 5 5 5 5 5 5 5 5 5 5 5 5 5 5 5 5 5 5 5 5 5 5 5 5 5 5 5 5 5 5 5 5 5 5 5 5 5 5 5 5 5 5 5 5 5 5 5 5 5 5 5 5 5 5 5 5 5 5 5 5 5 5 5 5 5 5 5 5 5 5 5 5 5 5 5 5 5 5 5 5 5 5 5 5 5 5 5 5 5 5 5 5 5 5 5 5 5 5 5 5 5 5 5 5 5 5 5 5 5 5 5 5 5 5 5 5 5 5 5 5 5 5 5 5 5 5 5 5 5 5 5 5 5 5 5 5 5 5 5 5 5 5 5 5 5 5 5 5 5 5 5 5 5 5 5 5 5 5 5 5 5 5 5 5 5 5 5 5 5 5 5 5 5 5 5 5 5 5 5 5 5 5 5 5 5 5 5 5 5 5 5 5 5 5 5 5 5 5 5 5 5 5 5 5 5 5 5 5 5 5 5 5 5 5 5 5 5 5 5 5 5 5 5 5 5 5 5 5 5 5 5 5 5 5 5 5 5 5 5 5 5 5 5 5 5 5 5 5 5 5 5 5 5 5 5 5 5 5 5 5 5 5 5 5 5 5 5 5 5 5 5 5 5 5 5 5 5 5 5 5 5 5 5 5 5 5 5 5 5 5 5 5 5 5 5 5 5 5 5 5 5 5 5 5 5 5 5 5 5 5 5 5 5 5 5 5 5 5 5 5 5 5 5 5 5 5 5 5 5 5 5 5 5 5 5 5 5 5 5 5 5 5 5 5 5 5 5 5 5 5 5 5 5 5 5 5 5 5 5 5 5 5 5 5 5 5 5 5 5 5 5 5 5 5 5 5 5 5 5 5 5 5 5 5 5 5 5 5 5 5 5 5 5 5 5 5 5 5 5 5 5 5 5 5 5 5 5 5 5 5 5 5 5 5 5 5 5 5 5 5 5 5 5 5 5 5 5 5 5 5 5 5 5 5 5 5 5 5 5 5 5 5 5 5 5 5 5 5 5 5 5 5 5 5 5 5 5 5 5 5 5 5 5 5 5 5 5 5 5 5 5 5 5 5 5 5 5 5 5 5 5 5 5 5 5 5 5 5 5 5 5 5 5 5 5 5 5 5 5 5 5 5 5 5 5 5 5 5 5 5 5 5 5 5 5 5 5 5 5 5 5 5 5 5 5 5 5 5 5 5 5 5 5 5 5 5 5 5 5 5 5 5 5 5 5 5 5 5 5 5 5 5 5 5 5 5 5 5 5 5 5 5 5 5 5 5 5 5 5 5 5 5 5 5 5 5 5 5 5 5 5 5 5 5 5 5 5 5 5 5 5 5 5 5 5 5 5 5 5 5 5 5 5 5 5 5 5 5 5 5 5 5 5 5 5 5 5 5 5 5 5 5 5 5 5 5 5 5 5 5 5 5 5 5 5 5 5 5 5 5 5 5 5 5 5 5 5 5 5 5 5 5 5 5 5 5 5 5 5 5 5 5 5 5 5 5 5 5 5 5 5 5 5 5 5 5 5 5 5 5 5 5 5 5 5 5 5 5 5 5 5 5 5 5 5 5 5 5 5 5 5 5 5 5 5 5 5 5 5 5 5 5 5 5 5 5 5 5 5 5 5 5 5 5 5 5 5 5 5 5 5 5 5 5 5 5 5 5 5 5 5 5 5 5 5 5 5 5 5 5 5 5 5 5 5 5 5 5 5 5 5 5 5 5 5 5 5 5 5 5 5 5 5 5 5 5 5 5 5 5 5 5 5 5 5 5 5 5 5 5 5 5 5 5 5 5 5 5 5 5 5 5 5 5 5 5 5 5 5 5 5 5 5 5 5 5 5 5 5 5 5 5 5 5 5 5 5 5 5 5 5 5 5 5 5 5 5 5 5 5 5 5 5 5 5 5 5 5 5 5 5 5 5 5 5 5 5 5 5 5 5 5 5 5 5 5 5 5 5 5 5 5 5 5 5 5 5 5 5 5 5 5 5 5 5 5 5 5 5 5 5 5 5 5 5 5 5 5 5 5 5 5 5 5 5 5 5 5 5 5 5 5 5 5 5 5 5 5 5 5 5 5 5 
</DataArray>
</Cells>
<PointData Scalars="" Vectors="displacement," Tensors="">
<DataArray type="Float64" Name="displacement" NumberOfComponents="3" format="ascii">
-0.00025718535411379644 -0.0023901256560623653 0 -0.00017896144628578954 -0.0022302604708243994 0 -0.00012873752005961424 -0.0023633544528555077 0 0.00058399441171866242 -0.0019110067688622113 0 0.00048082630790256174 -0.0017815185059088759 0 0.0005629904142756538 -0.0017231282762345092 0 -0.00053377418155840296 -0.0011722523768506301 0 -0.00045839094520400212 -0.0012782865341311304 0 -0.00054004737408075768 -0.0013537706210710074 0 0.00018086262495765052 -0.00065960119991185086 0 0.0001358163957001181 -0.00079581660237621876 0 8.9864916201220948e-05 -0.00067226711106879733 0 0.00016063089682165 -0.001995798337431358 0 0.00027312278375260469 -0.0018975729569919561 0 0.00026603643873577708 -0.0021061023952650094 0 0.00036958860591644317 -0.0020264411892424207 0 0.00026603643873577708 -0.0021061023952650094 0 0.00027312278375260469 -0.0018975729569919561 0 0.00031688496896544697 -0.001270659361920302 0 0.00022046856985439555 -0.0011143384208660574 0 0.00035629749156557529 -0.0011304985144408447 0 0.00029493358651674684 -0.0009739036831770048 0 0.00035629749156557529 -0.0011304985144408447 0 0.00022046856985439555 -0.0011143384208660574 0 0.00057447575751073563 -0.0029852131045046567 0 0.00064977315918585425 -0.003117582052286981 0 0.00051648266829846178 -0.0031360191054124456 0 -0.00094027483051368978 -0.0024132349198558696 0 -0.0010132855472650853 -0.002531544423927232 0 -0.001021702494215633 -0.002336935567349607 0 0.00071939107262873495 -0.00080829024709316518 0 0.00077212036055282582 -0.00078551173971774617 0 0.00085209175361699772 -0.00095294207135419049 0 -0.00020388686170528259 -0.00023796813976135656 0 -0.00012536008740709082 -0.00011935345919088862 0 -9.1582041515803631e-05 -0.00010480085295441405 0 0.00090004870167994632 -0.0032827452699809171 0 0.00080004370492460649 -0.0032920929455829157 0 0.00091879742892454026 -0.0031466048950069291 0 -0.0011020705369446295 -0.0029352798919548254 0 -0.0011072775320997252 -0.0027714799863557517 0 -0.0010298624013081129 -0.00295761050903386 0 -0.00045585019372460818 -0.0003499675584495298 0 -0.00069999308900571663 -0.00063246561653773972 0 -0.00054826133240001309 -0.00046782837428467036 0 -0.00091920215366287522 -0.0031465721329492543 0 -0.00080031509591744912 -0.0032921488376614558 0 -0.00090038947245508507 -0.0032827465138846814 0 0.00015657086423922578 -9.6264551599317056e-05 0 2.6915094566405995e-08 -1.0903027927634814e-07 0 6.3143313224013317e-08 -1.4395923297899257e-07 0 0.0010296978988906624 -0.0029576073924112889 0 0.0011071951844930155 -0.002771606343086843 0 0.0011018779675738759 -0.002935284079855798 0 0.00054887558042329644 -0.00046747783334576782 0 0.00070136196346777362 -0.00063157836068001823 0 0.00045652955578753986 -0.00034972545791152597 0 -6.312726496724631e-08 -1.4540514723931301e-07 0 -2.6770870585427e-08 -1.0757863751931536e-07 0 -0.00015676714263116847 -9.6781041215249225e-05 0 0.0008087334597872126 -0.0007777545464299851 0 0.00077212036055282582 -0.00078551173971774617 0 0.00070315928078017328 -0.00064844201418664637 0 -3.8070894102794195e-08 -1.2341703185706098e-07 0 -0.00012536008740709082 -0.00011935345919088862 0 -0.00010813625130782483 -8.7260626377669e-05 0 0.00069447895559004709 -0.0032995948273267322 0 0.00064977315918585425 -0.003117582052286981 0 0.00075716916682867428 -0.0031444491410659819 0 -0.0011091286638979445 -0.0026075517521824427 0 -0.0010132855472650853 -0.002531544423927232 0 -0.0010285128214108583 -0.0026964677098421227 0 0.0011089824900406837 -0.0026078915227668296 0 0.0010371021630993116 -0.0026726974871324727 0 0.0010078523683286452 -0.0025014396019425499 0 3.74399217625726e-08 -1.2345150010811147e-07 0 0.00010734472197768145 -8.7106954907829136e-05 0 0.00012729441776004253 -0.00012128085594543906 0 -0.00069494863365201468 -0.003299518600980727 0 -0.00074147096005794172 -0.003161236522691113 0 -0.00063031028151942575 -0.0031080831808278282 0 -0.00080903879881497217 -0.00077786309542593902 0 -0.00070157954746128174 -0.00064571545959090488 0 -0.0007756670293642316 -0.00079305427547947784 0 -1.0272602027884159e-07 -0.0025186727437416408 0 9.224709351442331e-05 -0.0025945090356716224 0 -5.7198211695567512e-06 -0.0027359314083368592 0 -0.00064968435881524746 -0.0015543650367439688 0 -0.00070279941169709129 -0.0016933725442084427 0 -0.00077782863644058756 -0.0015725336386234884 0 0.00064938837956754437 -0.0015544078593925351 0 0.00068402369564217393 -0.0014329648106722662 0 0.00077875819793435613 -0.0015883258440486255 0 -1.4205782970563462e-07 -0.00054233009646307759 0 -5.2860388963931653e-05 -0.00048138851507520945 0 3.3595504638700917e-06 -0.00036939054715577846 0 0.00069447895559004709 -0.0032995948273267322 0 0.00058489971835391373 -0.0033053148718584897 0 0.00064977315918585425 -0.003117582052286981 0 -0.0011091286638979445 -0.0026075517521824427 0 -0.0011100840663983945 -0.0024436479712667222 0 -0.0010132855472650853 -0.002531544423927232 0 0.0008087334597872126 -0.0007777545464299851 0 0.0008917727670861524 -0.00092223832734564172 0 0.00077212036055282582 -0.00078551173971774617 0 -3.8070894102794195e-08 -1.2341703185706098e-07 0 -2.1057833048602508e-08 -1.1647151402185895e-07 0 -0.00012536008740709082 -0.00011935345919088862 0 0.00110991584367492 -0.002443760085449827 0 0.0011089824900406837 -0.0026078915227668296 0 0.0010078523683286452 -0.0025014396019425499 0 2.2549256468985379e-08 -1.1504517562735458e-07 0 3.74399217625726e-08 -1.2345150010811147e-07 0 0.00012729441776004253 -0.00012128085594543906 0 -0.00058509183916362383 -0.0033053297546288708 0 -0.00069494863365201468 -0.003299518600980727 0 -0.00063031028151942575 -0.0031080831808278282 0 -0.00089254181530644308 -0.00092216796229204346 0 -0.00080903879881497217 -0.00077786309542593902 0 -0.0007756670293642316 -0.00079305427547947784 0 0.00110991584367492 -0.002443760085449827 0 0.0010078523683286452 -0.0025014396019425499 0 0.001011931130759639 -0.0023173252031489077 0 2.2549256468985379e-08 -1.1504517562735458e-07 0 0.00012729441776004253 -0.00012128085594543906 0 9.5174198915815535e-05 -0.00011105820824700595 0 -0.00058509183916362383 -0.0033053297546288708 0 -0.00063031028151942575 -0.0031080831808278286 0 -0.00050400257033740591 -0.0031186075130944257 0 -0.00089254181530644308 -0.00092216796229204346 0 -0.0007756670293642316 -0.00079305427547947784 0 -0.00085316262711767211 -0.00096521622064370553 0 0.00077236892852408179 -0.0027054014498498384 0 0.00087309454867164429 -0.0026418667483363817 0 0.00089751499551792024 -0.0027872666267395505 0 -0.00077268633490297381 -0.0027052812154227759 0 -0.00072948516874198652 -0.0028703763538078806 0 -0.00081988100081077414 -0.0029133284456599952 0 -0.00025718535411379644 -0.0023901256560623653 0 -0.00012873752005961424 -0.0023633544528555077 0 -0.00016420634451427981 -0.0025198426932463115 0 0.00058399441171866242 -0.0019110067688622113 0 0.0005629904142756538 -0.0017231282762345092 0 0.00066166368495914761 -0.0017879709713858212 0 -0.00053377418155840296 -0.0011722523768506301 0 -0.00054004737408075768 -0.0013537706210710074 0 -0.00062875605482679432 -0.0013215088660956181 0 0.00018086262495765052 -0.00065960119991185086 0 8.9864916201220935e-05 -0.00067226711106879722 0 0.00010256065147050033 -0.00054246933394499217 0 0.00091879742892454026 -0.0031466048950069291 0 0.00080004370492460649 -0.0032920929455829157 0 0.00084242269422682913 -0.003110327388732364 0 -0.0010298624013081129 -0.00295761050903386 0 -0.0011072775320997252 -0.0027714799863557517 0 -0.0010096410974624204 -0.002830390228734379 0 -0.00055231217182799346 -0.00046128201358067714 0 -0.00069999308900571663 -0.00063246561653773972 0 -0.00045585019372460818 -0.0003499675584495298 0 -0.00083266973283508067 -0.0030884989343973371 0 -0.00080031509591744912 -0.0032921488376614558 0 -0.00091920215366287522 -0.0031465721329492543 0 0.00017831646790299443 -0.00013495414998105276 0 2.6915094566405664e-08 -1.0903027927634755e-07 0 0.00015657086423922578 -9.6264551599317056e-05 0 0.00099779219301200802 -0.0028132867421873644 0 0.0011071951844930155 -0.002771606343086843 0 0.0010296978988906624 -0.0029576073924112889 0 0.00045652955578753986 -0.00034972545791152597 0 0.00070136196346777362 -0.00063157836068001834 0 0.00055804933160198331 -0.00046864678671443792 0 -0.00015676714263116847 -9.6781041215249225e-05 0 -2.6770870585421706e-08 -1.075786375193121e-07 0 -0.00018997512916953658 -0.00014439435281329683 0 -0.00071618236213894686 -0.00082090821126964508 0 -0.00066898903067501595 -0.00069079334807525545 0 -0.00057091463904710739 -0.00065980280604860842 0 0.00021002530981559033 -0.00025181142992046929 0 0.00022956996241680055 -0.00023688751204118096 0 0.00033951305941023655 -0.00040101997946303961 0 0.00090198718485478527 -0.0023944387764172586 0 0.00092936713263297921 -0.0025357280655639055 0 0.00079820879336566322 -0.0025064892108480901 0 -0.00056470839289847789 -0.00291670182955946 0 -0.00065746265930338504 -0.0029673662310399102 0 -0.00064483094473514709 -0.0027422116066329874 0 0.00057447575751073563 -0.0029852131045046567 0 0.00051648266829846178 -0.0031360191054124456 0 0.00048949637786349144 -0.0029575481320272871 0 -0.00094027483051368978 -0.0024132349198558696 0 -0.001021702494215633 -0.002336935567349607 0 -0.00092481824827844456 -0.0022880163010530652 0 0.00071939107262873495 -0.00080829024709316518 0 0.00085209175361699772 -0.00095294207135419049 0 0.0007725206945931334 -0.00093621108839132806 0 -0.00020388686170528259 -0.00023796813976135656 0 -9.1582041515803631e-05 -0.00010480085295441405 0 -0.00016623190118899564 -0.0002256073349879418 0 9.3885100892282105e-05 -0.00015374459126121453 0 0.00010359677265798774 -0.00024064021078138283 0 5.0836397300422371e-05 -0.00012400541690346756 0 0.00097333066716519831 -0.0021356928344488865 0 0.00090045211019545556 -0.0020081282629421369 0 0.00099333705110883652 -0.0019648695360288105 0 -0.00087123531491143031 -0.0011159806664835287 0 -0.00082871924505457787 -0.0012037728167699612 0 -0.00093107231931485919 -0.0012943563796728576 0 -0.00037845289164170279 -0.0030498807536753435 0 -0.00029410212703725438 -0.0029204893448340355 0 -0.00025231395211730659 -0.0030961069879361048 0 -5.7198211695567512e-06 -0.0027359314083368592 0 9.224709351442331e-05 -0.0025945090356716224 0 9.8602894687834156e-05 -0.0027482619151283157 0 -0.00077782863644058756 -0.0015725336386234884 0 -0.00070279941169709118 -0.0016933725442084427 0 -0.00079326023621993137 -0.0017192386345414527 0 0.00077875819793435613 -0.0015883258440486255 0 0.00068402369564217382 -0.001432964810672266 0 0.00077226363596052039 -0.0014450908710169383 0 3.3595504638700917e-06 -0.00036939054715577846 0 -5.2860388963931659e-05 -0.0004813885150752095 0 -4.5908925183085323e-05 -0.00036295409781792663 0 0.00077236892852408179 -0.0027054014498498384 0 0.00089751499551792035 -0.0027872666267395505 0 0.00081801027896695455 -0.0028700654358797323 0 -0.00077268633490297381 -0.0027052812154227759 0 -0.00081988100081077414 -0.0029133284456599952 0 -0.00087237237073093906 -0.0027827066783437885 0 0.00044894542987714377 -0.00046118607225119183 0 0.00036801671992242922 -0.00032691921069323272 0 0.00049210980206605736 -0.00043369919606677383 0 -0.00044579251899444771 -0.0004573010180475054 0 -0.00047246755095952531 -0.00042378564759435806 0 -0.00034215256974296372 -0.00029480239143933417 0 -0.00057091463904710739 -0.00065980280604860842 0 -0.00066898903067501595 -0.00069079334807525545 0 -0.00056114738094257069 -0.00055743356674618587 0 0.00033951305941023655 -0.00040101997946303961 0 0.00022956996241680055 -0.00023688751204118096 0 0.0003214604763270785 -0.00031825982287867681 0 0.00044894542987714377 -0.00046118607225119183 0 0.00049210980206605736 -0.00043369919606677383 0 0.00056011371287112042 -0.00055715960934257889 0 -0.00044579251899444771 -0.0004573010180475054 0 -0.00034215256974296372 -0.00029480239143933417 0 -0.00032258160926667786 -0.0003203219186443214 0 -0.0004325737126989803 -0.0024671896480539099 0 -0.00038363973127116896 -0.0022952325112282055 0 -0.00034535344704648079 -0.002512644818080759 0 0.00063172874204687948 -0.0021736145970083728 0 0.00051952038840505854 -0.0020887085309692056 0 0.00066102559655315581 -0.0020480831029422359 0 -0.00052885998299390059 -0.00092974344148866552 0 -0.00044438448768005859 -0.0009813653939888796 0 -0.00058277664271425792 -0.0010613578538921846 0 0.00029327270531357346 -0.00061255970848548365 0 0.00029163640074129953 -0.00076429846072835798 0 0.00022101252091230237 -0.00056187296283112032 0 -0.00056470839289847789 -0.00291670182955946 0 -0.00050400257033740591 -0.0031186075130944257 0 -0.00063031028151942575 -0.0031080831808278282 0 -0.00071618236213894686 -0.00082090821126964508 0 -0.000853162627117672 -0.00096521622064370542 0 -0.0007756670293642316 -0.00079305427547947784 0 0.00090198718485478527 -0.0023944387764172586 0 0.001011931130759639 -0.0023173252031489077 0 0.0010078523683286452 -0.0025014396019425499 0 0.00021002530981559033 -0.00025181142992046929 0 9.5174198915815535e-05 -0.00011105820824700595 0 0.00012729441776004253 -0.00012128085594543906 0 -0.00064483094473514709 -0.0027422116066329874 0 -0.00065746265930338504 -0.0029673662310399102 0 -0.00072948516874198652 -0.002870376353807881 0 0.00079820879336566322 -0.0025064892108480901 0 0.00092936713263297921 -0.0025357280655639055 0 0.00087309454867164429 -0.0026418667483363817 0 -0.00034535344704648079 -0.002512644818080759 0 -0.00038363973127116896 -0.0022952325112282055 0 -0.00025718535411379644 -0.0023901256560623653 0 0.00066102559655315581 -0.0020480831029422359 0 0.00051952038840505854 -0.0020887085309692056 0 0.00058399441171866242 -0.0019110067688622113 0 -0.00058277664271425792 -0.0010613578538921846 0 -0.00044438448768005859 -0.0009813653939888796 0 -0.00053377418155840296 -0.0011722523768506301 0 0.00022101252091230237 -0.00056187296283112032 0 0.00029163640074129953 -0.00076429846072835798 0 0.00018086262495765052 -0.00065960119991185086 0 0.00018152720794690336 -0.0018056797773772215 0 8.6226021311618022e-05 -0.0018644555578555566 0 7.4273044033912623e-05 -0.0016880965521232441 0 0.0011009577504074533 -0.0019613672452520395 0 0.00099333705110883652 -0.0019648695360288105 0 0.0010178985756899629 -0.0018244404703377005 0 1.23437356176264e-08 -1.1710642033244773e-07 0 5.0836397300422371e-05 -0.00012400541690346756 0 2.1808581052400854e-05 -8.5816846646678404e-05 0 -0.00023902333747273844 -0.0033136023068240823 0 -0.00025231395211730659 -0.0030961069879361048 0 -0.00014437271974668015 -0.0031571296550734641 0 -0.0010376074510709096 -0.0013503796807351307 0 -0.00093107231931485919 -0.0012943563796728576 0 -0.00098405663869589573 -0.001445443896842701 0 -0.00015543041054501427 -0.0029642440082074872 0 -3.2337549225726516e-05 -0.0030804629590149464 0 -0.00014437271974668015 -0.0031571296550734641 0 -0.00088408764565869348 -0.0014003729682785036 0 -0.0009630380469301613 -0.0015817027807173039 0 -0.00098405663869589573 -0.001445443896842701 0 0.00091845379466708773 -0.0018207724437724359 0 0.000969940393073193 -0.0016672615018716026 0 0.0010178985756899629 -0.0018244404703377005 0 4.872254178428978e-05 -0.00020710535032236423 0 6.907022826948702e-06 -0.00013134671622922462 0 2.1808581052400854e-05 -8.5816846646678404e-05 0 0.00017717097253866666 -0.0016558330254566531 0 0.00018152720794690336 -0.0018056797773772215 0 7.4273044033912623e-05 -0.0016880965521232441 0 0.0011081763383958305 -0.00228077715671254 0 0.00110991584367492 -0.002443760085449827 0 0.001011931130759639 -0.0023173252031489077 0 1.3748422251634203e-08 -1.2325431571502586e-07 0 2.2549256468985379e-08 -1.1504517562735458e-07 0 9.5174198915815535e-05 -0.00011105820824700595 0 -0.00047184406169200325 -0.0033090260991842269 0 -0.00058509183916362383 -0.0033053297546288708 0 -0.00050400257033740591 -0.0031186075130944257 0 -0.00095317508978688898 -0.0010651646841643605 0 -0.00089254181530644308 -0.00092216796229204346 0 -0.00085316262711767211 -0.00096521622064370553 0 0.00091845379466708773 -0.0018207724437724359 0 0.00081779134033050955 -0.0019075670618878713 0 0.00082010322076005952 -0.0017446480090633314 0 -0.00015543041054501427 -0.0029642440082074872 0 -0.00023162171134828106 -0.0027781346803692829 0 -0.00011336813558251589 -0.0027925285068787285 0 4.872254178428978e-05 -0.00020710535032236423 0 0.00010444274927275167 -0.00034158852675584818 0 5.1135807758842226e-05 -0.00032802662702727849 0 -0.00088408764565869348 -0.0014003729682785036 0 -0.00076578937598236212 -0.0012644790043274123 0 -0.00079625385818967722 -0.001430862274099551 0 0.00091845379466708773 -0.0018207724437724359 0 0.00090045211019545556 -0.0020081282629421369 0 0.00081779134033050955 -0.0019075670618878713 0 4.872254178428978e-05 -0.00020710535032236423 0 0.00010359677265798774 -0.0002406402107813828 0 0.00010444274927275167 -0.00034158852675584818 0 -0.00015543041054501427 -0.0029642440082074872 0 -0.00029410212703725438 -0.0029204893448340355 0 -0.00023162171134828106 -0.0027781346803692829 0 -0.00088408764565869348 -0.0014003729682785036 0 -0.00082871924505457787 -0.0012037728167699612 0 -0.00076578937598236212 -0.0012644790043274123 0 0.00058399441171866242 -0.0019110067688622113 0 0.00046524951601890023 -0.0019242342380299932 0 0.00048082630790256174 -0.0017815185059088762 0 -0.00025718535411379644 -0.0023901256560623653 0 -0.00027804331456014666 -0.0022046018587660089 0 -0.00017896144628578954 -0.0022302604708243994 0 0.00018086262495765052 -0.00065960119991185086 0 0.00021598034391155703 -0.00082970183958749021 0 0.0001358163957001181 -0.00079581660237621876 0 -0.00053377418155840296 -0.0011722523768506301 0 -0.00042413446405095934 -0.0011470410784674447 0 -0.00045839094520400212 -0.0012782865341311304 0 3.6415588558125802e-05 -0.0022145997803567621 0 0.00017301326004816547 -0.0022150995030081823 0 0.00010954493051026805 -0.0023983256813467249 0 -0.00046472940610549351 -0.0015777187734819361 0 -0.00046882612205134319 -0.0017712469647283801 0 -0.00058418320334468869 -0.0016985475515187212 0 0.00046577095418752159 -0.0014714343986079615 0 0.00044152439551300678 -0.0012783176828370536 0 0.00056405862847680812 -0.0013845245226574549 0 -3.1355780351067476e-05 -0.00078838588664664224 0 -0.000133243333265009 -0.0008126822994194698 0 -7.5882266899035821e-05 -0.00064469102589387501 0 0.00062752230662682326 -0.00058358525623580662 0 0.00070315928078017328 -0.00064844201418664637 0 0.00077212036055282582 -0.00078551173971774617 0 -0.000221382950670696 -0.00019304964013916896 0 -0.00010813625130782483 -8.7260626377669e-05 0 -0.00012536008740709082 -0.00011935345919088862 0 0.00074080261423048509 -0.002996737122821589 0 0.00075716916682867428 -0.0031444491410659819 0 0.00064977315918585425 -0.003117582052286981 0 -0.00094687541105418669 -0.0026652665822520685 0 -0.0010285128214108583 -0.0026964677098421227 0 -0.0010132855472650853 -0.002531544423927232 0 0.00095673593564262447 -0.0026691683937645674 0 0.0010078523683286452 -0.0025014396019425499 0 0.0010371021630993116 -0.0026726974871324727 0 0.00023016423526307217 -0.00019664649178976299 0 0.00012729441776004253 -0.00012128085594543906 0 0.00010734472197768145 -8.7106954907829136e-05 0 -0.00074318945612704835 -0.0030147952813132589 0 -0.00063031028151942575 -0.0031080831808278282 0 -0.00074147096005794172 -0.003161236522691113 0 -0.00061842277516934992 -0.00057104735844197921 0 -0.0007756670293642316 -0.00079305427547947784 0 -0.00070157954746128174 -0.00064571545959090488 0 0.00024050104245922627 -0.0023883166316170032 0 0.00010954493051026805 -0.0023983256813467249 0 0.00017301326004816547 -0.0022150995030081823 0 -0.00058239163620122834 -0.0018873047223576123 0 -0.00058418320334468869 -0.0016985475515187212 0 -0.00046882612205134319 -0.0017712469647283801 0 0.00053585263586684948 -0.0011956619726356226 0 0.00056405862847680812 -0.0013845245226574549 0 0.00044152439551300678 -0.0012783176828370536 0 -0.00017015916211733317 -0.00066180542413445825 0 -7.5882266899035821e-05 -0.00064469102589387501 0 -0.000133243333265009 -0.0008126822994194698 0 0.00078030583888264869 -0.002355696477225026 0 0.00066807759270302652 -0.0023019985472115378 0 0.00073098516990265344 -0.0021605989520016807 0 -0.00054589918342293718 -0.0027102345763874505 0 -0.00051655806976812072 -0.0025272430132306034 0 -0.00041724030846117981 -0.0026265126554744717 0 0.00029243263556944475 -0.00041753538214607332 0 0.00033721957523498962 -0.00057133108501705482 0 0.00023983874801737729 -0.00047295259612711551 0 -0.00061508340684169813 -0.00080182518667541887 0 -0.00052884648918589906 -0.00081613869645341685 0 -0.00062533697477216012 -0.0009748728167979652 0 0.00083302388023482297 -0.002244059752419226 0 0.00078030583888264869 -0.002355696477225026 0 0.00073098516990265344 -0.0021605989520016807 0 0.00021374489800997238 -0.00033838329745673268 0 0.00029243263556944475 -0.00041753538214607332 0 0.00023983874801737729 -0.00047295259612711551 0 -0.00046665103767258928 -0.0027975452181333246 0 -0.00054589918342293718 -0.0027102345763874505 0 -0.00041724030846117981 -0.0026265126554744717 0 -0.00070078330143788221 -0.00093576236933118697 0 -0.00061508340684169813 -0.00080182518667541887 0 -0.00062533697477216012 -0.0009748728167979652 0 0.00036958860591644317 -0.0020264411892424207 0 0.00046524951601890023 -0.0019242342380299932 0 0.00051952038840505854 -0.0020887085309692056 0 -0.0003427518807502707 -0.0020580036630392811 0 -0.00027804331456014666 -0.0022046018587660089 0 -0.00038363973127116896 -0.0022952325112282055 0 0.00029493358651674684 -0.0009739036831770048 0 0.00021598034391155703 -0.00082970183958749021 0 0.00029163640074129953 -0.00076429846072835798 0 -0.00031844673993462611 -0.0010093521087196793 0 -0.00042413446405095934 -0.0011470410784674447 0 -0.00044438448768005859 -0.0009813653939888796 0 0.00040983468833479957 -0.0026613403602900685 0 0.00040749734406511813 -0.002884192550937179 0 0.00033863814164256057 -0.0027599889073771102 0 0.00048347702707313091 -0.0027530745677348928 0 0.00040749734406511813 -0.002884192550937179 0 0.00040983468833479957 -0.0026613403602900685 0 -0.00075196281688456401 -0.002152592417106938 0 -0.000882569302177078 -0.0021652434634542514 0 -0.00081014044373899714 -0.0020576024671852154 0 -0.00080690633396969047 -0.0022658841591697929 0 -0.000882569302177078 -0.0021652434634542514 0 -0.00075196281688456401 -0.002152592417106938 0 0.0006473833673996172 -0.00099121723304344714 0 0.00077225671088801428 -0.0010379503669596479 0 0.00072666548763772451 -0.0011111410865000523 0 0.00066851640229670915 -0.00090248431130226137 0 0.00077225671088801428 -0.0010379503669596482 0 0.0006473833673996172 -0.00099121723304344714 0 -0.00022648095372868916 -0.00044525730697309246 0 -0.00015745083683492523 -0.00027059856892726097 0 -0.00016044580417611944 -0.00036007228713714259 0 -0.00023917684369185419 -0.00037633172236742606 0 -0.00015745083683492523 -0.00027059856892726097 0 -0.00022648095372868916 -0.00044525730697309246 0 -1.9863014581593304e-05 -0.0018236219478578704 0 2.8610457754233721e-05 -0.0020062052241465967 0 -0.00010985021283439643 -0.0019606818438415784 0 0.00011018431748433591 -0.0012207192687554826 0 1.0733211841269411e-05 -0.0011627810175861971 0 0.00010101953512179638 -0.0010633387170937533 0 -0.00015543041054501427 -0.0029642440082074872 0 -3.0322920154363744e-05 -0.0029202398292350381 0 -3.2337549225726516e-05 -0.0030804629590149464 0 -0.00088408764565869348 -0.0014003729682785036 0 -0.00087834226866572113 -0.0015630807324345099 0 -0.0009630380469301613 -0.0015817027807173039 0 0.00091845379466708773 -0.0018207724437724359 0 0.00088449794319757325 -0.0016456103793449025 0 0.000969940393073193 -0.0016672615018716026 0 4.872254178428978e-05 -0.00020710535032236423 0 1.0887031663477065e-05 -0.00023708796831421495 0 6.907022826948702e-06 -0.00013134671622922462 0 -1.9863014581593304e-05 -0.0018236219478578704 0 8.6226021311618022e-05 -0.0018644555578555566 0 2.8610457754233721e-05 -0.0020062052241465967 0 0.00016063089682165 -0.001995798337431358 0 2.8610457754233721e-05 -0.0020062052241465967 0 8.6226021311618022e-05 -0.0018644555578555566 0 9.3885100892282105e-05 -0.00015374459126121453 0 0.00014823561091075249 -0.00026094750986098127 0 0.00010359677265798774 -0.00024064021078138283 0 0.00097333066716519831 -0.0021356928344488865 0 0.0008891221840835597 -0.0021437994405003381 0 0.00090045211019545556 -0.0020081282629421369 0 -0.00037845289164170279 -0.0030498807536753435 0 -0.0003916940651234702 -0.0028967429355915191 0 -0.00029410212703725438 -0.0029204893448340355 0 -0.00087123531491143031 -0.0011159806664835287 0 -0.00078427643629040721 -0.0010633909602453717 0 -0.00082871924505457787 -0.0012037728167699612 0 0.00077236892852408179 -0.0027054014498498384 0 0.00069804761914905205 -0.002590865614931302 0 0.00079820879336566322 -0.0025064892108480901 0 -0.00077268633490297381 -0.0027052812154227759 0 -0.00070317533188316798 -0.0025835806045320718 0 -0.00064483094473514709 -0.0027422116066329874 0 0.00044894542987714377 -0.00046118607225119183 0 0.0004617078900611487 -0.00056201306956282229 0 0.00033951305941023655 -0.00040101997946303961 0 -0.00044579251899444771 -0.0004573010180475054 0 -0.00044117483617309898 -0.00053871554010775599 0 -0.00057091463904710739 -0.00065980280604860842 0 0.00080988333303416585 -0.002057626285060172 0 0.00073098516990265344 -0.0021605989520016807 0 0.00071569536580630237 -0.0019548138295561604 0 -0.00033890203838418616 -0.0027600365207417813 0 -0.00041724030846117981 -0.0026265126554744717 0 -0.0002757487060376354 -0.0026032928757891154 0 0.00016049145650041575 -0.00036102887336684277 0 0.00023983874801737729 -0.00047295259612711551 0 0.00016065011678904648 -0.00048138537528091504 0 -0.0007269909145226674 -0.0011105247693433821 0 -0.00062533697477216012 -0.0009748728167979652 0 -0.00065531027093109211 -0.0011740192948320829 0 0.00027312278375260469 -0.0018975729569919561 0 0.00028521512195721929 -0.0017040977217453867 0 0.00037465621699250102 -0.0018537071564130774 0 0.00057447575751073563 -0.0029852131045046567 0 0.00066192329044193041 -0.0029097086966305432 0 0.00064977315918585425 -0.003117582052286981 0 -0.00094027483051368978 -0.0024132349198558696 0 -0.0008970455789046747 -0.0025402121123207751 0 -0.0010132855472650853 -0.002531544423927232 0 0.00074080261423048509 -0.002996737122821589 0 0.00064977315918585425 -0.003117582052286981 0 0.00066192329044193041 -0.0029097086966305432 0 -0.00094687541105418669 -0.0026652665822520685 0 -0.0010132855472650853 -0.002531544423927232 0 -0.0008970455789046747 -0.0025402121123207751 0 0.00057593384814101731 -0.0025871466901529732 0 0.00069804761914905205 -0.002590865614931302 0 0.00067114843693288006 -0.0027337520133214918 0 0.00077236892852408179 -0.0027054014498498384 0 0.00067114843693288006 -0.0027337520133214918 0 0.00069804761914905205 -0.002590865614931302 0 -0.00070500920180584508 -0.0023941871367135067 0 -0.00070317533188316798 -0.0025835806045320718 0 -0.00079286787558330025 -0.0025466509806589431 0 -0.00077268633490297381 -0.0027052812154227759 0 -0.00079286787558330025 -0.0025466509806589431 0 -0.00070317533188316798 -0.0025835806045320718 0 0.00053179274318692184 -0.00073745597880197711 0 0.0004617078900611487 -0.00056201306956282229 0 0.00057533894474398573 -0.00065828822337428883 0 0.00044894542987714377 -0.00046118607225119183 0 0.00057533894474398573 -0.00065828822337428883 0 0.0004617078900611487 -0.00056201306956282229 0 -0.00035854215887748202 -0.00052586685265523477 0 -0.00044117483617309898 -0.00053871554010775599 0 -0.00033281774776186931 -0.0003871969501059269 0 -0.00044579251899444771 -0.0004573010180475054 0 -0.00033281774776186931 -0.0003871969501059269 0 -0.00044117483617309898 -0.00053871554010775599 0 0.00091584274371610654 -0.0029518160084351258 0 0.00099123972115174605 -0.0030794184004099053 0 0.00091879742892454026 -0.0031466048950069291 0 0.00036557516399075336 -0.00027468964588276779 0 0.00026992084047975046 -0.00017587376951828655 0 0.00045652955578753986 -0.00034972545791152597 0 0.00036557516399075336 -0.00027468964588276779 0 0.00015657086423922576 -9.6264551599317029e-05 0 0.00026992084047975046 -0.00017587376951828655 0 -0.00091930641355486347 -0.0029460885125127986 0 -0.00099163159085416267 -0.0030793045664339234 0 -0.0010298624013081129 -0.00295761050903386 0 0.00091584274371610654 -0.0029518160084351258 0 0.0010296978988906624 -0.0029576073924112889 0 0.00099123972115174605 -0.0030794184004099053 0 -0.00036925831142017 -0.00027898245233746056 0 -0.00026927479519495167 -0.0001752862622203962 0 -0.00015676714263116847 -9.6781041215249225e-05 0 -0.00036925831142017 -0.00027898245233746056 0 -0.00045585019372460818 -0.0003499675584495298 0 -0.00026927479519495173 -0.00017528626222039617 0 -0.00091930641355486347 -0.0029460885125127986 0 -0.00091920215366287522 -0.0031465721329492543 0 -0.00099163159085416267 -0.0030793045664339234 0 0.00091845379466708773 -0.0018207724437724359 0 0.00099333705110883652 -0.0019648695360288105 0 0.00090045211019545556 -0.0020081282629421369 0 -0.00015543041054501427 -0.0029642440082074872 0 -0.00025231395211730665 -0.0030961069879361048 0 -0.00029410212703725438 -0.0029204893448340355 0 4.872254178428978e-05 -0.00020710535032236423 0 5.0836397300422371e-05 -0.00012400541690346756 0 0.00010359677265798774 -0.00024064021078138283 0 -0.00088408764565869348 -0.0014003729682785036 0 -0.00093107231931485919 -0.0012943563796728576 0 -0.00082871924505457787 -0.0012037728167699612 0 0.00036958860591644317 -0.0020264411892424207 0 0.00035412309379530054 -0.0022191792492430871 0 0.00026603643873577708 -0.0021061023952650094 0 -0.0003427518807502707 -0.0020580036630392811 0 -0.00047385601338721954 -0.0020433070786039032 0 -0.00040592007781697947 -0.0019041169634069466 0 0.00029493358651674684 -0.0009739036831770048 0 0.00040973806734351015 -0.0010133654796759715 0 0.00035629749156557529 -0.0011304985144408447 0 -0.00031844673993462611 -0.0010093521087196793 0 -0.00027886891962761303 -0.00082596089087470792 0 -0.00021980137400897919 -0.00091908447482766278 0 0.0010915766920257227 -0.0018038610636794859 0 0.0011009577504074533 -0.0019613672452520395 0 0.0010178985756899629 -0.0018244404703377005 0 -2.919476429635972e-10 -1.2275383678204271e-07 0 1.23437356176264e-08 -1.1710642033244773e-07 0 2.1808581052400854e-05 -8.5816846646678404e-05 0 -0.00011980578262106546 -0.0033140257311555809 0 -0.00023902333747273844 -0.0033136023068240823 0 -0.00014437271974668015 -0.0031571296550734641 0 -0.001061052768359667 -0.0014993784292250826 0 -0.0010376074510709096 -0.0013503796807351307 0 -0.00098405663869589573 -0.001445443896842701 0 0.00035591463536337425 -0.00027892112340854419 0 0.00045652955578753986 -0.00034972545791152597 0 0.00026992084047975046 -0.00017587376951828655 0 9.2954519082818423e-10 -9.9449230347024508e-08 0 -0.00015676714263116847 -9.6781041215249225e-05 0 -0.00026927479519495173 -0.00017528626222039617 0 -1.4823155704176067e-09 -9.9907656575588262e-08 0 0.00026992084047975046 -0.00017587376951828655 0 0.00015657086423922578 -9.6264551599317056e-05 0 0.0010971063018786031 -0.0030989187896183503 0 0.00099123972115174605 -0.0030794184004099053 0 0.0010296978988906624 -0.0029576073924112889 0 0.00099745860011205391 -0.0032723797702253481 0 0.00091879742892454026 -0.0031466048950069296 0 0.00099123972115174605 -0.0030794184004099053 0 -0.0010974928766262558 -0.0030989599783253032 0 -0.0010298624013081129 -0.00295761050903386 0 -0.00099163159085416267 -0.0030793045664339234 0 -0.00035552958635416909 -0.00027912270091551126 0 -0.00026927479519495173 -0.00017528626222039617 0 -0.00045585019372460818 -0.0003499675584495298 0 -0.00099785562851764566 -0.0032723419354671471 0 -0.00099163159085416267 -0.0030793045664339234 0 -0.00091920215366287522 -0.0031465721329492543 0 0.00011972557494762428 -0.0033143322804063519 0 0.00012764762944314633 -0.0031277401360839925 0 0.00022358490079412739 -0.0031659444335895583 0 -0.0010933096957930898 -0.0018036421272919149 0 -0.0010017746523160701 -0.0017996629828929678 0 -0.0010279736077977689 -0.0019316632782844945 0 0.0010626770479539725 -0.0014989817963647692 0 0.00097134189846219019 -0.0014633117461212686 0 0.00097198086964355378 -0.00134364793354898 0 -4.5134581745613946e-09 -1.1744240717328087e-07 0 -2.1408916412881763e-05 -0.00010625611191138517 0 -3.1904356410785215e-05 -8.1148371346246467e-05 0 0.00044894542987714377 -0.00046118607225119183 0 0.00033951305941023655 -0.00040101997946303961 0 0.0003214604763270785 -0.00031825982287867681 0 -0.00044579251899444771 -0.0004573010180475054 0 -0.00057091463904710739 -0.00065980280604860842 0 -0.00056114738094257069 -0.00055743356674618587 0 0.00057593384814101731 -0.0025871466901529732 0 0.0005763449563154588 -0.0028221316840991262 0 0.00048347702707313091 -0.0027530745677348928 0 -0.00070500920180584508 -0.0023941871367135067 0 -0.00084713166713294707 -0.0024073435668112825 0 -0.00080690633396969047 -0.0022658841591697929 0 0.00053179274318692184 -0.00073745597880197711 0 0.00064669108180293955 -0.00078995205520967745 0 0.00066851640229670915 -0.00090248431130226137 0 -0.00035854215887748202 -0.00052586685265523477 0 -0.00026999379634513805 -0.00035384444201816412 0 -0.00023917684369185419 -0.00037633172236742606 0 8.3296199296209185e-05 -0.002901596086452022 0 -3.0322920154363744e-05 -0.0029202398292350381 0 -5.7198211695567512e-06 -0.0027359314083368592 0 -0.00087915096645071523 -0.0017159007651450643 0 -0.00087834226866572113 -0.0015630807324345099 0 -0.00077782863644058756 -0.0015725336386234884 0 0.00086085821969118488 -0.0014881931144233853 0 0.00088449794319757325 -0.0016456103793449025 0 0.00077875819793435613 -0.0015883258440486255 0 -3.0873969522794845e-05 -0.00025046722711468073 0 1.0887031663477065e-05 -0.00023708796831421495 0 3.3595504638700917e-06 -0.00036939054715577846 0 -0.00071618236213894686 -0.00082090821126964508 0 -0.00078871750839513673 -0.00097859957203046328 0 -0.00085316262711767211 -0.00096521622064370553 0 -0.00056470839289847789 -0.00291670182955946 0 -0.00046153783073584745 -0.0029558123092391603 0 -0.00050400257033740591 -0.0031186075130944257 0 0.00021002530981559033 -0.00025181142992046929 0 0.00015518995961291489 -0.00022067240029597838 0 9.5174198915815535e-05 -0.00011105820824700595 0 0.00090198718485478527 -0.0023944387764172586 0 0.00092309060085874091 -0.0022476564704158029 0 0.001011931130759639 -0.0023173252031489077 0 0.00066807759270302652 -0.0023019985472115378 0 0.00063172874204687948 -0.0021736145970083728 0 0.00073098516990265344 -0.0021605989520016807 0 -0.00051655806976812072 -0.0025272430132306034 0 -0.0004325737126989803 -0.0024671896480539099 0 -0.00041724030846117981 -0.0026265126554744717 0 0.00033721957523498962 -0.00057133108501705482 0 0.00029327270531357346 -0.00061255970848548365 0 0.00023983874801737729 -0.00047295259612711551 0 -0.00052884648918589906 -0.00081613869645341685 0 -0.00052885998299390059 -0.00092974344148866552 0 -0.00062533697477216012 -0.0009748728167979652 0 0.00077236892852408179 -0.0027054014498498384 0 0.00079820879336566322 -0.0025064892108480901 0 0.00087309454867164429 -0.0026418667483363817 0 -0.00077268633490297381 -0.0027052812154227759 0 -0.00064483094473514709 -0.0027422116066329874 0 -0.00072948516874198652 -0.002870376353807881 0 0.00039617085359204882 -0.0017176969339400758 0 0.00034078299607773877 -0.001523955127091648 0 0.00046869402681476522 -0.0016282522484963383 0 0.00046577095418752159 -0.0014714343986079615 0 0.00046869402681476522 -0.0016282522484963383 0 0.00034078299607773877 -0.001523955127091648 0 0.00066807759270302652 -0.0023019985472115378 0 0.00057717797197861403 -0.0022728259618891127 0 0.00063172874204687948 -0.0021736145970083728 0 -0.00051655806976812072 -0.0025272430132306034 0 -0.00050219448524162756 -0.0023841830230800043 0 -0.0004325737126989803 -0.0024671896480539099 0 0.00033721957523498962 -0.00057133108501705482 0 0.0003658380496709503 -0.00069808712239433882 0 0.00029327270531357346 -0.00061255970848548365 0 -0.00052884648918589906 -0.00081613869645341685 0 -0.0004563431868668563 -0.00081870370383432508 0 -0.00052885998299390059 -0.00092974344148866552 0 0.00091584274371610654 -0.0029518160084351258 0 0.00091879742892454026 -0.0031466048950069291 0 0.00084242269422682913 -0.003110327388732364 0 -0.00091930641355486347 -0.0029460885125127986 0 -0.0010298624013081129 -0.00295761050903386 0 -0.0010096410974624204 -0.002830390228734379 0 0.00036557516399075336 -0.00027468964588276779 0 0.00045652955578753986 -0.00034972545791152597 0 0.00055804933160198331 -0.00046864678671443792 0 0.00091584274371610654 -0.0029518160084351258 0 0.00099779219301200802 -0.002813286742187364 0 0.0010296978988906624 -0.0029576073924112889 0 0.00036557516399075336 -0.00027468964588276779 0 0.00017831646790299443 -0.00013495414998105276 0 0.00015657086423922578 -9.6264551599317056e-05 0 -0.00036925831142017 -0.00027898245233746056 0 -0.00015676714263116847 -9.6781041215249225e-05 0 -0.00018997512916953658 -0.00014439435281329683 0 -0.00091930641355486347 -0.0029460885125127986 0 -0.00083266973283508067 -0.0030884989343973371 0 -0.00091920215366287522 -0.0031465721329492543 0 -0.00036925831142017 -0.00027898245233746056 0 -0.00055231217182799346 -0.00046128201358067714 0 -0.00045585019372460818 -0.0003499675584495298 0 0.00011018431748433591 -0.0012207192687554826 0 0.00010101953512179638 -0.0010633387170937533 0 0.00022046856985439555 -0.0011143384208660574 0 -2.7948733623913507e-06 -0.0010359299725800181 0 0.00010101953512179638 -0.0010633387170937533 0 1.0733211841269411e-05 -0.0011627810175861971 0 0.00039617085359204882 -0.0017176969339400758 0 0.00037465621699250102 -0.0018537071564130774 0 0.00028521512195721929 -0.0017040977217453867 0 -1.0272602027884159e-07 -0.0025186727437416408 0 -5.7198211695567512e-06 -0.0027359314083368592 0 -8.3574122438149568e-05 -0.0026191665133696034 0 -0.00064968435881524746 -0.0015543650367439688 0 -0.00077782863644058756 -0.0015725336386234884 0 -0.00070021997650295139 -0.0014486500730601065 0 0.00064938837956754437 -0.0015544078593925351 0 0.00077875819793435603 -0.0015883258440486255 0 0.00071691798778153514 -0.0016837797295894616 0 -1.4205782970563462e-07 -0.00054233009646307759 0 3.3595504638700917e-06 -0.00036939054715577846 0 4.7256097741751551e-05 -0.00046013941322116137 0 0.00048347702707313091 -0.0027530745677348928 0 0.0005763449563154588 -0.0028221316840991262 0 0.00048949637786349144 -0.0029575481320272871 0 -0.00080690633396969047 -0.0022658841591697929 0 -0.00084713166713294707 -0.0024073435668112825 0 -0.00092481824827844456 -0.0022880163010530652 0 0.00066851640229670915 -0.00090248431130226137 0 0.00064669108180293955 -0.00078995205520967745 0 0.0007725206945931334 -0.00093621108839132806 0 -0.00023917684369185419 -0.00037633172236742606 0 -0.00026999379634513805 -0.00035384444201816417 0 -0.00016623190118899564 -0.0002256073349879418 0 0.00058399441171866242 -0.0019110067688622113 0 0.00051952038840505843 -0.0020887085309692056 0 0.00046524951601890023 -0.0019242342380299932 0 -0.00025718535411379644 -0.0023901256560623653 0 -0.00038363973127116896 -0.0022952325112282055 0 -0.00027804331456014666 -0.0022046018587660089 0 0.00018086262495765052 -0.00065960119991185086 0 0.00029163640074129953 -0.00076429846072835798 0 0.00021598034391155703 -0.00082970183958749021 0 -0.00053377418155840296 -0.0011722523768506301 0 -0.00044438448768005859 -0.0009813653939888796 0 -0.00042413446405095934 -0.0011470410784674447 0 0.00090198718485478527 -0.0023944387764172586 0 0.00079820879336566322 -0.0025064892108480901 0 0.00078030583888264869 -0.002355696477225026 0 0.00021002530981559033 -0.00025181142992046929 0 0.00033951305941023655 -0.00040101997946303961 0 0.00029243263556944475 -0.00041753538214607332 0 -0.00056470839289847789 -0.00291670182955946 0 -0.00064483094473514709 -0.0027422116066329869 0 -0.00054589918342293718 -0.0027102345763874505 0 -0.00071618236213894686 -0.00082090821126964508 0 -0.00057091463904710739 -0.00065980280604860842 0 -0.00061508340684169813 -0.00080182518667541887 0 0.00027312278375260469 -0.0018975729569919561 0 0.00018152720794690336 -0.0018056797773772215 0 0.00028521512195721929 -0.0017040977217453867 0 -0.00015514391378697513 -0.0016855394982082069 0 -0.00023972696805435887 -0.0016279617188225057 0 -0.0001122006802708324 -0.0015508474798003569 0 -0.00021153175115224161 -0.0014683129711567226 0 -0.0001122006802708324 -0.0015508474798003569 0 -0.00023972696805435887 -0.0016279617188225057 0 -0.00013884496759030573 -0.0021038901267180507 0 -0.00023097189157445113 -0.0020696322757192188 0 -0.00010985021283439643 -0.0019606818438415784 0 -0.00022796576057765297 -0.001922159253055471 0 -0.00010985021283439643 -0.0019606818438415784 0 -0.00023097189157445113 -0.0020696322757192188 0 0.00071939107262873495 -0.00080829024709316518 0 0.00057533894474398573 -0.00065828822337428883 0 0.0006539538201255252 -0.0006744763197287937 0 -0.00020388686170528259 -0.00023796813976135656 0 -0.00033281774776186931 -0.0003871969501059269 0 -0.00024226323672237176 -0.00024916860775470423 0 -0.00021153175115224161 -0.0014683129711567226 0 -0.00033567251826151397 -0.0015504271809318264 0 -0.00028382587592355718 -0.001356826721654273 0 0.00058489971835391373 -0.0033053148718584897 0 0.00051648266829846178 -0.0031360191054124456 0 0.00064977315918585425 -0.003117582052286981 0 -0.0011100840663983945 -0.0024436479712667222 0 -0.001021702494215633 -0.002336935567349607 0 -0.0010132855472650853 -0.002531544423927232 0 0.0008917727670861524 -0.00092223832734564172 0 0.00085209175361699782 -0.00095294207135419049 0 0.00077212036055282582 -0.00078551173971774617 0 -2.1057833048611378e-08 -1.1647151402186738e-07 0 -9.1582041515803631e-05 -0.00010480085295441405 0 -0.00012536008740709082 -0.00011935345919088862 0 0.00091845379466708773 -0.0018207724437724359 0 0.0010178985756899627 -0.0018244404703377005 0 0.00099333705110883652 -0.0019648695360288105 0 4.872254178428978e-05 -0.00020710535032236423 0 2.1808581052400854e-05 -8.581684664667839e-05 0 5.0836397300422371e-05 -0.00012400541690346756 0 -0.00015543041054501427 -0.0029642440082074872 0 -0.00014437271974668015 -0.0031571296550734641 0 -0.00025231395211730659 -0.0030961069879361048 0 -0.00088408764565869348 -0.0014003729682785036 0 -0.00098405663869589573 -0.001445443896842701 0 -0.00093107231931485919 -0.0012943563796728576 0 -0.00022796576057765297 -0.001922159253055471 0 -0.00023090274965827402 -0.0017788437428630966 0 -0.00012087034063166041 -0.0018039994057221641 0 -0.00014035987971905336 -0.0010018549034249145 0 -0.000133243333265009 -0.0008126822994194698 0 -5.6008135269633158e-05 -0.00093355013823558553 0 -3.1355780351067476e-05 -0.00078838588664664224 0 -5.6008135269633158e-05 -0.00093355013823558553 0 -0.000133243333265009 -0.0008126822994194698 0 0.00035632700413840856 -0.0033117509663751501 0 0.00023877139835365294 -0.0033135210673078518 0 0.0003291994935065302 -0.003154237493637017 0 -0.0011061668633326192 -0.0021207035329977074 0 -0.0011010290409760486 -0.0019611338443482717 0 -0.0010269522091231897 -0.002074523066952506 0 0.0010018070325048124 -0.0012042533092724258 0 0.0010367156217602734 -0.001349989821810592 0 0.00093915798820880443 -0.001204987321245165 0 -1.9225509909520479e-08 -1.185395244885993e-07 0 -8.567610598208963e-09 -1.1987988876403463e-07 0 -4.9807159825858859e-05 -8.7006618094668533e-05 0 0.00057593384814101731 -0.0025871466901529732 0 0.00059830347700918075 -0.0023973945610727041 0 0.00068245897105818963 -0.0024516388948661637 0 -0.00070500920180584508 -0.0023941871367135067 0 -0.00058260112448804051 -0.0024207259172969492 0 -0.0006146584643227155 -0.0025538433916039711 0 0.00053179274318692184 -0.00073745597880197711 0 0.00042039643622336653 -0.00068012567061149468 0 0.00039898175992194944 -0.00055945170177134566 0 -0.00035854215887748202 -0.00052586685265523477 0 -0.00044035350465026986 -0.00070670177571688104 0 -0.00049379451532280188 -0.0006721029039964949 0 0.00035591463536337425 -0.00027892112340854419 0 0.00026992084047975046 -0.00017587376951828655 0 0.00016457607660653442 -0.00011315955549689544 0 9.2954519082818423e-10 -9.9449230347024508e-08 0 -0.00026927479519495173 -0.00017528626222039617 0 -0.00016416081460109483 -0.00011299334656722058 0 -1.4823155704176067e-09 -9.9907656575588262e-08 0 0.00016457607660653442 -0.00011315955549689544 0 0.00026992084047975046 -0.00017587376951828655 0 -0.00035552958635416909 -0.00027912270091551126 0 -0.00016416081460109483 -0.00011299334656722058 0 -0.00026927479519495173 -0.00017528626222039617 0 0.0010971063018786031 -0.0030989187896183503 0 0.0010359760603802363 -0.0031618452394926869 0 0.00099123972115174605 -0.0030794184004099053 0 0.00099745860011205391 -0.0032723797702253481 0 0.00099123972115174605 -0.0030794184004099053 0 0.0010359760603802363 -0.0031618452394926869 0 -0.00099785562851764566 -0.0032723419354671471 0 -0.0010396113971989703 -0.0031678318974623053 0 -0.00099163159085416267 -0.0030793045664339234 0 -0.0010974928766262558 -0.0030989599783253032 0 -0.00099163159085416267 -0.0030793045664339234 0 -0.0010396113971989703 -0.0031678318974623053 0 0.00091584274371610654 -0.0029518160084351258 0 0.00089751499551792024 -0.0027872666267395505 0 0.00099779219301200802 -0.0028132867421873644 0 -0.00091930641355486347 -0.0029460885125127986 0 -0.00081988100081077414 -0.0029133284456599952 0 -0.00083266973283508067 -0.0030884989343973371 0 0.00095673593564262447 -0.0026691683937645674 0 0.00099779219301200802 -0.0028132867421873644 0 0.00089751499551792024 -0.0027872666267395505 0 0.00062752230662682326 -0.00058358525623580662 0 0.00049210980206605736 -0.00043369919606677383 0 0.00055804933160198331 -0.00046864678671443792 0 -0.00074318945612704835 -0.0030147952813132589 0 -0.00083266973283508067 -0.0030884989343973371 0 -0.00081988100081077414 -0.0029133284456599952 0 -0.000221382950670696 -0.00019304964013916896 0 -0.00034215256974296372 -0.00029480239143933417 0 -0.00018997512916953658 -0.00014439435281329683 0 0.00036557516399075336 -0.00027468964588276779 0 0.00055804933160198331 -0.00046864678671443792 0 0.00049210980206605736 -0.00043369919606677383 0 -0.00036925831142017 -0.00027898245233746056 0 -0.00018997512916953658 -0.00014439435281329683 0 -0.00034215256974296372 -0.00029480239143933417 0 0.00017717097253866666 -0.0016558330254566531 0 0.00028521512195721929 -0.0017040977217453867 0 0.00018152720794690336 -0.0018056797773772215 0 0.00022046856985439555 -0.0011143384208660574 0 0.00010101953512179638 -0.0010633387170937533 0 0.00019740106820661114 -0.00095842180913139122 0 -0.0002757487060376354 -0.0026032928757891154 0 -0.00041724030846117981 -0.0026265126554744717 0 -0.00034535344704648079 -0.002512644818080759 0 0.00071569536580630237 -0.0019548138295561604 0 0.00073098516990265344 -0.0021605989520016803 0 0.00066102559655315581 -0.0020480831029422359 0 -0.00065531027093109211 -0.0011740192948320829 0 -0.00062533697477216012 -0.0009748728167979652 0 -0.00058277664271425792 -0.0010613578538921846 0 0.00016065011678904648 -0.00048138537528091504 0 0.00023983874801737729 -0.00047295259612711551 0 0.00022101252091230237 -0.00056187296283112032 0 -0.00023661671329789328 -0.0012148770747308429 0 -0.00028382587592355718 -0.001356826721654273 0 -0.0003205715939082144 -0.0011668270301320586 0 -0.00037795594194131821 -0.0013070158513222153 0 -0.0003205715939082144 -0.0011668270301320586 0 -0.00028382587592355718 -0.001356826721654273 0 -0.00022796576057765297 -0.001922159253055471 0 -0.00023097189157445113 -0.0020696322757192184 0 -0.0003427518807502707 -0.0020580036630392811 0 8.3296199296209185e-05 -0.002901596086452022 0 -5.7198211695567512e-06 -0.0027359314083368592 0 9.8602894687834156e-05 -0.0027482619151283157 0 -0.00087915096645071523 -0.0017159007651450643 0 -0.00077782863644058756 -0.0015725336386234884 0 -0.00079326023621993137 -0.0017192386345414527 0 0.00086085821969118488 -0.0014881931144233853 0 0.00077875819793435613 -0.0015883258440486257 0 0.00077226363596052039 -0.0014450908710169383 0 -3.0873969522794845e-05 -0.00025046722711468073 0 3.3595504638701027e-06 -0.00036939054715577852 0 -4.5908925183085323e-05 -0.00036295409781792663 0 -0.00031316737393077766 -0.0018890456584475369 0 -0.00022796576057765297 -0.001922159253055471 0 -0.0003427518807502707 -0.0020580036630392811 0 0.00036958860591644317 -0.0020264411892424207 0 0.00051952038840505854 -0.0020887085309692056 0 0.0004297410306138593 -0.0021604189336925333 0 -0.0003427518807502707 -0.0020580036630392811 0 -0.00038363973127116896 -0.0022952325112282055 0 -0.00043105744912673698 -0.0021537561908288039 0 0.00029493358651674684 -0.0009739036831770048 0 0.00029163640074129953 -0.00076429846072835798 0 0.00035553425192521036 -0.00089926889721608967 0 -0.00031844673993462611 -0.0010093521087196793 0 -0.00044438448768005859 -0.0009813653939888796 0 -0.00035185356658212519 -0.00089302092222043414 0 0.00057593384814101731 -0.0025871466901529732 0 0.00048347702707313091 -0.0027530745677348928 0 0.00048057963204707258 -0.0025878446420401864 0 -0.00070500920180584508 -0.0023941871367135067 0 -0.00080690633396969047 -0.0022658841591697929 0 -0.00070627635370461381 -0.0022520014501110769 0 0.00053179274318692184 -0.00073745597880197711 0 0.00066851640229670915 -0.00090248431130226137 0 0.00057820812876701049 -0.00087658321691348219 0 -0.00035854215887748202 -0.00052586685265523477 0 -0.00023917684369185419 -0.00037633172236742606 0 -0.00029377898430205275 -0.00051535020426302818 0 -0.00014035987971905336 -0.0010018549034249145 0 -0.00015614625059133676 -0.0011641940588461299 0 -0.00023212425573428472 -0.0010797496604248713 0 0.00057593384814101731 -0.0025871466901529732 0 0.00067114843693288006 -0.0027337520133214918 0 0.0005763449563154588 -0.0028221316840991262 0 -0.00070500920180584508 -0.0023941871367135067 0 -0.00079286787558330025 -0.0025466509806589431 0 -0.00084713166713294707 -0.0024073435668112825 0 0.00053179274318692184 -0.00073745597880197711 0 0.00057533894474398573 -0.00065828822337428883 0 0.00064669108180293955 -0.00078995205520967745 0 -0.00035854215887748202 -0.00052586685265523477 0 -0.00033281774776186931 -0.0003871969501059269 0 -0.00026999379634513805 -0.00035384444201816417 0 0.00016063089682165 -0.001995798337431358 0 0.00018152720794690336 -0.0018056797773772215 0 0.00027312278375260469 -0.0018975729569919561 0 0.00080988333303416585 -0.002057626285060172 0 0.00083302388023482297 -0.002244059752419226 0 0.00073098516990265344 -0.0021605989520016807 0 0.00016049145650041575 -0.00036102887336684277 0 0.00021374489800997238 -0.00033838329745673268 0 0.00023983874801737729 -0.00047295259612711551 0 -0.00033890203838418616 -0.0027600365207417813 0 -0.00046665103767258928 -0.0027975452181333246 0 -0.00041724030846117981 -0.0026265126554744717 0 -0.0007269909145226674 -0.0011105247693433821 0 -0.00070078330143788221 -0.00093576236933118697 0 -0.00062533697477216012 -0.0009748728167979652 0 -0.00070500920180584508 -0.0023941871367135067 0 -0.0006146584643227155 -0.0025538433916039711 0 -0.00070317533188316798 -0.0025835806045320718 0 0.00057593384814101731 -0.0025871466901529732 0 0.00068245897105818963 -0.0024516388948661637 0 0.00069804761914905205 -0.002590865614931302 0 -0.00035854215887748202 -0.00052586685265523477 0 -0.00049379451532280188 -0.00067210290399649501 0 -0.00044117483617309898 -0.00053871554010775599 0 0.00053179274318692184 -0.00073745597880197711 0 0.00039898175992194944 -0.00055945170177134566 0 0.0004617078900611487 -0.00056201306956282229 0 2.8610457754233721e-05 -0.0020062052241465967 0 -5.3687625436856517e-05 -0.0020958564606110125 0 -0.00010985021283439643 -0.0019606818438415784 0 0.00011018431748433591 -0.0012207192687554826 0 0.00022046856985439555 -0.0011143384208660574 0 0.00021215010319945113 -0.0012857031472991666 0 0.00031688496896544697 -0.001270659361920302 0 0.00021215010319945113 -0.0012857031472991666 0 0.00022046856985439555 -0.0011143384208660574 0 0.00049032656150950786 -0.0022536970204698951 0 0.00051952038840505854 -0.0020887085309692056 0 0.00057717797197861403 -0.0022728259618891127 0 -0.00049309481839415173 -0.0022499398434840515 0 -0.00038363973127116896 -0.0022952325112282055 0 -0.00050219448524162756 -0.0023841830230800043 0 0.00063172874204687948 -0.0021736145970083728 0 0.00057717797197861403 -0.0022728259618891127 0 0.00051952038840505854 -0.0020887085309692056 0 -0.0004325737126989803 -0.0024671896480539099 0 -0.00050219448524162756 -0.0023841830230800043 0 -0.00038363973127116896 -0.0022952325112282055 0 0.00038955581503627369 -0.00082067658870319882 0 0.00029163640074129953 -0.00076429846072835798 0 0.0003658380496709503 -0.00069808712239433882 0 -0.00038595285928637101 -0.00081699309458257334 0 -0.00044438448768005859 -0.0009813653939888796 0 -0.0004563431868668563 -0.00081870370383432508 0 0.00029327270531357346 -0.00061255970848548365 0 0.0003658380496709503 -0.00069808712239433882 0 0.00029163640074129953 -0.00076429846072835798 0 -0.00052885998299390059 -0.00092974344148866552 0 -0.0004563431868668563 -0.00081870370383432508 0 -0.00044438448768005859 -0.0009813653939888796 0 0.00057447575751073563 -0.0029852131045046567 0 0.00048949637786349144 -0.0029575481320272871 0 0.0005763449563154588 -0.0028221316840991262 0 -0.00094027483051368978 -0.0024132349198558696 0 -0.00092481824827844456 -0.0022880163010530652 0 -0.00084713166713294707 -0.0024073435668112825 0 0.00071939107262873495 -0.00080829024709316518 0 0.0007725206945931334 -0.00093621108839132806 0 0.00064669108180293955 -0.00078995205520967745 0 -0.00020388686170528259 -0.00023796813976135656 0 -0.00016623190118899564 -0.0002256073349879418 0 -0.00026999379634513805 -0.00035384444201816417 0 0.00024050104245922627 -0.0023883166316170032 0 0.00034657955744526098 -0.0023893085755203997 0 0.00029028642307591941 -0.0025759657001051452 0 0.00040864210972210583 -0.0025156611621300175 0 0.00029028642307591941 -0.0025759657001051452 0 0.00034657955744526098 -0.0023893085755203997 0 -0.00058239163620122834 -0.0018873047223576123 0 -0.00058375333109100195 -0.0020419152367542803 0 -0.00069988986547725029 -0.0019736019910737467 0 -0.00066271008398812099 -0.0021414907367060861 0 -0.00069988986547725029 -0.0019736019910737467 0 -0.00058375333109100195 -0.0020419152367542803 0 0.00053585263586684948 -0.0011956619726356226 0 0.00051112393213742881 -0.0010428333771077122 0 0.00063565084535540967 -0.0011488918795588738 0 0.00056496961502009433 -0.00097043357115206665 0 0.00063565084535540967 -0.0011488918795588738 0 0.00051112393213742881 -0.0010428333771077122 0 -0.00017015916211733317 -0.00066180542413445825 0 -0.00024595789919058662 -0.00067056406239519428 0 -0.00017466446299591813 -0.00050394547274811496 0 -0.00026512531171106072 -0.00056732199208158287 0 -0.00017466446299591813 -0.00050394547274811496 0 -0.00024595789919058662 -0.00067056406239519428 0 0.00097333066716519831 -0.0021356928344488865 0 0.00099333705110883652 -0.0019648695360288105 0 0.0010460364603523619 -0.0020720415024188003 0 9.3885100892282105e-05 -0.00015374459126121453 0 5.0836397300422371e-05 -0.00012400541690346756 0 3.7428434249541092e-05 -6.4768176999405747e-05 0 -0.00037845289164170279 -0.0030498807536753435 0 -0.00025231395211730659 -0.0030961069879361048 0 -0.0003262184847527994 -0.0031928823795411838 0 -0.00087123531491143031 -0.0011159806664835287 0 -0.00093107231931485919 -0.0012943563796728576 0 -0.00095812708913221118 -0.001217262268199591 0 0.00036958860591644317 -0.0020264411892424207 0 0.0004297410306138593 -0.0021604189336925333 0 0.00035412309379530054 -0.0022191792492430871 0 -0.0003427518807502707 -0.0020580036630392811 0 -0.00043105744912673698 -0.0021537561908288039 0 -0.00047385601338721954 -0.0020433070786039032 0 0.00029493358651674684 -0.0009739036831770048 0 0.00035553425192521036 -0.00089926889721608967 0 0.00040973806734351015 -0.0010133654796759715 0 -0.00031844673993462611 -0.0010093521087196793 0 -0.00035185356658212519 -0.00089302092222043414 0 -0.00027886891962761303 -0.00082596089087470792 0 0.00057593384814101731 -0.0025871466901529732 0 0.00051165817786564833 -0.0024217709109919669 0 0.00059830347700918075 -0.0023973945610727041 0 -0.00070500920180584508 -0.0023941871367135067 0 -0.00060187077979653031 -0.0022890316396322889 0 -0.00058260112448804051 -0.0024207259172969492 0 0.00053179274318692184 -0.00073745597880197711 0 0.00047314373138690799 -0.00080837391022802959 0 0.00042039643622336653 -0.00068012567061149479 0 -0.00035854215887748202 -0.00052586685265523477 0 -0.00036314318933099312 -0.00066408047530477118 0 -0.00044035350465026986 -0.00070670177571688104 0 -0.00015514391378697513 -0.0016855394982082069 0 -0.00012087034063166042 -0.0018039994057221641 0 -0.00023090274965827402 -0.0017788437428630966 0 -8.567610598208963e-09 -1.1987988876403463e-07 0 -4.5134581745613946e-09 -1.1744240717328087e-07 0 -3.1904356410785215e-05 -8.1148371346246467e-05 0 0.0010367156217602734 -0.001349989821810592 0 0.0010626770479539725 -0.0014989817963647692 0 0.00097198086964355378 -0.00134364793354898 0 -0.0011010290409760486 -0.0019611338443482717 0 -0.0010933096957930898 -0.0018036421272919149 0 -0.0010279736077977689 -0.0019316632782844945 0 0.00023877139835365294 -0.0033135210673078518 0 0.00011972557494762428 -0.0033143322804063519 0 0.00022358490079412739 -0.0031659444335895583 0 0.00035591463536337425 -0.00027892112340854419 0 0.00054887558042329644 -0.00046747783334576782 0 0.00045652955578753986 -0.00034972545791152597 0 9.2954519082818423e-10 -9.9449230347024508e-08 0 -6.312726496724631e-08 -1.4540514723931301e-07 0 -0.00015676714263116847 -9.6781041215249225e-05 0 0.00099745860011205391 -0.0032723797702253481 0 0.00090004870167994632 -0.0032827452699809171 0 0.00091879742892454026 -0.0031466048950069291 0 -0.0010974928766262558 -0.0030989599783253032 0 -0.0011020705369446295 -0.0029352798919548254 0 -0.0010298624013081129 -0.00295761050903386 0 0.0011018779675738759 -0.002935284079855798 0 0.0010971063018786031 -0.0030989187896183503 0 0.0010296978988906624 -0.0029576073924112889 0 6.3143313224013317e-08 -1.4395923297899257e-07 0 -1.4823155704176067e-09 -9.9907656575588262e-08 0 0.00015657086423922578 -9.6264551599317056e-05 0 -0.00090038947245508507 -0.0032827465138846814 0 -0.00099785562851764566 -0.0032723419354671471 0 -0.00091920215366287522 -0.0031465721329492543 0 -0.00054826133240001309 -0.00046782837428467036 0 -0.00035552958635416909 -0.00027912270091551126 0 -0.00045585019372460818 -0.0003499675584495298 0 0.00090198718485478527 -0.0023944387764172586 0 0.00078030583888264869 -0.002355696477225026 0 0.00083302388023482297 -0.002244059752419226 0 0.00021002530981559033 -0.00025181142992046929 0 0.00029243263556944475 -0.00041753538214607332 0 0.00021374489800997238 -0.00033838329745673268 0 -0.00056470839289847789 -0.00291670182955946 0 -0.00054589918342293718 -0.0027102345763874505 0 -0.00046665103767258928 -0.0027975452181333246 0 -0.00071618236213894686 -0.00082090821126964508 0 -0.00061508340684169813 -0.00080182518667541887 0 -0.00070078330143788221 -0.00093576236933118697 0 3.6415588558125802e-05 -0.0022145997803567621 0 0.00010954493051026805 -0.0023983256813467249 0 -2.2965900663450604e-05 -0.0023627020903050269 0 -0.00046472940610549351 -0.0015777187734819361 0 -0.00058418320334468869 -0.0016985475515187212 0 -0.0005521264516201973 -0.0015053854394228691 0 0.00046577095418752159 -0.0014714343986079615 0 0.00056405862847680812 -0.0013845245226574549 0 0.00055682311281725588 -0.001562715230139755 0 -3.1355780351067476e-05 -0.00078838588664664224 0 -7.5882266899035821e-05 -0.00064469102589387501 0 1.2442016464293571e-05 -0.00067182872675385812 0 0.00039617085359204882 -0.0017176969339400758 0 0.00028521512195721929 -0.0017040977217453867 0 0.00034078299607773877 -0.001523955127091648 0 0.00011843543860056089 -0.0009123894861517393 0 0.00019740106820661114 -0.00095842180913139122 0 0.00010101953512179638 -0.0010633387170937533 0 -0.00021153175115224161 -0.0014683129711567226 0 -0.00017562265901275128 -0.0013115031546954198 0 -8.9827777771257669e-05 -0.0014002168638311077 0 0.00033863814164256057 -0.0027599889073771102 0 0.00029028642307591946 -0.0025759657001051452 0 0.00040983468833479957 -0.0026613403602900685 0 -0.00081014044373899714 -0.0020576024671852154 0 -0.00069988986547725029 -0.0019736019910737467 0 -0.00075196281688456401 -0.002152592417106938 0 0.00072666548763772451 -0.0011111410865000523 0 0.00063565084535540967 -0.0011488918795588738 0 0.0006473833673996172 -0.00099121723304344714 0 -0.00016044580417611944 -0.00036007228713714259 0 -0.0001746644629959181 -0.00050394547274811496 0 -0.00022648095372868916 -0.00044525730697309246 0 0.00023877139835365294 -0.0033135210673078518 0 0.00022358490079412739 -0.0031659444335895583 0 0.0003291994935065302 -0.003154237493637017 0 -0.0011010290409760486 -0.0019611338443482717 0 -0.0010279736077977689 -0.0019316632782844945 0 -0.0010269522091231897 -0.002074523066952506 0 0.0010367156217602734 -0.001349989821810592 0 0.00097198086964355378 -0.00134364793354898 0 0.00093915798820880443 -0.001204987321245165 0 -8.567610598208963e-09 -1.1987988876403463e-07 0 -3.1904356410785215e-05 -8.1148371346246467e-05 0 -4.9807159825858859e-05 -8.7006618094668533e-05 0 0.00036958860591644317 -0.0020264411892424207 0 0.00027312278375260469 -0.0018975729569919561 0 0.00037465621699250102 -0.0018537071564130774 0 0.00029493358651674684 -0.0009739036831770048 0 0.00022046856985439555 -0.0011143384208660574 0 0.00019740106820661114 -0.00095842180913139122 0 0.00016063089682165 -0.001995798337431358 0 0.00026603643873577708 -0.0021061023952650094 0 0.00017301326004816547 -0.0022150995030081823 0 -0.00033763645266240728 -0.0017515699523506308 0 -0.00040592007781697947 -0.0019041169634069466 0 -0.00046882612205134319 -0.0017712469647283801 0 0.00031688496896544697 -0.001270659361920302 0 0.00035629749156557529 -0.0011304985144408447 0 0.00044152439551300678 -0.0012783176828370536 0 -0.00014035987971905336 -0.0010018549034249145 0 -0.00021980137400897919 -0.00091908447482766278 0 -0.000133243333265009 -0.0008126822994194698 0 1.23437356176264e-08 -1.1710642033244773e-07 0 3.7428434249541092e-05 -6.4768176999405747e-05 0 5.0836397300422371e-05 -0.00012400541690346756 0 0.0011009577504074533 -0.0019613672452520395 0 0.0010460364603523619 -0.0020720415024188003 0 0.00099333705110883652 -0.0019648695360288105 0 -0.0010376074510709096 -0.0013503796807351307 0 -0.00095812708913221118 -0.001217262268199591 0 -0.00093107231931485919 -0.0012943563796728576 0 -0.00023902333747273844 -0.0033136023068240823 0 -0.0003262184847527994 -0.0031928823795411838 0 -0.00025231395211730659 -0.0030961069879361048 0 -1.0272602027884159e-07 -0.0025186727437416408 0 -2.2965900663450604e-05 -0.0023627020903050269 0 0.00010954493051026805 -0.0023983256813467249 0 -0.00064968435881524746 -0.0015543650367439688 0 -0.0005521264516201973 -0.0015053854394228691 0 -0.00058418320334468869 -0.0016985475515187212 0 0.00064938837956754437 -0.0015544078593925351 0 0.00055682311281725588 -0.001562715230139755 0 0.00056405862847680812 -0.0013845245226574549 0 -1.4205782970563462e-07 -0.00054233009646307759 0 1.2442016464293571e-05 -0.00067182872675385812 0 -7.5882266899035821e-05 -0.00064469102589387501 0 -0.00025718535411379644 -0.0023901256560623653 0 -0.00016420634451427981 -0.0025198426932463115 0 -0.0002757487060376354 -0.0026032928757891154 0 -0.00053377418155840296 -0.0011722523768506301 0 -0.00062875605482679443 -0.0013215088660956181 0 -0.00065531027093109211 -0.0011740192948320829 0 0.00058399441171866242 -0.0019110067688622113 0 0.00066166368495914761 -0.0017879709713858212 0 0.00071569536580630237 -0.0019548138295561604 0 0.00018086262495765052 -0.00065960119991185086 0 0.00010256065147050033 -0.00054246933394499228 0 0.00016065011678904648 -0.00048138537528091504 0 0.00066807759270302652 -0.0023019985472115378 0 0.00059830347700918075 -0.0023973945610727041 0 0.00057717797197861403 -0.0022728259618891127 0 -0.00051655806976812072 -0.0025272430132306034 0 -0.00058260112448804051 -0.0024207259172969492 0 -0.00050219448524162756 -0.0023841830230800043 0 0.00033721957523498962 -0.00057133108501705482 0 0.00042039643622336653 -0.00068012567061149479 0 0.0003658380496709503 -0.00069808712239433882 0 -0.00052884648918589906 -0.00081613869645341685 0 -0.00044035350465026986 -0.00070670177571688093 0 -0.0004563431868668563 -0.00081870370383432508 0 -1.9863014581593304e-05 -0.0018236219478578704 0 7.4273044033912623e-05 -0.0016880965521232441 0 8.6226021311618022e-05 -0.0018644555578555566 0 -0.00021153175115224161 -0.0014683129711567226 0 -8.9827777771257655e-05 -0.0014002168638311077 0 -0.0001122006802708324 -0.0015508474798003569 0 0.00040864210972210583 -0.0025156611621300175 0 0.00040983468833479957 -0.0026613403602900685 0 0.00029028642307591941 -0.0025759657001051452 0 -0.00066271008398812099 -0.0021414907367060861 0 -0.00075196281688456401 -0.002152592417106938 0 -0.00069988986547725029 -0.0019736019910737467 0 0.00056496961502009433 -0.00097043357115206665 0 0.0006473833673996172 -0.00099121723304344714 0 0.00063565084535540967 -0.0011488918795588738 0 -0.00026512531171106072 -0.00056732199208158287 0 -0.00022648095372868916 -0.00044525730697309246 0 -0.00017466446299591813 -0.00050394547274811496 0 0.00044894542987714377 -0.00046118607225119183 0 0.00056011371287112042 -0.00055715960934257889 0 0.00057533894474398573 -0.00065828822337428883 0 -0.00044579251899444771 -0.0004573010180475054 0 -0.00032258160926667786 -0.0003203219186443214 0 -0.00033281774776186931 -0.0003871969501059269 0 0.00020990963424362283 -0.0014342724618540169 0 0.00029177862067687835 -0.0013810349221289569 0 0.00034078299607773877 -0.001523955127091648 0 0.0002286229631628213 -0.0015690442519296429 0 0.00020990963424362283 -0.0014342724618540169 0 0.00034078299607773877 -0.001523955127091648 0 8.3296199296209185e-05 -0.002901596086452022 0 9.8602894687834156e-05 -0.0027482619151283157 0 0.00020075750856962177 -0.0028459858914170332 0 0.00016505256001005464 -0.0026565331805298996 0 0.00020075750856962177 -0.0028459858914170332 0 9.8602894687834156e-05 -0.0027482619151283157 0 -0.00087915096645071523 -0.0017159007651450643 0 -0.00079326023621993137 -0.0017192386345414527 0 -0.00085563189796165873 -0.0018718582397586063 0 -0.00074393285698566266 -0.0018026037386180203 0 -0.00085563189796165873 -0.0018718582397586063 0 -0.00079326023621993137 -0.0017192386345414527 0 0.00086085821969118488 -0.0014881931144233853 0 0.00077226363596052039 -0.0014450908710169383 0 0.00081023685494683131 -0.0013186082366206892 0 0.00070880395131658338 -0.0013387853981614484 0 0.00081023685494683131 -0.0013186082366206892 0 0.00077226363596052039 -0.0014450908710169383 0 -3.0873969522794845e-05 -0.00025046722711468073 0 -4.5908925183085323e-05 -0.00036295409781792663 0 -8.2118959170567667e-05 -0.00029114242594588749 0 -8.8613954028395699e-05 -0.00043370937961653445 0 -8.2118959170567681e-05 -0.00029114242594588749 0 -4.5908925183085323e-05 -0.00036295409781792663 0 0.00048347702707313091 -0.0027530745677348928 0 0.00048949637786349144 -0.0029575481320272871 0 0.00040749734406511813 -0.002884192550937179 0 -0.00080690633396969047 -0.0022658841591697929 0 -0.00092481824827844456 -0.0022880163010530652 0 -0.000882569302177078 -0.0021652434634542514 0 0.00066851640229670915 -0.00090248431130226137 0 0.0007725206945931334 -0.00093621108839132806 0 0.00077225671088801428 -0.0010379503669596482 0 -0.00023917684369185419 -0.00037633172236742606 0 -0.00016623190118899561 -0.0002256073349879418 0 -0.00015745083683492523 -0.00027059856892726097 0 0.00079820879336566322 -0.0025064892108480901 0 0.00068245897105818963 -0.0024516388948661637 0 0.00078030583888264869 -0.002355696477225026 0 -0.00064483094473514709 -0.0027422116066329874 0 -0.0006146584643227155 -0.0025538433916039711 0 -0.00054589918342293718 -0.0027102345763874505 0 0.00033951305941023655 -0.00040101997946303961 0 0.00039898175992194944 -0.00055945170177134566 0 0.00029243263556944475 -0.00041753538214607332 0 -0.00057091463904710739 -0.00065980280604860842 0 -0.00049379451532280188 -0.0006721029039964949 0 -0.00061508340684169813 -0.00080182518667541887 0 0.00071939107262873495 -0.00080829024709316518 0 0.00064669108180293955 -0.00078995205520967745 0 0.00057533894474398573 -0.00065828822337428883 0 -0.00020388686170528259 -0.00023796813976135656 0 -0.00026999379634513805 -0.00035384444201816417 0 -0.00033281774776186931 -0.0003871969501059269 0 -5.7198211695567512e-06 -0.0027359314083368592 0 -0.00011336813558251589 -0.0027925285068787285 0 -8.3574122438149568e-05 -0.0026191665133696034 0 -0.00077782863644058756 -0.0015725336386234884 0 -0.00079625385818967722 -0.001430862274099551 0 -0.00070021997650295139 -0.0014486500730601065 0 0.00077875819793435613 -0.0015883258440486255 0 0.00082010322076005952 -0.0017446480090633314 0 0.00071691798778153514 -0.0016837797295894616 0 3.3595504638700917e-06 -0.00036939054715577846 0 5.1135807758842226e-05 -0.00032802662702727849 0 4.7256097741751551e-05 -0.00046013941322116137 0 3.6415588558125802e-05 -0.0022145997803567621 0 -5.3687625436856517e-05 -0.0020958564606110125 0 2.8610457754233721e-05 -0.0020062052241465967 0 -0.00046472940610549351 -0.0015777187734819361 0 -0.00038539753962611825 -0.0014393012791187746 0 -0.00033567251826151397 -0.0015504271809318264 0 0.00024993430269670168 -0.0027171190865028587 0 0.00033863814164256057 -0.0027599889073771102 0 0.00030193629050308756 -0.0028753005722504817 0 -0.00078300053471793524 -0.0019282231199417848 0 -0.00081014044373899714 -0.0020576024671852154 0 -0.00087535272892798484 -0.0020155648336302721 0 0.00072626395386197367 -0.0012285993548027535 0 0.00072666548763772451 -0.0011111410865000523 0 0.00080177016414576798 -0.0011840665771674676 0 -0.00012408854125623681 -0.00038928797727103058 0 -0.00016044580417611944 -0.00036007228713714259 0 -0.00011692661516898221 -0.00027311092502724764 0 0.00046577095418752159 -0.0014714343986079615 0 0.00034078299607773871 -0.001523955127091648 0 0.00037718469727881924 -0.0013948770966571626 0 0.00017717097253866666 -0.0016558330254566531 0 7.4273044033912623e-05 -0.0016880965521232441 0 0.00012840359810420714 -0.0015306281377765946 0 7.7224981180404877e-06 -0.001499093162873958 0 1.7191278336310853e-05 -0.0013172396353014156 0 0.00011100549199670767 -0.0013754512611183942 0 0.00020075750856962177 -0.0028459858914170332 0 0.00024993430269670168 -0.0027171190865028587 0 0.00030193629050308756 -0.0028753005722504817 0 -0.00085563189796165873 -0.0018718582397586063 0 -0.00078300053471793524 -0.0019282231199417848 0 -0.00087535272892798484 -0.0020155648336302721 0 0.00081023685494683131 -0.0013186082366206892 0 0.00072626395386197367 -0.0012285993548027535 0 0.00080177016414576798 -0.0011840665771674676 0 -8.2118959170567667e-05 -0.00029114242594588749 0 -0.00012408854125623681 -0.00038928797727103058 0 -0.00011692661516898221 -0.00027311092502724764 0 -0.00033763645266240728 -0.0017515699523506308 0 -0.00033567251826151397 -0.0015504271809318264 0 -0.00023972696805435887 -0.0016279617188225057 0 -0.0001689812845839786 -0.0026696804256370775 0 -8.3574122438149568e-05 -0.0026191665133696034 0 -0.00011336813558251589 -0.0027925285068787285 0 -0.00071611300033108433 -0.0013354625255840226 0 -0.00070021997650295139 -0.0014486500730601065 0 -0.00079625385818967722 -0.001430862274099551 0 0.00075188557987300583 -0.0018093276370755218 0 0.00071691798778153514 -0.0016837797295894616 0 0.00082010322076005952 -0.0017446480090633314 0 8.9605455901655112e-05 -0.00042201616401658687 0 4.7256097741751551e-05 -0.00046013941322116137 0 5.1135807758842226e-05 -0.00032802662702727849 0 0.00071939107262873495 -0.00080829024709316518 0 0.0006539538201255252 -0.0006744763197287937 0 0.00077212036055282582 -0.00078551173971774617 0 0.00062752230662682326 -0.00058358525623580662 0 0.00077212036055282582 -0.00078551173971774617 0 0.0006539538201255252 -0.0006744763197287937 0 -0.00020388686170528259 -0.00023796813976135656 0 -0.00024226323672237176 -0.00024916860775470423 0 -0.00012536008740709082 -0.00011935345919088862 0 -0.000221382950670696 -0.00019304964013916896 0 -0.00012536008740709082 -0.00011935345919088862 0 -0.00024226323672237176 -0.00024916860775470423 0 7.7224981180404877e-06 -0.001499093162873958 0 0.00011100549199670767 -0.0013754512611183942 0 0.00012840359810420714 -0.0015306281377765946 0 -0.00044579251899444771 -0.0004573010180475054 0 -0.00056114738094257069 -0.00055743356674618587 0 -0.00047246755095952531 -0.00042378564759435806 0 0.00044894542987714377 -0.00046118607225119183 0 0.0003214604763270785 -0.00031825982287867681 0 0.00036801671992242922 -0.00032691921069323272 0 0.00057447575751073563 -0.0029852131045046567 0 0.0005763449563154588 -0.0028221316840991262 0 0.00066192329044193041 -0.0029097086966305432 0 0.00067114843693288006 -0.0027337520133214918 0 0.00066192329044193041 -0.0029097086966305432 0 0.0005763449563154588 -0.0028221316840991262 0 -0.00094027483051368978 -0.0024132349198558696 0 -0.00084713166713294707 -0.0024073435668112825 0 -0.0008970455789046747 -0.0025402121123207751 0 -0.00079286787558330025 -0.0025466509806589431 0 -0.0008970455789046747 -0.0025402121123207751 0 -0.00084713166713294707 -0.0024073435668112825 0 0.00023016423526307217 -0.00019664649178976299 0 0.00022956996241680055 -0.00023688751204118096 0 0.00012729441776004253 -0.00012128085594543906 0 -0.00061842277516934992 -0.00057104735844197921 0 -0.00066898903067501595 -0.00069079334807525545 0 -0.0007756670293642316 -0.00079305427547947784 0 0.00095673593564262447 -0.0026691683937645674 0 0.00092936713263297921 -0.0025357280655639055 0 0.0010078523683286452 -0.0025014396019425499 0 -0.00074318945612704835 -0.0030147952813132589 0 -0.00065746265930338504 -0.0029673662310399102 0 -0.00063031028151942575 -0.0031080831808278282 0 0.00021002530981559033 -0.00025181142992046929 0 0.00012729441776004253 -0.00012128085594543906 0 0.00022956996241680055 -0.00023688751204118096 0 -0.00071618236213894686 -0.00082090821126964508 0 -0.0007756670293642316 -0.00079305427547947784 0 -0.00066898903067501595 -0.00069079334807525545 0 0.00090198718485478527 -0.0023944387764172586 0 0.0010078523683286452 -0.0025014396019425499 0 0.00092936713263297921 -0.0025357280655639055 0 -0.00056470839289847789 -0.00291670182955946 0 -0.00063031028151942575 -0.0031080831808278282 0 -0.00065746265930338504 -0.0029673662310399102 0 0.00057717797197861403 -0.0022728259618891127 0 0.00051165817786564822 -0.0024217709109919669 0 0.00049032656150950786 -0.0022536970204698951 0 0.00059830347700918075 -0.0023973945610727041 0 0.00051165817786564833 -0.0024217709109919669 0 0.00057717797197861403 -0.0022728259618891127 0 -0.00050219448524162756 -0.0023841830230800043 0 -0.00060187077979653031 -0.0022890316396322889 0 -0.00049309481839415173 -0.0022499398434840515 0 -0.00058260112448804051 -0.0024207259172969492 0 -0.00060187077979653031 -0.0022890316396322889 0 -0.00050219448524162756 -0.0023841830230800043 0 0.0003658380496709503 -0.00069808712239433882 0 0.00047314373138690799 -0.00080837391022802959 0 0.00038955581503627369 -0.00082067658870319882 0 0.00042039643622336653 -0.00068012567061149479 0 0.00047314373138690799 -0.00080837391022802959 0 0.0003658380496709503 -0.00069808712239433882 0 -0.0004563431868668563 -0.00081870370383432508 0 -0.00036314318933099312 -0.00066408047530477118 0 -0.00038595285928637101 -0.00081699309458257334 0 -0.00044035350465026986 -0.00070670177571688104 0 -0.00036314318933099312 -0.00066408047530477118 0 -0.0004563431868668563 -0.00081870370383432508 0 0.00090198718485478527 -0.0023944387764172586 0 0.00083302388023482297 -0.002244059752419226 0 0.00092309060085874091 -0.0022476564704158029 0 -0.00056470839289847789 -0.00291670182955946 0 -0.00046665103767258923 -0.0027975452181333246 0 -0.00046153783073584745 -0.0029558123092391603 0 0.00021002530981559033 -0.00025181142992046929 0 0.00021374489800997238 -0.00033838329745673268 0 0.00015518995961291489 -0.00022067240029597838 0 -0.00071618236213894686 -0.00082090821126964508 0 -0.00070078330143788221 -0.00093576236933118697 0 -0.00078871750839513673 -0.00097859957203046328 0 0.00020990963424362283 -0.0014342724618540169 0 0.00011100549199670767 -0.0013754512611183942 0 0.00021215010319945113 -0.0012857031472991666 0 0.00031688496896544697 -0.001270659361920302 0 0.00044152439551300678 -0.0012783176828370536 0 0.00037718469727881924 -0.0013948770966571626 0 0.00046577095418752159 -0.0014714343986079615 0 0.00037718469727881924 -0.0013948770966571626 0 0.00044152439551300678 -0.0012783176828370536 0 0.00077236892852408179 -0.0027054014498498384 0 0.00073574948961904654 -0.0028393899646211615 0 0.00067114843693288006 -0.0027337520133214918 0 -0.00077268633490297381 -0.0027052812154227759 0 -0.00085503007930766472 -0.0026509819717762356 0 -0.00079286787558330025 -0.0025466509806589431 0 0.00057533894474398573 -0.00065828822337428883 0 0.00056011371287112042 -0.00055715960934257889 0 0.0006539538201255252 -0.0006744763197287937 0 -0.00033281774776186931 -0.0003871969501059269 0 -0.00032258160926667786 -0.0003203219186443214 0 -0.00024226323672237176 -0.00024916860775470423 0 0.00036557516399075336 -0.00027468964588276779 0 0.00029221915799864637 -0.00023214801956061355 0 0.00017831646790299443 -0.00013495414998105276 0 -0.00036925831142017 -0.00027898245233746056 0 -0.00050350116350519273 -0.00042757764128907089 0 -0.00055231217182799346 -0.00046128201358067714 0 0.00080988333303416585 -0.002057626285060172 0 0.00090045211019545556 -0.0020081282629421369 0 0.0008891221840835597 -0.0021437994405003381 0 0.00016049145650041575 -0.00036102887336684277 0 0.00010359677265798774 -0.00024064021078138283 0 0.00014823561091075249 -0.00026094750986098127 0 -0.00033890203838418616 -0.0027600365207417813 0 -0.00029410212703725438 -0.0029204893448340355 0 -0.0003916940651234702 -0.0028967429355915191 0 -0.0007269909145226674 -0.0011105247693433821 0 -0.00082871924505457787 -0.0012037728167699612 0 -0.00078427643629040721 -0.0010633909602453717 0 0.00023016423526307217 -0.00019664649178976299 0 0.00036801671992242922 -0.00032691921069323272 0 0.0003214604763270785 -0.00031825982287867681 0 -0.00061842277516934992 -0.00057104735844197921 0 -0.00047246755095952531 -0.00042378564759435806 0 -0.00056114738094257069 -0.00055743356674618587 0 0.00058489971835391373 -0.0033053148718584897 0 0.0004717105120129363 -0.0033091266964539417 0 0.00051648266829846178 -0.0031360191054124456 0 -0.0011100840663983945 -0.0024436479712667222 0 -0.0011086025724323617 -0.0022809529538586741 0 -0.001021702494215633 -0.002336935567349607 0 0.0008917727670861524 -0.00092223832734564172 0 0.00095383579082638722 -0.0010647681000113536 0 0.00085209175361699772 -0.00095294207135419049 0 -2.1057833048611378e-08 -1.1647151402186738e-07 0 -1.3761887700890023e-08 -1.2140677063673172e-07 0 -9.1582041515803631e-05 -0.00010480085295441405 0 0.00011972557494762428 -0.0033143322804063519 0 3.612116957646601e-05 -0.0031799819573837314 0 0.00012764762944314633 -0.0031277401360839925 0 -0.0010933096957930898 -0.0018036421272919149 0 -0.0010206382278643786 -0.0016831198316490351 0 -0.0010017746523160701 -0.0017996629828929678 0 0.0010626770479539725 -0.0014989817963647692 0 0.0010119268966083987 -0.0015892998527184978 0 0.00097134189846219019 -0.0014633117461212686 0 -4.5134581745613946e-09 -1.1744240717328087e-07 0 -4.0066873370130683e-06 -7.2300354516324062e-05 0 -2.140891641288176e-05 -0.00010625611191138515 0 -2.7948733623913507e-06 -0.0010359299725800181 0 2.9617328790731231e-05 -0.00090574725674606477 0 0.00010101953512179638 -0.0010633387170937533 0 0.00095673593564262447 -0.0026691683937645674 0 0.00089751499551792024 -0.0027872666267395505 0 0.00087309454867164429 -0.0026418667483363817 0 -0.00074318945612704835 -0.0030147952813132589 0 -0.00081988100081077414 -0.0029133284456599952 0 -0.00072948516874198652 -0.002870376353807881 0 7.7224981180404877e-06 -0.001499093162873958 0 0.00012840359810420714 -0.0015306281377765946 0 7.4273044033912623e-05 -0.0016880965521232441 0 0.00089081895839881987 -0.0012658960995168653 0 0.00097198086964355378 -0.00134364793354898 0 0.00089414492361100423 -0.0013897589357344893 0 0.00097134189846219019 -0.0014633117461212686 0 0.00089414492361100423 -0.0013897589357344893 0 0.00097198086964355378 -0.00134364793354898 0 0.00080004370492460649 -0.0032920929455829157 0 0.00075716916682867428 -0.0031444491410659819 0 0.00084242269422682913 -0.003110327388732364 0 -0.0011072775320997252 -0.0027714799863557517 0 -0.0010285128214108583 -0.0026964677098421227 0 -0.0010096410974624204 -0.002830390228734379 0 -0.00074318945612704835 -0.0030147952813132589 0 -0.00074147096005794172 -0.003161236522691113 0 -0.00083266973283508067 -0.0030884989343973371 0 0.00095673593564262447 -0.0026691683937645674 0 0.0010371021630993116 -0.0026726974871324727 0 0.00099779219301200802 -0.0028132867421873644 0 -0.00061842277516934992 -0.00057104735844197921 0 -0.00070157954746128174 -0.00064571545959090488 0 -0.00055231217182799346 -0.00046128201358067714 0 0.00023016423526307217 -0.00019664649178976299 0 0.00010734472197768145 -8.7106954907829136e-05 0 0.00017831646790299443 -0.00013495414998105276 0 -0.00080031509591744912 -0.0032921488376614558 0 -0.00083266973283508067 -0.0030884989343973371 0 -0.00074147096005794172 -0.003161236522691113 0 0.0011071951844930155 -0.002771606343086843 0 0.00099779219301200802 -0.0028132867421873644 0 0.0010371021630993116 -0.0026726974871324727 0 -0.00069999308900571663 -0.00063246561653773972 0 -0.00055231217182799346 -0.0004612820135806772 0 -0.00070157954746128174 -0.00064571545959090488 0 2.6915094566405995e-08 -1.0903027927634814e-07 0 0.00017831646790299443 -0.00013495414998105276 0 0.00010734472197768145 -8.7106954907829136e-05 0 0.00070136196346777362 -0.00063157836068001823 0 0.00070315928078017328 -0.00064844201418664637 0 0.00055804933160198331 -0.00046864678671443792 0 -2.6770870585421706e-08 -1.075786375193121e-07 0 -0.00010813625130782483 -8.7260626377669e-05 0 -0.00018997512916953658 -0.00014439435281329683 0 0.00062752230662682326 -0.00058358525623580662 0 0.00055804933160198331 -0.00046864678671443792 0 0.00070315928078017328 -0.00064844201418664637 0 -0.000221382950670696 -0.00019304964013916896 0 -0.00018997512916953658 -0.00014439435281329683 0 -0.00010813625130782483 -8.7260626377669e-05 0 -0.00022796576057765297 -0.001922159253055471 0 -0.00012087034063166041 -0.0018039994057221641 0 -0.00010985021283439643 -0.0019606818438415784 0 7.7224981180404877e-06 -0.001499093162873958 0 7.4273044033912623e-05 -0.0016880965521232441 0 -4.893149009387922e-05 -0.0016723026191155306 0 -0.00037795594194131821 -0.0013070158513222153 0 -0.00042413446405095934 -0.0011470410784674447 0 -0.0003205715939082144 -0.0011668270301320586 0 -0.00031844673993462611 -0.0010093521087196793 0 -0.0003205715939082144 -0.0011668270301320586 0 -0.00042413446405095934 -0.0011470410784674447 0 -0.00023661671329789328 -0.0012148770747308429 0 -0.00023212425573428472 -0.0010797496604248713 0 -0.00015614625059133676 -0.0011641940588461299 0 0.00011843543860056089 -0.0009123894861517393 0 0.00010101953512179638 -0.0010633387170937533 0 2.9617328790731231e-05 -0.00090574725674606477 0 0.00080988333303416585 -0.002057626285060172 0 0.0008891221840835597 -0.0021437994405003381 0 0.00083302388023482297 -0.002244059752419226 0 0.00016049145650041575 -0.00036102887336684277 0 0.00014823561091075249 -0.00026094750986098127 0 0.00021374489800997238 -0.00033838329745673268 0 -0.00033890203838418616 -0.0027600365207417813 0 -0.0003916940651234702 -0.0028967429355915191 0 -0.00046665103767258928 -0.0027975452181333246 0 -0.0007269909145226674 -0.0011105247693433821 0 -0.00078427643629040721 -0.0010633909602453717 0 -0.00070078330143788221 -0.00093576236933118697 0 -0.00021153175115224161 -0.0014683129711567226 0 -0.00023972696805435887 -0.0016279617188225057 0 -0.00033567251826151397 -0.0015504271809318264 0 -0.0001689812845839786 -0.0026696804256370775 0 -0.0002757487060376354 -0.0026032928757891154 0 -0.00016420634451427981 -0.0025198426932463115 0 0.00075188557987300583 -0.0018093276370755218 0 0.00071569536580630237 -0.0019548138295561604 0 0.00066166368495914761 -0.0017879709713858212 0 -0.00071611300033108433 -0.0013354625255840226 0 -0.00065531027093109211 -0.0011740192948320829 0 -0.00062875605482679432 -0.0013215088660956181 0 8.9605455901655112e-05 -0.00042201616401658687 0 0.00016065011678904648 -0.00048138537528091504 0 0.00010256065147050033 -0.00054246933394499217 0 0.00084242269422682913 -0.003110327388732364 0 0.00075716916682867428 -0.0031444491410659819 0 0.00081874087348819625 -0.0029930945399853693 0 -0.0010096410974624204 -0.002830390228734379 0 -0.0010285128214108583 -0.0026964677098421227 0 -0.00094387837712154601 -0.0027885777113737889 0 0.00074080261423048509 -0.002996737122821589 0 0.00081874087348819625 -0.0029930945399853693 0 0.00075716916682867428 -0.0031444491410659819 0 -0.00094687541105418669 -0.0026652665822520685 0 -0.00094387837712154601 -0.0027885777113737889 0 -0.0010285128214108583 -0.0026964677098421227 0 0.00066807759270302652 -0.0023019985472115378 0 0.00078030583888264869 -0.002355696477225026 0 0.00068245897105818963 -0.0024516388948661637 0 -0.00051655806976812072 -0.0025272430132306034 0 -0.00054589918342293718 -0.0027102345763874505 0 -0.0006146584643227155 -0.0025538433916039711 0 0.00033721957523498962 -0.00057133108501705482 0 0.00029243263556944475 -0.00041753538214607332 0 0.00039898175992194944 -0.00055945170177134566 0 -0.00052884648918589906 -0.00081613869645341685 0 -0.00061508340684169813 -0.00080182518667541887 0 -0.00049379451532280188 -0.0006721029039964949 0 0.00011018431748433591 -0.0012207192687554826 0 1.7191278336310853e-05 -0.0013172396353014156 0 1.0733211841269411e-05 -0.0011627810175861971 0 0.00011018431748433591 -0.0012207192687554826 0 0.00021215010319945113 -0.0012857031472991666 0 0.00011100549199670767 -0.0013754512611183942 0 0.00074080261423048509 -0.002996737122821589 0 0.00073574948961904654 -0.0028393899646211615 0 0.00081801027896695455 -0.0028700654358797323 0 -0.00094687541105418669 -0.0026652665822520685 0 -0.00085503007930766472 -0.0026509819717762356 0 -0.00087237237073093906 -0.0027827066783437885 0 0.00079820879336566322 -0.0025064892108480901 0 0.00069804761914905205 -0.002590865614931302 0 0.00068245897105818963 -0.0024516388948661637 0 -0.00064483094473514709 -0.0027422116066329874 0 -0.00070317533188316798 -0.0025835806045320718 0 -0.0006146584643227155 -0.0025538433916039711 0 0.00033951305941023655 -0.00040101997946303961 0 0.0004617078900611487 -0.00056201306956282229 0 0.00039898175992194944 -0.00055945170177134566 0 -0.00057091463904710739 -0.00065980280604860842 0 -0.00044117483617309898 -0.00053871554010775599 0 -0.00049379451532280188 -0.0006721029039964949 0 0.00048082630790256174 -0.0017815185059088762 0 0.00037465621699250102 -0.0018537071564130774 0 0.00039617085359204882 -0.0017176969339400758 0 0.00046524951601890023 -0.0019242342380299932 0 0.00037465621699250102 -0.0018537071564130774 0 0.00048082630790256174 -0.0017815185059088762 0 0.0001358163957001181 -0.00079581660237621876 0 0.00019740106820661114 -0.00095842180913139122 0 0.00011843543860056089 -0.0009123894861517393 0 0.00021598034391155703 -0.00082970183958749021 0 0.00019740106820661114 -0.00095842180913139122 0 0.0001358163957001181 -0.00079581660237621876 0 0.00012764762944314633 -0.0031277401360839925 0 0.00016622434202393429 -0.0029964957846680546 0 0.00022358490079412739 -0.0031659444335895583 0 0.00026365767956447087 -0.0030206032977215481 0 0.00022358490079412739 -0.0031659444335895583 0 0.00016622434202393429 -0.0029964957846680546 0 -0.0010017746523160701 -0.0017996629828929678 0 -0.00093629325753345489 -0.0018390618715399922 0 -0.0010279736077977689 -0.0019316632782844945 0 -0.000954302537565912 -0.0019743703276972478 0 -0.0010279736077977689 -0.0019316632782844945 0 -0.00093629325753345489 -0.0018390618715399922 0 -2.140891641288176e-05 -0.00010625611191138515 0 -4.7061235518039779e-05 -0.00018787439216171078 0 -3.1904356410785215e-05 -8.1148371346246467e-05 0 -6.9631187299154171e-05 -0.00017103593799468479 0 -3.1904356410785215e-05 -8.1148371346246467e-05 0 -4.7061235518039779e-05 -0.00018787439216171078 0 0.00016063089682165 -0.001995798337431358 0 9.9540515613914628e-05 -0.0021123723675167648 0 2.8610457754233721e-05 -0.0020062052241465967 0 -0.00033763645266240728 -0.0017515699523506308 0 -0.00040224422479597757 -0.0016624269757597545 0 -0.00033567251826151397 -0.0015504271809318264 0 3.6415588558125802e-05 -0.0022145997803567621 0 2.8610457754233721e-05 -0.0020062052241465967 0 9.9540515613914628e-05 -0.0021123723675167648 0 -0.00046472940610549351 -0.0015777187734819361 0 -0.00033567251826151397 -0.0015504271809318264 0 -0.00040224422479597757 -0.0016624269757597545 0 0.00091584274371610654 -0.0029518160084351258 0 0.00084242269422682913 -0.003110327388732364 0 0.00081874087348819625 -0.0029930945399853693 0 -0.00091930641355486347 -0.0029460885125127986 0 -0.0010096410974624204 -0.002830390228734379 0 -0.00094387837712154601 -0.0027885777113737889 0 0.00023016423526307217 -0.00019664649178976299 0 0.00017831646790299443 -0.00013495414998105276 0 0.00029221915799864637 -0.00023214801956061355 0 -0.00061842277516934992 -0.00057104735844197921 0 -0.00055231217182799346 -0.00046128201358067714 0 -0.00050350116350519273 -0.00042757764128907084 0 0.00042445120094799284 -0.0030651223533514917 0 0.00048949637786349144 -0.0029575481320272871 0 0.00051648266829846178 -0.0031360191054124456 0 -0.00098266404578792169 -0.0022018496643515474 0 -0.00092481824827844456 -0.0022880163010530652 0 -0.001021702494215633 -0.002336935567349607 0 0.00086143384594819018 -0.0010571414110114943 0 0.0007725206945931334 -0.00093621108839132806 0 0.00085209175361699772 -0.00095294207135419049 0 -9.9091531547224805e-05 -0.00014440480828933208 0 -0.00016623190118899564 -0.0002256073349879418 0 -9.1582041515803631e-05 -0.00010480085295441405 0 0.00024050104245922627 -0.0023883166316170032 0 0.00018550614362853238 -0.002509971422220497 0 0.00010954493051026805 -0.0023983256813467249 0 -0.00058239163620122834 -0.0018873047223576123 0 -0.0006562992766360029 -0.0018178441898864858 0 -0.00058418320334468869 -0.0016985475515187212 0 0.00053585263586684948 -0.0011956619726356226 0 0.00061848855111284226 -0.0012894125122831287 0 0.00056405862847680812 -0.0013845245226574549 0 -0.00017015916211733317 -0.00066180542413445825 0 -0.00011693782194190802 -0.00055405775144673518 0 -7.5882266899035821e-05 -0.00064469102589387501 0 0.00016063089682165 -0.001995798337431358 0 8.6226021311618022e-05 -0.0018644555578555566 0 0.00018152720794690336 -0.0018056797773772215 0 0.00024050104245922627 -0.0023883166316170032 0 0.0001730132600481655 -0.0022150995030081819 0 0.00026520902818661263 -0.0022479878119662203 0 -0.00058239163620122834 -0.0018873047223576123 0 -0.00046882612205134319 -0.0017712469647283801 0 -0.00049348951641367891 -0.0019137430909742629 0 0.00053585263586684948 -0.0011956619726356226 0 0.00044152439551300678 -0.0012783176828370536 0 0.00044653872058982312 -0.0011446227747737752 0 -0.00017015916211733317 -0.00066180542413445825 0 -0.000133243333265009 -0.0008126822994194698 0 -0.00020395764386798749 -0.0007890550284247956 0 -1.0272602027884159e-07 -0.0025186727437416408 0 0.00010954493051026805 -0.0023983256813467249 0 9.224709351442331e-05 -0.0025945090356716224 0 -0.00064968435881524746 -0.0015543650367439688 0 -0.00058418320334468869 -0.0016985475515187212 0 -0.00070279941169709129 -0.0016933725442084427 0 0.00064938837956754437 -0.0015544078593925351 0 0.00056405862847680812 -0.0013845245226574549 0 0.00068402369564217393 -0.0014329648106722662 0 -1.4205782970563462e-07 -0.00054233009646307759 0 -7.5882266899035821e-05 -0.00064469102589387501 0 -5.2860388963931653e-05 -0.00048138851507520945 0 3.6415588558125802e-05 -0.0022145997803567621 0 9.9540515613914628e-05 -0.0021123723675167648 0 0.00017301326004816547 -0.0022150995030081823 0 -0.00046472940610549351 -0.0015777187734819361 0 -0.00040224422479597757 -0.0016624269757597545 0 -0.00046882612205134319 -0.0017712469647283801 0 0.00016063089682165 -0.001995798337431358 0 0.00017301326004816547 -0.0022150995030081823 0 9.9540515613914628e-05 -0.0021123723675167648 0 -0.00033763645266240728 -0.0017515699523506308 0 -0.00046882612205134319 -0.0017712469647283801 0 -0.00040224422479597757 -0.0016624269757597545 0 0.00026365767956447087 -0.0030206032977215481 0 0.00020075750856962177 -0.0028459858914170327 0 0.00030193629050308756 -0.0028753005722504817 0 -0.000954302537565912 -0.0019743703276972478 0 -0.00085563189796165873 -0.0018718582397586063 0 -0.00087535272892798484 -0.0020155648336302721 0 0.00089081895839881987 -0.0012658960995168653 0 0.0008102368549468312 -0.0013186082366206892 0 0.00080177016414576798 -0.0011840665771674676 0 -6.9631187299154171e-05 -0.00017103593799468479 0 -8.2118959170567654e-05 -0.00029114242594588749 0 -0.00011692661516898221 -0.00027311092502724764 0 6.907022826948702e-06 -0.00013134671622922462 0 6.7130431533976363e-06 -5.6416440322684899e-05 0 2.1808581052400854e-05 -8.5816846646678404e-05 0 -0.0009630380469301613 -0.0015817027807173039 0 -0.0010219362937676274 -0.0015610512389382352 0 -0.00098405663869589573 -0.001445443896842701 0 0.000969940393073193 -0.0016672615018716026 0 0.0010362096846002976 -0.0017179242683062002 0 0.0010178985756899629 -0.0018244404703377005 0 -3.2337549225726516e-05 -0.0030804629590149464 0 -6.0280256806899895e-05 -0.0032082373869104313 0 -0.00014437271974668015 -0.0031571296550734641 0 0.00016505256001005464 -0.0026565331805298996 0 9.8602894687834156e-05 -0.0027482619151283157 0 9.224709351442331e-05 -0.0025945090356716224 0 -0.00074393285698566266 -0.0018026037386180203 0 -0.00079326023621993137 -0.0017192386345414527 0 -0.00070279941169709129 -0.0016933725442084427 0 0.00070880395131658338 -0.0013387853981614484 0 0.00077226363596052039 -0.0014450908710169383 0 0.00068402369564217393 -0.0014329648106722662 0 -8.8613954028395699e-05 -0.00043370937961653445 0 -4.5908925183085323e-05 -0.00036295409781792663 0 -5.2860388963931653e-05 -0.00048138851507520945 0 7.7224981180404877e-06 -0.001499093162873958 0 -4.893149009387922e-05 -0.0016723026191155306 0 -0.0001122006802708324 -0.0015508474798003569 0 0.00057593384814101731 -0.0025871466901529732 0 0.00048057963204707258 -0.0025878446420401859 0 0.00051165817786564833 -0.0024217709109919669 0 -0.00070500920180584508 -0.0023941871367135067 0 -0.00070627635370461381 -0.0022520014501110769 0 -0.00060187077979653031 -0.0022890316396322889 0 0.00053179274318692184 -0.00073745597880197711 0 0.00057820812876701049 -0.00087658321691348219 0 0.00047314373138690799 -0.00080837391022802959 0 -0.00035854215887748202 -0.00052586685265523477 0 -0.00029377898430205275 -0.00051535020426302818 0 -0.00036314318933099312 -0.00066408047530477118 0 -0.0001689812845839786 -0.0026696804256370775 0 -0.00023162171134828106 -0.0027781346803692829 0 -0.0002757487060376354 -0.0026032928757891154 0 -0.00033890203838418616 -0.0027600365207417813 0 -0.0002757487060376354 -0.0026032928757891154 0 -0.00023162171134828106 -0.0027781346803692829 0 -0.00071611300033108433 -0.0013354625255840226 0 -0.00076578937598236212 -0.0012644790043274123 0 -0.00065531027093109211 -0.0011740192948320829 0 0.00075188557987300583 -0.0018093276370755218 0 0.00081779134033050955 -0.0019075670618878713 0 0.00071569536580630237 -0.0019548138295561604 0 0.00080988333303416585 -0.002057626285060172 0 0.00071569536580630237 -0.0019548138295561604 0 0.00081779134033050955 -0.0019075670618878713 0 -0.0007269909145226674 -0.0011105247693433821 0 -0.00065531027093109211 -0.0011740192948320829 0 -0.00076578937598236212 -0.0012644790043274123 0 8.9605455901655112e-05 -0.00042201616401658687 0 0.00010444274927275166 -0.00034158852675584818 0 0.00016065011678904648 -0.00048138537528091504 0 0.00016049145650041575 -0.00036102887336684277 0 0.00016065011678904648 -0.00048138537528091504 0 0.00010444274927275167 -0.00034158852675584818 0 0.00036958860591644317 -0.0020264411892424207 0 0.00037465621699250102 -0.0018537071564130774 0 0.00046524951601890023 -0.0019242342380299932 0 0.00029493358651674684 -0.0009739036831770048 0 0.00019740106820661114 -0.00095842180913139122 0 0.00021598034391155703 -0.00082970183958749021 0 -0.0003427518807502707 -0.0020580036630392811 0 -0.00023097189157445113 -0.0020696322757192188 0 -0.00027804331456014666 -0.0022046018587660089 0 0.00091584274371610654 -0.0029518160084351258 0 0.00081801027896695455 -0.0028700654358797318 0 0.00089751499551792024 -0.0027872666267395505 0 -0.00091930641355486347 -0.0029460885125127986 0 -0.00087237237073093906 -0.0027827066783437881 0 -0.00081988100081077414 -0.0029133284456599952 0 0.00036557516399075336 -0.00027468964588276779 0 0.00049210980206605746 -0.00043369919606677388 0 0.00036801671992242922 -0.00032691921069323272 0 -0.00036925831142017 -0.00027898245233746056 0 -0.00034215256974296366 -0.00029480239143933417 0 -0.00047246755095952531 -0.00042378564759435806 0 -0.00033567251826151397 -0.0015504271809318264 0 -0.00038539753962611825 -0.0014393012791187746 0 -0.00028382587592355718 -0.001356826721654273 0 0.00097333066716519831 -0.0021356928344488865 0 0.001011931130759639 -0.0023173252031489077 0 0.00092309060085874091 -0.0022476564704158029 0 9.3885100892282105e-05 -0.00015374459126121453 0 9.5174198915815535e-05 -0.00011105820824700595 0 0.00015518995961291489 -0.00022067240029597838 0 -0.00037845289164170279 -0.0030498807536753435 0 -0.00050400257033740591 -0.0031186075130944257 0 -0.00046153783073584745 -0.0029558123092391603 0 -0.00087123531491143031 -0.0011159806664835287 0 -0.00085316262711767211 -0.00096521622064370542 0 -0.00078871750839513673 -0.00097859957203046328 0 -0.00015514391378697513 -0.0016855394982082069 0 -0.00011220068027083238 -0.0015508474798003569 0 -4.893149009387922e-05 -0.0016723026191155306 0 -0.00037795594194131821 -0.0013070158513222153 0 -0.00045839094520400212 -0.0012782865341311304 0 -0.00042413446405095934 -0.0011470410784674447 0 0.0011081763383958305 -0.00228077715671254 0 0.001011931130759639 -0.0023173252031489077 0 0.0010503563994617416 -0.0021850162965318031 0 1.3748422251634203e-08 -1.2325431571502586e-07 0 9.5174198915815548e-05 -0.00011105820824700596 0 4.7011617867116013e-05 -6.2939878222594583e-05 0 -0.00047184406169200325 -0.0033090260991842269 0 -0.00050400257033740591 -0.0031186075130944257 0 -0.00040750694725140901 -0.0031961494553296547 0 -0.00095317508978688898 -0.0010651646841643605 0 -0.00085316262711767211 -0.00096521622064370553 0 -0.0009315939527072695 -0.0011133912988713485 0 0.00016505256001005464 -0.0026565331805298996 0 0.00018550614362853238 -0.002509971422220497 0 0.00029028642307591941 -0.0025759657001051452 0 0.00024050104245922627 -0.0023883166316170032 0 0.00029028642307591941 -0.0025759657001051452 0 0.00018550614362853238 -0.002509971422220497 0 -0.00058239163620122834 -0.0018873047223576123 0 -0.00069988986547725029 -0.0019736019910737467 0 -0.0006562992766360029 -0.0018178441898864858 0 -0.00074393285698566266 -0.0018026037386180203 0 -0.0006562992766360029 -0.0018178441898864858 0 -0.00069988986547725029 -0.0019736019910737467 0 0.00053585263586684948 -0.0011956619726356226 0 0.00063565084535540967 -0.0011488918795588738 0 0.00061848855111284226 -0.0012894125122831287 0 0.00070880395131658338 -0.0013387853981614484 0 0.00061848855111284226 -0.0012894125122831287 0 0.00063565084535540967 -0.0011488918795588738 0 -0.00017015916211733317 -0.00066180542413445825 0 -0.00017466446299591813 -0.00050394547274811496 0 -0.00011693782194190802 -0.00055405775144673518 0 -8.8613954028395699e-05 -0.00043370937961653445 0 -0.00011693782194190802 -0.00055405775144673518 0 -0.00017466446299591813 -0.00050394547274811496 0 0.00033863814164256057 -0.0027599889073771102 0 0.00024993430269670168 -0.0027171190865028587 0 0.00029028642307591941 -0.0025759657001051452 0 -0.00081014044373899714 -0.0020576024671852154 0 -0.00078300053471793524 -0.0019282231199417848 0 -0.00069988986547725029 -0.0019736019910737467 0 0.00072666548763772451 -0.0011111410865000523 0 0.00072626395386197367 -0.0012285993548027535 0 0.00063565084535540967 -0.0011488918795588738 0 -0.00016044580417611944 -0.00036007228713714259 0 -0.00012408854125623681 -0.00038928797727103058 0 -0.00017466446299591813 -0.00050394547274811496 0 8.3296199296209185e-05 -0.002901596086452022 0 0.00020075750856962177 -0.0028459858914170332 0 0.00016622434202393429 -0.0029964957846680546 0 -0.00087915096645071523 -0.0017159007651450643 0 -0.00085563189796165873 -0.0018718582397586063 0 -0.00093629325753345489 -0.0018390618715399922 0 0.00089081895839881987 -0.0012658960995168653 0 0.00089414492361100423 -0.0013897589357344893 0 0.00081023685494683131 -0.0013186082366206892 0 -3.0873969522794845e-05 -0.00025046722711468073 0 -8.2118959170567667e-05 -0.00029114242594588749 0 -4.7061235518039779e-05 -0.00018787439216171078 0 0.00026365767956447087 -0.0030206032977215481 0 0.00016622434202393429 -0.0029964957846680546 0 0.00020075750856962177 -0.0028459858914170332 0 -0.000954302537565912 -0.0019743703276972478 0 -0.00093629325753345489 -0.0018390618715399922 0 -0.00085563189796165873 -0.0018718582397586063 0 0.00086085821969118488 -0.0014881931144233853 0 0.00081023685494683131 -0.0013186082366206892 0 0.00089414492361100423 -0.0013897589357344893 0 -6.9631187299154171e-05 -0.00017103593799468479 0 -4.7061235518039779e-05 -0.00018787439216171078 0 -8.2118959170567667e-05 -0.00029114242594588749 0 0.00016505256001005464 -0.0026565331805298996 0 0.00024993430269670168 -0.0027171190865028587 0 0.00020075750856962177 -0.0028459858914170332 0 -0.00074393285698566266 -0.0018026037386180203 0 -0.00078300053471793524 -0.0019282231199417848 0 -0.00085563189796165873 -0.0018718582397586063 0 0.00070880395131658338 -0.0013387853981614484 0 0.00072626395386197367 -0.0012285993548027535 0 0.00081023685494683131 -0.0013186082366206892 0 -8.8613954028395699e-05 -0.00043370937961653445 0 -0.00012408854125623678 -0.00038928797727103058 0 -8.2118959170567667e-05 -0.00029114242594588749 0 0.00066807759270302652 -0.0023019985472115378 0 0.00068245897105818963 -0.0024516388948661637 0 0.00059830347700918075 -0.0023973945610727041 0 -0.00051655806976812072 -0.0025272430132306034 0 -0.0006146584643227155 -0.0025538433916039711 0 -0.00058260112448804051 -0.0024207259172969492 0 0.00033721957523498962 -0.00057133108501705482 0 0.00039898175992194944 -0.00055945170177134566 0 0.00042039643622336653 -0.00068012567061149479 0 -0.00052884648918589906 -0.00081613869645341685 0 -0.00049379451532280188 -0.0006721029039964949 0 -0.00044035350465026986 -0.00070670177571688104 0 0.00075188557987300583 -0.0018093276370755218 0 0.00066166368495914761 -0.0017879709713858212 0 0.00071691798778153514 -0.0016837797295894616 0 -0.0001689812845839786 -0.0026696804256370775 0 -0.00016420634451427981 -0.0025198426932463115 0 -8.3574122438149568e-05 -0.0026191665133696034 0 8.9605455901655112e-05 -0.00042201616401658687 0 0.00010256065147050033 -0.00054246933394499217 0 4.7256097741751551e-05 -0.00046013941322116137 0 -0.00071611300033108433 -0.0013354625255840226 0 -0.00062875605482679432 -0.0013215088660956181 0 -0.00070021997650295139 -0.0014486500730601065 0 0.00097333066716519831 -0.0021356928344488865 0 0.0010503563994617416 -0.0021850162965318031 0 0.001011931130759639 -0.0023173252031489077 0 9.3885100892282105e-05 -0.00015374459126121453 0 4.7011617867116013e-05 -6.2939878222594583e-05 0 9.5174198915815535e-05 -0.00011105820824700595 0 -0.00037845289164170279 -0.0030498807536753435 0 -0.00040750694725140901 -0.0031961494553296547 0 -0.00050400257033740591 -0.0031186075130944257 0 -0.00087123531491143031 -0.0011159806664835287 0 -0.0009315939527072695 -0.0011133912988713485 0 -0.00085316262711767211 -0.00096521622064370553 0 3.6415588558125802e-05 -0.0022145997803567621 0 -8.0314023456385872e-05 -0.0022262761343759398 0 -5.3687625436856517e-05 -0.0020958564606110125 0 -0.00046472940610549351 -0.0015777187734819361 0 -0.00046159076825109854 -0.0014085590616394437 0 -0.00038539753962611825 -0.0014393012791187746 0 8.3296199296209185e-05 -0.002901596086452022 0 5.848161491526378e-05 -0.0030345208107322875 0 -3.0322920154363744e-05 -0.0029202398292350381 0 -0.00087915096645071523 -0.0017159007651450643 0 -0.00094863423784653431 -0.0016976273323673912 0 -0.00087834226866572113 -0.0015630807324345099 0 0.00086085821969118488 -0.0014881931144233853 0 0.00093487125478042374 -0.0015403370750743076 0 0.00088449794319757325 -0.0016456103793449025 0 -3.0873969522794845e-05 -0.00025046722711468073 0 -1.53112239187597e-05 -0.00016124565769314245 0 1.0887031663477065e-05 -0.00023708796831421495 0 -1.9863014581593304e-05 -0.0018236219478578704 0 -4.893149009387922e-05 -0.0016723026191155306 0 7.4273044033912623e-05 -0.0016880965521232441 0 0.00074080261423048509 -0.002996737122821589 0 0.00066192329044193041 -0.0029097086966305432 0 0.00073574948961904654 -0.0028393899646211615 0 -0.00094687541105418669 -0.0026652665822520685 0 -0.0008970455789046747 -0.0025402121123207751 0 -0.00085503007930766472 -0.0026509819717762356 0 0.00091584274371610654 -0.0029518160084351258 0 0.00081874087348819625 -0.0029930945399853693 0 0.00081801027896695455 -0.0028700654358797323 0 -0.00091930641355486347 -0.0029460885125127986 0 -0.00094387837712154601 -0.0027885777113737889 0 -0.00087237237073093906 -0.0027827066783437885 0 0.00023016423526307217 -0.00019664649178976299 0 0.00029221915799864637 -0.00023214801956061355 0 0.00036801671992242922 -0.00032691921069323272 0 -0.00061842277516934992 -0.00057104735844197921 0 -0.00050350116350519273 -0.00042757764128907079 0 -0.00047246755095952531 -0.00042378564759435806 0 0.00016505256001005464 -0.0026565331805298996 0 0.00029028642307591941 -0.0025759657001051452 0 0.00024993430269670168 -0.0027171190865028587 0 -0.00074393285698566266 -0.0018026037386180203 0 -0.00069988986547725029 -0.0019736019910737467 0 -0.00078300053471793524 -0.0019282231199417848 0 0.00070880395131658338 -0.0013387853981614484 0 0.00063565084535540956 -0.0011488918795588738 0 0.00072626395386197367 -0.0012285993548027535 0 -8.8613954028395699e-05 -0.00043370937961653445 0 -0.00017466446299591813 -0.00050394547274811496 0 -0.00012408854125623681 -0.00038928797727103058 0 0.00062752230662682326 -0.00058358525623580662 0 0.00056011371287112042 -0.00055715960934257889 0 0.00049210980206605736 -0.00043369919606677383 0 -0.000221382950670696 -0.00019304964013916896 0 -0.00032258160926667786 -0.0003203219186443214 0 -0.00034215256974296372 -0.00029480239143933417 0 7.7224981180404877e-06 -0.001499093162873958 0 -8.9827777771257669e-05 -0.0014002168638311077 0 1.7191278336310853e-05 -0.0013172396353014156 0 -8.8338863920917816e-05 -0.0012540008184627792 0 1.7191278336310853e-05 -0.0013172396353014156 0 -8.9827777771257669e-05 -0.0014002168638311077 0 0.00049032656150950786 -0.0022536970204698951 0 0.00042844857078666332 -0.0023348407261996528 0 0.0004297410306138593 -0.0021604189336925333 0 -0.00049309481839415173 -0.0022499398434840515 0 -0.00054630266261908517 -0.0021582270029968649 0 -0.00043105744912673698 -0.0021537561908288039 0 0.00038955581503627369 -0.00082067658870319882 0 0.00045516947542140153 -0.0009179592268353375 0 0.00035553425192521036 -0.00089926889721608967 0 -0.00038595285928637101 -0.00081699309458257334 0 -0.00031831670916926879 -0.00073097205325912539 0 -0.00035185356658212519 -0.00089302092222043414 0 -0.00014035987971905336 -0.0010018549034249145 0 -0.00023212425573428472 -0.0010797496604248713 0 -0.00021980137400897919 -0.00091908447482766278 0 -3.2337549225726516e-05 -0.0030804629590149464 0 -3.0322920154363744e-05 -0.0029202398292350381 0 5.848161491526378e-05 -0.0030345208107322875 0 -0.0009630380469301613 -0.0015817027807173039 0 -0.00087834226866572113 -0.0015630807324345099 0 -0.00094863423784653431 -0.0016976273323673912 0 0.000969940393073193 -0.0016672615018716026 0 0.00088449794319757325 -0.0016456103793449025 0 0.00093487125478042374 -0.0015403370750743076 0 6.907022826948702e-06 -0.00013134671622922462 0 1.0887031663477065e-05 -0.00023708796831421495 0 -1.53112239187597e-05 -0.00016124565769314245 0 -0.00013884496759030573 -0.0021038901267180507 0 -0.00017896144628578954 -0.0022302604708243994 0 -0.00023097189157445113 -0.0020696322757192188 0 -0.00027804331456014666 -0.0022046018587660089 0 -0.00023097189157445113 -0.0020696322757192188 0 -0.00017896144628578954 -0.0022302604708243994 0 0.00017717097253866666 -0.0016558330254566531 0 0.00012840359810420714 -0.0015306281377765946 0 0.0002286229631628213 -0.0015690442519296429 0 0.00080004370492460649 -0.0032920929455829157 0 0.00069447895559004709 -0.0032995948273267322 0 0.00075716916682867428 -0.0031444491410659819 0 -0.0011072775320997252 -0.0027714799863557517 0 -0.0011091286638979445 -0.0026075517521824427 0 -0.0010285128214108583 -0.0026964677098421227 0 0.00070136196346777362 -0.00063157836068001823 0 0.0008087334597872126 -0.0007777545464299851 0 0.00070315928078017328 -0.00064844201418664637 0 -2.6770870585421706e-08 -1.075786375193121e-07 0 -3.8070894102794195e-08 -1.2341703185706098e-07 0 -0.00010813625130782483 -8.7260626377669e-05 0 0.0011089824900406837 -0.0026078915227668296 0 0.0011071951844930155 -0.002771606343086843 0 0.0010371021630993116 -0.0026726974871324727 0 3.74399217625726e-08 -1.2345150010811147e-07 0 2.6915094566405995e-08 -1.0903027927634814e-07 0 0.00010734472197768145 -8.7106954907829136e-05 0 -0.00069494863365201468 -0.003299518600980727 0 -0.00080031509591744912 -0.0032921488376614558 0 -0.00074147096005794172 -0.003161236522691113 0 -0.00080903879881497217 -0.00077786309542593902 0 -0.00069999308900571663 -0.00063246561653773972 0 -0.00070157954746128174 -0.00064571545959090488 0 0.00035412309379530054 -0.0022191792492430871 0 0.0004297410306138593 -0.0021604189336925333 0 0.00042844857078666332 -0.0023348407261996528 0 -0.00047385601338721954 -0.0020433070786039032 0 -0.00043105744912673698 -0.0021537561908288039 0 -0.00054630266261908517 -0.0021582270029968649 0 0.00040973806734351015 -0.0010133654796759715 0 0.00035553425192521036 -0.00089926889721608967 0 0.00045516947542140153 -0.0009179592268353375 0 -0.00027886891962761303 -0.00082596089087470792 0 -0.00035185356658212519 -0.00089302092222043414 0 -0.00031831670916926879 -0.00073097205325912539 0 -5.7198211695567512e-06 -0.0027359314083368592 0 -3.0322920154363744e-05 -0.0029202398292350381 0 -0.00011336813558251589 -0.0027925285068787285 0 -0.00077782863644058756 -0.0015725336386234884 0 -0.00087834226866572113 -0.0015630807324345099 0 -0.00079625385818967722 -0.001430862274099551 0 0.00077875819793435613 -0.0015883258440486255 0 0.00088449794319757325 -0.0016456103793449025 0 0.00082010322076005952 -0.0017446480090633314 0 3.3595504638700917e-06 -0.00036939054715577846 0 1.0887031663477065e-05 -0.00023708796831421495 0 5.1135807758842226e-05 -0.00032802662702727849 0 0.00049032656150950786 -0.0022536970204698951 0 0.0004297410306138593 -0.0021604189336925333 0 0.00051952038840505854 -0.0020887085309692056 0 -0.00049309481839415173 -0.0022499398434840515 0 -0.00043105744912673698 -0.0021537561908288039 0 -0.00038363973127116896 -0.0022952325112282055 0 0.00038955581503627369 -0.00082067658870319882 0 0.00035553425192521036 -0.00089926889721608967 0 0.00029163640074129953 -0.00076429846072835798 0 -0.00038595285928637101 -0.00081699309458257334 0 -0.00035185356658212519 -0.00089302092222043414 0 -0.00044438448768005859 -0.0009813653939888796 0 0.00097333066716519831 -0.0021356928344488865 0 0.0010460364603523619 -0.0020720415024188003 0 0.0010503563994617416 -0.0021850162965318031 0 9.3885100892282105e-05 -0.00015374459126121453 0 3.7428434249541092e-05 -6.4768176999405747e-05 0 4.7011617867116013e-05 -6.2939878222594583e-05 0 -0.00087123531491143031 -0.0011159806664835287 0 -0.00095812708913221118 -0.001217262268199591 0 -0.0009315939527072695 -0.0011133912988713485 0 -0.00037845289164170279 -0.0030498807536753435 0 -0.0003262184847527994 -0.0031928823795411838 0 -0.00040750694725140901 -0.0031961494553296547 0 0.0011059619285502095 -0.0021202175634121895 0 0.0011081763383958305 -0.00228077715671254 0 0.0010503563994617416 -0.0021850162965318031 0 1.5898000364824493e-08 -1.1738979595391684e-07 0 1.3748422251634203e-08 -1.2325431571502586e-07 0 4.7011617867116013e-05 -6.2939878222594583e-05 0 -0.00035646165830050024 -0.0033118334949688534 0 -0.00047184406169200325 -0.0033090260991842269 0 -0.00040750694725140901 -0.0031961494553296547 0 -0.0010017396202416586 -0.0012055290095548538 0 -0.00095317508978688898 -0.0010651646841643605 0 -0.0009315939527072695 -0.0011133912988713485 0 -0.0010376074510709096 -0.0013503796807351307 0 -0.0010017396202416586 -0.0012055290095548538 0 -0.00095812708913221118 -0.001217262268199591 0 -0.00023902333747273844 -0.0033136023068240823 0 -0.00035646165830050024 -0.0033118334949688534 0 -0.0003262184847527994 -0.0031928823795411838 0 1.23437356176264e-08 -1.1710642033244773e-07 0 1.5898000364824493e-08 -1.1738979595391684e-07 0 3.7428434249541092e-05 -6.4768176999405747e-05 0 0.0011009577504074533 -0.0019613672452520395 0 0.0011059619285502095 -0.0021202175634121895 0 0.0010460364603523619 -0.0020720415024188003 0 0.00074080261423048509 -0.002996737122821589 0 0.00081801027896695455 -0.0028700654358797323 0 0.00081874087348819625 -0.0029930945399853693 0 -0.00094687541105418669 -0.0026652665822520685 0 -0.00087237237073093906 -0.0027827066783437885 0 -0.00094387837712154601 -0.0027885777113737889 0 0.00036557516399075336 -0.00027468964588276779 0 0.00036801671992242916 -0.00032691921069323267 0 0.00029221915799864637 -0.00023214801956061355 0 -0.00036925831142017 -0.00027898245233746056 0 -0.00047246755095952531 -0.00042378564759435806 0 -0.00050350116350519273 -0.00042757764128907084 0 0.00024050104245922627 -0.0023883166316170032 0 0.00026520902818661263 -0.0022479878119662203 0 0.00034657955744526098 -0.0023893085755203997 0 0.00035412309379530054 -0.0022191792492430871 0 0.00034657955744526098 -0.0023893085755203997 0 0.00026520902818661263 -0.0022479878119662203 0 -0.00058239163620122834 -0.0018873047223576123 0 -0.00049348951641367891 -0.0019137430909742629 0 -0.00058375333109100195 -0.0020419152367542803 0 -0.00047385601338721954 -0.0020433070786039032 0 -0.00058375333109100195 -0.0020419152367542803 0 -0.00049348951641367891 -0.0019137430909742629 0 0.00053585263586684948 -0.0011956619726356226 0 0.00044653872058982312 -0.0011446227747737752 0 0.00051112393213742881 -0.0010428333771077122 0 0.00040973806734351015 -0.0010133654796759715 0 0.00051112393213742881 -0.0010428333771077122 0 0.00044653872058982312 -0.0011446227747737752 0 -0.00017015916211733317 -0.00066180542413445825 0 -0.00020395764386798749 -0.0007890550284247956 0 -0.00024595789919058662 -0.00067056406239519428 0 -0.00027886891962761303 -0.00082596089087470792 0 -0.00024595789919058662 -0.00067056406239519428 0 -0.00020395764386798749 -0.0007890550284247956 0 0.00077236892852408179 -0.0027054014498498384 0 0.00081801027896695455 -0.0028700654358797318 0 0.00073574948961904654 -0.0028393899646211615 0 -0.00077268633490297381 -0.0027052812154227759 0 -0.00087237237073093906 -0.0027827066783437885 0 -0.00085503007930766472 -0.0026509819717762356 0 0.00075188557987300583 -0.0018093276370755218 0 0.00082010322076005952 -0.0017446480090633314 0 0.00081779134033050955 -0.0019075670618878713 0 -0.0001689812845839786 -0.0026696804256370775 0 -0.00011336813558251591 -0.0027925285068787285 0 -0.00023162171134828106 -0.0027781346803692829 0 8.9605455901655112e-05 -0.00042201616401658687 0 5.1135807758842233e-05 -0.00032802662702727849 0 0.00010444274927275167 -0.00034158852675584818 0 -0.00071611300033108433 -0.0013354625255840226 0 -0.00079625385818967722 -0.001430862274099551 0 -0.00076578937598236212 -0.0012644790043274123 0 -2.7948733623913507e-06 -0.0010359299725800181 0 -7.466712561991079e-05 -0.0010964358745387817 0 -5.6008135269633158e-05 -0.00093355013823558553 0 -0.00014035987971905336 -0.0010018549034249145 0 -5.6008135269633158e-05 -0.00093355013823558553 0 -7.466712561991079e-05 -0.0010964358745387817 0 -0.00033890203838418616 -0.0027600365207417813 0 -0.00023162171134828106 -0.0027781346803692829 0 -0.00029410212703725438 -0.0029204893448340355 0 0.00080988333303416585 -0.002057626285060172 0 0.00081779134033050955 -0.0019075670618878713 0 0.00090045211019545556 -0.0020081282629421369 0 -0.0007269909145226674 -0.0011105247693433821 0 -0.00076578937598236212 -0.0012644790043274123 0 -0.00082871924505457787 -0.0012037728167699612 0 0.00016049145650041575 -0.00036102887336684277 0 0.00010444274927275167 -0.00034158852675584818 0 0.00010359677265798774 -0.00024064021078138283 0 0.00034078299607773877 -0.001523955127091648 0 0.00028521512195721929 -0.0017040977217453867 0 0.0002286229631628213 -0.0015690442519296429 0 0.00035412309379530054 -0.0022191792492430871 0 0.00026520902818661263 -0.0022479878119662203 0 0.00026603643873577708 -0.0021061023952650094 0 -0.00047385601338721954 -0.0020433070786039032 0 -0.00049348951641367891 -0.0019137430909742629 0 -0.00040592007781697947 -0.0019041169634069466 0 0.00040973806734351015 -0.0010133654796759715 0 0.00044653872058982312 -0.0011446227747737752 0 0.00035629749156557529 -0.0011304985144408447 0 -0.00027886891962761303 -0.00082596089087470792 0 -0.00020395764386798749 -0.0007890550284247956 0 -0.00021980137400897919 -0.00091908447482766278 0 -0.00025718535411379644 -0.0023901256560623653 0 -0.0002757487060376354 -0.0026032928757891154 0 -0.00034535344704648079 -0.002512644818080759 0 0.00058399441171866242 -0.0019110067688622113 0 0.00071569536580630237 -0.0019548138295561604 0 0.00066102559655315581 -0.0020480831029422359 0 -0.00053377418155840296 -0.0011722523768506301 0 -0.00065531027093109211 -0.0011740192948320829 0 -0.00058277664271425792 -0.0010613578538921846 0 0.00018086262495765052 -0.00065960119991185086 0 0.00016065011678904648 -0.00048138537528091504 0 0.00022101252091230237 -0.00056187296283112032 0 -8.8338863920917816e-05 -0.0012540008184627792 0 -8.9827777771257669e-05 -0.0014002168638311077 0 -0.00017562265901275128 -0.0013115031546954198 0 0.00011843543860056089 -0.0009123894861517393 0 5.4590428466147501e-05 -0.00078647531455114167 0 0.0001358163957001181 -0.00079581660237621876 0 0.00020990963424362283 -0.0014342724618540169 0 0.00012840359810420714 -0.0015306281377765946 0 0.00011100549199670767 -0.0013754512611183942 0 -0.0003427518807502707 -0.0020580036630392811 0 -0.00040592007781697947 -0.0019041169634069466 0 -0.00031316737393077766 -0.0018890456584475369 0 0.00020990963424362283 -0.0014342724618540169 0 0.0002286229631628213 -0.0015690442519296429 0 0.00012840359810420714 -0.0015306281377765946 0 0.00011972557494762428 -0.0033143322804063519 0 -1.1164300498345358e-07 -0.003314362675714575 0 3.612116957646601e-05 -0.0031799819573837314 0 -0.0010933096957930898 -0.0018036421272919149 0 -0.0010797394131015321 -0.0016494121886236755 0 -0.0010206382278643786 -0.0016831198316490351 0 0.0010626770479539725 -0.0014989817963647692 0 0.0010796894817703682 -0.0016503764195727416 0 0.0010119268966083987 -0.0015892998527184978 0 -4.5134581745613946e-09 -1.1744240717328087e-07 0 3.5254824082682456e-09 -1.1953125057468501e-07 0 -4.0066873370130683e-06 -7.2300354516324062e-05 0 0.00066166368495914761 -0.0017879709713858212 0 0.00062873026112250814 -0.0016655527465502047 0 0.00071691798778153514 -0.0016837797295894616 0 -0.00016420634451427981 -0.0025198426932463115 0 -8.2749668778926773e-05 -0.0024728998203951353 0 -8.3574122438149568e-05 -0.0026191665133696034 0 0.00010256065147050033 -0.00054246933394499217 0 5.1749401669948457e-05 -0.00057842266936202467 0 4.7256097741751551e-05 -0.00046013941322116137 0 -0.00062875605482679432 -0.0013215088660956181 0 -0.0006125683232300216 -0.0014317383113965233 0 -0.00070021997650295139 -0.0014486500730601065 0 0.00011843543860056089 -0.0009123894861517393 0 2.9617328790731231e-05 -0.00090574725674606477 0 5.4590428466147501e-05 -0.00078647531455114167 0 -0.00015514391378697513 -0.0016855394982082069 0 -4.893149009387922e-05 -0.0016723026191155306 0 -0.00012087034063166041 -0.0018039994057221641 0 7.7224981180404877e-06 -0.001499093162873958 0 -0.0001122006802708324 -0.0015508474798003569 0 -8.9827777771257669e-05 -0.0014002168638311077 0 -2.0755597305269539e-07 -3.4991850791929696e-07 0 -0.00016416081460109483 -0.00011299334656722058 0 -0.00035552958635416909 -0.00027912270091551126 0 2.0830961209294594e-07 -3.5000868593675919e-07 0 0.00016457607660653439 -0.00011315955549689541 0 -1.4823155704176067e-09 -9.9907656575588262e-08 0 2.0830961209294594e-07 -3.5000868593675919e-07 0 0.00035591463536337425 -0.00027892112340854419 0 0.00016457607660653442 -0.00011315955549689544 0 -2.0755597305269539e-07 -3.4991850791929696e-07 0 9.2954519082818423e-10 -9.9449230347024508e-08 0 -0.00016416081460109483 -0.00011299334656722058 0 0.0010885025203616957 -0.0032622215389751259 0 0.00099745860011205391 -0.0032723797702253481 0 0.0010359760603802363 -0.0031618452394926869 0 0.0010885025203616957 -0.0032622215389751259 0 0.0010359760603802363 -0.0031618452394926869 0 0.0010971063018786031 -0.0030989187896183503 0 -0.0010887567802593165 -0.0032620555754314081 0 -0.0010396113971989703 -0.0031678318974623053 0 -0.00099785562851764566 -0.0032723419354671471 0 -0.0010887567802593165 -0.0032620555754314081 0 -0.0010974928766262558 -0.0030989599783253032 0 -0.0010396113971989703 -0.0031678318974623053 0 -0.00033763645266240728 -0.0017515699523506308 0 -0.00023972696805435887 -0.0016279617188225057 0 -0.00023090274965827402 -0.0017788437428630966 0 -0.00021153175115224161 -0.0014683129711567226 0 -0.00028382587592355718 -0.001356826721654273 0 -0.00017562265901275128 -0.0013115031546954198 0 -0.00023661671329789328 -0.0012148770747308429 0 -0.00017562265901275128 -0.0013115031546954198 0 -0.00028382587592355718 -0.001356826721654273 0 0.00026365767956447087 -0.0030206032977215481 0 0.0003291994935065302 -0.003154237493637017 0 0.00022358490079412739 -0.0031659444335895583 0 -0.000954302537565912 -0.0019743703276972478 0 -0.0010269522091231897 -0.002074523066952506 0 -0.0010279736077977689 -0.0019316632782844945 0 0.00089081895839881987 -0.0012658960995168653 0 0.00093915798820880443 -0.001204987321245165 0 0.00097198086964355378 -0.00134364793354898 0 -6.9631187299154171e-05 -0.00017103593799468479 0 -4.9807159825858859e-05 -8.7006618094668533e-05 0 -3.1904356410785215e-05 -8.1148371346246467e-05 0 0.00040864210972210583 -0.0025156611621300175 0 0.00042844857078666332 -0.0023348407261996528 0 0.00051165817786564833 -0.0024217709109919669 0 -0.00066271008398812099 -0.0021414907367060861 0 -0.00054630266261908517 -0.0021582270029968649 0 -0.00060187077979653031 -0.0022890316396322889 0 0.00056496961502009433 -0.00097043357115206665 0 0.00045516947542140153 -0.0009179592268353375 0 0.00047314373138690799 -0.00080837391022802959 0 -0.00026512531171106072 -0.00056732199208158287 0 -0.00031831670916926879 -0.00073097205325912539 0 -0.00036314318933099312 -0.00066408047530477118 0 0.00011018431748433591 -0.0012207192687554826 0 0.00011100549199670767 -0.0013754512611183942 0 1.7191278336310853e-05 -0.0013172396353014156 0 -0.00031844673993462611 -0.0010093521087196793 0 -0.00021980137400897919 -0.00091908447482766278 0 -0.00023212425573428472 -0.0010797496604248713 0 0.0004717105120129363 -0.0033091266964539417 0 0.00042003677468820149 -0.0031954422139573273 0 0.00051648266829846178 -0.0031360191054124456 0 -0.0011086025724323617 -0.0022809529538586741 0 -0.0010505156769959156 -0.0022031097462644712 0 -0.001021702494215633 -0.002336935567349607 0 0.00042445120094799284 -0.0030651223533514917 0 0.00051648266829846178 -0.0031360191054124456 0 0.00042003677468820149 -0.0031954422139573273 0 -0.00098266404578792169 -0.0022018496643515474 0 -0.001021702494215633 -0.002336935567349607 0 -0.0010505156769959156 -0.0022031097462644712 0 0.00095383579082638722 -0.0010647681000113536 0 0.00092611599669905828 -0.0010966929718677432 0 0.00085209175361699772 -0.00095294207135419049 0 -1.3761887700890023e-08 -1.2140677063673172e-07 0 -4.8197872420410158e-05 -6.4751358118717044e-05 0 -9.1582041515803631e-05 -0.00010480085295441405 0 0.00086143384594819018 -0.0010571414110114943 0 0.00085209175361699772 -0.00095294207135419049 0 0.00092611599669905828 -0.0010966929718677432 0 -9.9091531547224805e-05 -0.00014440480828933208 0 -9.1582041515803631e-05 -0.00010480085295441405 0 -4.8197872420410151e-05 -6.4751358118717044e-05 0 0.00095673593564262447 -0.0026691683937645674 0 0.00087309454867164429 -0.0026418667483363817 0 0.00092936713263297921 -0.0025357280655639055 0 -0.00074318945612704835 -0.0030147952813132589 0 -0.00072948516874198652 -0.002870376353807881 0 -0.00065746265930338504 -0.0029673662310399102 0 0.00063172874204687948 -0.0021736145970083728 0 0.00066102559655315581 -0.0020480831029422359 0 0.00073098516990265344 -0.0021605989520016807 0 -0.0004325737126989803 -0.0024671896480539099 0 -0.00034535344704648079 -0.002512644818080759 0 -0.00041724030846117981 -0.0026265126554744717 0 0.00029327270531357346 -0.00061255970848548365 0 0.00022101252091230237 -0.00056187296283112032 0 0.00023983874801737729 -0.00047295259612711551 0 -0.00052885998299390059 -0.00092974344148866552 0 -0.00058277664271425792 -0.0010613578538921846 0 -0.00062533697477216012 -0.0009748728167979652 0 0.00023016423526307217 -0.00019664649178976299 0 0.0003214604763270785 -0.00031825982287867681 0 0.00022956996241680055 -0.00023688751204118096 0 -0.00061842277516934992 -0.00057104735844197921 0 -0.00056114738094257069 -0.00055743356674618587 0 -0.00066898903067501595 -0.00069079334807525545 0 -0.00014035987971905336 -0.0010018549034249145 0 -7.466712561991079e-05 -0.0010964358745387817 0 -0.00015614625059133676 -0.0011641940588461299 0 -0.00015543041054501427 -0.0029642440082074872 0 -0.00011336813558251589 -0.0027925285068787285 0 -3.0322920154363744e-05 -0.0029202398292350381 0 -0.00088408764565869348 -0.0014003729682785036 0 -0.00079625385818967722 -0.001430862274099551 0 -0.00087834226866572113 -0.0015630807324345099 0 0.00091845379466708773 -0.0018207724437724359 0 0.00082010322076005952 -0.0017446480090633314 0 0.00088449794319757325 -0.0016456103793449025 0 4.872254178428978e-05 -0.00020710535032236423 0 5.1135807758842233e-05 -0.00032802662702727849 0 1.0887031663477065e-05 -0.00023708796831421495 0 3.6415588558125802e-05 -0.0022145997803567621 0 -2.2965900663450604e-05 -0.0023627020903050269 0 -8.0314023456385872e-05 -0.0022262761343759398 0 -0.00012873752005961424 -0.0023633544528555077 0 -8.0314023456385872e-05 -0.0022262761343759398 0 -2.2965900663450604e-05 -0.0023627020903050269 0 -0.00046472940610549351 -0.0015777187734819361 0 -0.0005521264516201973 -0.0015053854394228691 0 -0.00046159076825109854 -0.0014085590616394437 0 -0.00054004737408075768 -0.0013537706210710074 0 -0.00046159076825109854 -0.0014085590616394435 0 -0.0005521264516201973 -0.0015053854394228691 0 0.00046577095418752159 -0.0014714343986079615 0 0.00055682311281725588 -0.001562715230139755 0 0.00046869402681476522 -0.0016282522484963383 0 0.0005629904142756538 -0.0017231282762345092 0 0.00046869402681476522 -0.0016282522484963383 0 0.00055682311281725588 -0.001562715230139755 0 0.00042445120094799284 -0.0030651223533514917 0 0.00034660923002612575 -0.0030065801540067193 0 0.00040749734406511813 -0.002884192550937179 0 -0.00098266404578792169 -0.0022018496643515474 0 -0.00094907637981711838 -0.0020883406155595735 0 -0.000882569302177078 -0.0021652434634542514 0 0.00086143384594819018 -0.0010571414110114943 0 0.00085546108288667632 -0.0011499189892631319 0 0.00077225671088801428 -0.0010379503669596482 0 -9.9091531547224805e-05 -0.00014440480828933208 0 -9.6587314488934096e-05 -0.00018265158302172287 0 -0.00015745083683492523 -0.00027059856892726097 0 0.00033863814164256057 -0.0027599889073771102 0 0.00040749734406511813 -0.002884192550937179 0 0.00030193629050308756 -0.0028753005722504817 0 -0.00081014044373899714 -0.0020576024671852154 0 -0.000882569302177078 -0.0021652434634542514 0 -0.00087535272892798484 -0.0020155648336302721 0 0.00072666548763772451 -0.0011111410865000523 0 0.00077225671088801428 -0.0010379503669596482 0 0.00080177016414576798 -0.0011840665771674676 0 -0.00016044580417611944 -0.00036007228713714259 0 -0.00015745083683492525 -0.00027059856892726097 0 -0.00011692661516898221 -0.00027311092502724764 0 -8.8338863920917816e-05 -0.0012540008184627792 0 1.0733211841269411e-05 -0.0011627810175861971 0 1.7191278336310853e-05 -0.0013172396353014156 0 0.00083302388023482297 -0.002244059752419226 0 0.0008891221840835597 -0.0021437994405003381 0 0.00092309060085874091 -0.0022476564704158029 0 -0.00046665103767258928 -0.0027975452181333246 0 -0.0003916940651234702 -0.0028967429355915191 0 -0.00046153783073584745 -0.0029558123092391603 0 0.00021374489800997238 -0.00033838329745673268 0 0.00014823561091075247 -0.00026094750986098121 0 0.00015518995961291489 -0.00022067240029597838 0 -0.00070078330143788221 -0.00093576236933118697 0 -0.00078427643629040721 -0.0010633909602453717 0 -0.00078871750839513673 -0.00097859957203046328 0 0.00067114843693288006 -0.0027337520133214918 0 0.00073574948961904654 -0.0028393899646211615 0 0.00066192329044193041 -0.0029097086966305432 0 -0.00079286787558330025 -0.0025466509806589431 0 -0.00085503007930766482 -0.0026509819717762356 0 -0.0008970455789046747 -0.0025402121123207751 0 0.00040864210972210583 -0.0025156611621300175 0 0.00034657955744526098 -0.0023893085755203997 0 0.00042844857078666332 -0.0023348407261996528 0 -0.00066271008398812099 -0.0021414907367060861 0 -0.00058375333109100195 -0.0020419152367542803 0 -0.00054630266261908517 -0.0021582270029968649 0 0.00056496961502009433 -0.00097043357115206665 0 0.00051112393213742881 -0.0010428333771077122 0 0.00045516947542140153 -0.0009179592268353375 0 -0.00026512531171106072 -0.00056732199208158287 0 -0.00024595789919058662 -0.00067056406239519428 0 -0.00031831670916926879 -0.00073097205325912539 0 -0.00013884496759030573 -0.0021038901267180507 0 -0.00010985021283439644 -0.0019606818438415784 0 -5.3687625436856517e-05 -0.0020958564606110125 0 0.0004717105120129363 -0.0033091266964539417 0 0.00035632700413840856 -0.0033117509663751501 0 0.00042003677468820149 -0.0031954422139573273 0 -0.0011086025724323617 -0.0022809529538586741 0 -0.0011061668633326192 -0.0021207035329977074 0 -0.0010505156769959156 -0.0022031097462644712 0 0.00095383579082638722 -0.0010647681000113536 0 0.0010018070325048124 -0.0012042533092724258 0 0.00092611599669905828 -0.0010966929718677432 0 -1.3761887700890023e-08 -1.2140677063673172e-07 0 -1.9225509909520479e-08 -1.185395244885993e-07 0 -4.8197872420410151e-05 -6.4751358118717044e-05 0 -2.7948733623913507e-06 -0.0010359299725800181 0 -5.6008135269633158e-05 -0.00093355013823558553 0 2.9617328790731231e-05 -0.00090574725674606477 0 -1.1164300498345358e-07 -0.003314362675714575 0 -0.00011980578262106546 -0.0033140257311555809 0 -6.0280256806899895e-05 -0.0032082373869104313 0 -0.0010797394131015321 -0.0016494121886236755 0 -0.001061052768359667 -0.0014993784292250826 0 -0.0010219362937676274 -0.0015610512389382352 0 0.0010796894817703682 -0.0016503764195727418 0 0.0010915766920257227 -0.0018038610636794859 0 0.0010362096846002976 -0.0017179242683062002 0 3.5254824082682456e-09 -1.1953125057468501e-07 0 -2.919476429635972e-10 -1.2275383678204271e-07 0 6.7130431533976363e-06 -5.6416440322684899e-05 0 0.00062752230662682326 -0.00058358525623580662 0 0.0006539538201255252 -0.0006744763197287937 0 0.00056011371287112042 -0.00055715960934257889 0 -0.000221382950670696 -0.00019304964013916896 0 -0.00024226323672237176 -0.00024916860775470423 0 -0.00032258160926667786 -0.0003203219186443214 0 -3.1355780351067476e-05 -0.00078838588664664224 0 2.9617328790731231e-05 -0.00090574725674606477 0 -5.6008135269633158e-05 -0.00093355013823558553 0 0.00020990963424362283 -0.0014342724618540169 0 0.00021215010319945113 -0.0012857031472991666 0 0.00029177862067687835 -0.0013810349221289569 0 0.00031688496896544697 -0.001270659361920302 0 0.00029177862067687835 -0.0013810349221289569 0 0.00021215010319945113 -0.0012857031472991666 0 -0.001061052768359667 -0.0014993784292250826 0 -0.00098405663869589573 -0.001445443896842701 0 -0.0010219362937676274 -0.0015610512389382352 0 -0.00011980578262106546 -0.0033140257311555809 0 -0.00014437271974668015 -0.0031571296550734641 0 -6.0280256806899895e-05 -0.0032082373869104313 0 -2.919476429635972e-10 -1.2275383678204271e-07 0 2.1808581052400854e-05 -8.5816846646678404e-05 0 6.7130431533976363e-06 -5.6416440322684899e-05 0 0.0010915766920257227 -0.0018038610636794859 0 0.0010178985756899629 -0.0018244404703377005 0 0.0010362096846002976 -0.0017179242683062002 0 0.00017301326004816547 -0.0022150995030081823 0 0.00026603643873577708 -0.0021061023952650094 0 0.00026520902818661263 -0.0022479878119662203 0 -0.00046882612205134319 -0.0017712469647283801 0 -0.00040592007781697947 -0.0019041169634069466 0 -0.00049348951641367891 -0.0019137430909742629 0 0.00044152439551300678 -0.0012783176828370536 0 0.00035629749156557529 -0.0011304985144408447 0 0.00044653872058982312 -0.0011446227747737752 0 -0.000133243333265009 -0.0008126822994194698 0 -0.00021980137400897919 -0.00091908447482766278 0 -0.00020395764386798749 -0.0007890550284247956 0 -0.00033763645266240728 -0.0017515699523506308 0 -0.00031316737393077766 -0.0018890456584475369 0 -0.00040592007781697947 -0.0019041169634069466 0 -0.00015514391378697513 -0.0016855394982082069 0 -0.00023090274965827405 -0.0017788437428630966 0 -0.00023972696805435887 -0.0016279617188225057 0 0.00040864210972210583 -0.0025156611621300175 0 0.00051165817786564833 -0.0024217709109919669 0 0.00048057963204707258 -0.0025878446420401864 0 -0.00066271008398812099 -0.0021414907367060861 0 -0.00060187077979653031 -0.0022890316396322889 0 -0.00070627635370461381 -0.0022520014501110769 0 0.00056496961502009433 -0.00097043357115206665 0 0.00047314373138690799 -0.00080837391022802959 0 0.00057820812876701049 -0.00087658321691348219 0 -0.00026512531171106072 -0.00056732199208158287 0 -0.00036314318933099312 -0.00066408047530477118 0 -0.00029377898430205275 -0.00051535020426302818 0 -0.00031844673993462611 -0.0010093521087196793 0 -0.00023212425573428472 -0.0010797496604248713 0 -0.0003205715939082144 -0.0011668270301320586 0 0.00042445120094799284 -0.0030651223533514917 0 0.00040749734406511813 -0.002884192550937179 0 0.00048949637786349144 -0.0029575481320272871 0 -0.00098266404578792169 -0.0022018496643515474 0 -0.000882569302177078 -0.0021652434634542514 0 -0.00092481824827844456 -0.0022880163010530652 0 0.00086143384594819018 -0.0010571414110114943 0 0.00077225671088801428 -0.0010379503669596482 0 0.0007725206945931334 -0.00093621108839132806 0 -9.9091531547224805e-05 -0.00014440480828933208 0 -0.00015745083683492523 -0.00027059856892726097 0 -0.00016623190118899564 -0.0002256073349879418 0 8.3296199296209185e-05 -0.002901596086452022 0 0.00016622434202393429 -0.0029964957846680546 0 5.848161491526378e-05 -0.0030345208107322875 0 -0.00087915096645071523 -0.0017159007651450643 0 -0.00093629325753345489 -0.0018390618715399922 0 -0.00094863423784653431 -0.0016976273323673912 0 -3.0873969522794845e-05 -0.00025046722711468073 0 -4.7061235518039779e-05 -0.00018787439216171078 0 -1.53112239187597e-05 -0.00016124565769314245 0 -0.00023661671329789328 -0.0012148770747308429 0 -0.0003205715939082144 -0.0011668270301320586 0 -0.00023212425573428472 -0.0010797496604248713 0 0.0010796894817703682 -0.0016503764195727418 0 0.0010362096846002976 -0.0017179242683062002 0 0.0010119268966083987 -0.0015892998527184978 0 3.5254824082682456e-09 -1.1953125057468501e-07 0 6.7130431533976363e-06 -5.6416440322684893e-05 0 -4.0066873370130683e-06 -7.2300354516324062e-05 0 0.000969940393073193 -0.0016672615018716026 0 0.0010119268966083987 -0.0015892998527184978 0 0.0010362096846002976 -0.0017179242683062002 0 6.907022826948702e-06 -0.00013134671622922462 0 -4.0066873370130683e-06 -7.2300354516324048e-05 0 6.7130431533976363e-06 -5.6416440322684899e-05 0 -0.0010797394131015321 -0.0016494121886236755 0 -0.0010219362937676274 -0.0015610512389382352 0 -0.0010206382278643786 -0.0016831198316490351 0 -1.1164300498345358e-07 -0.003314362675714575 0 -6.0280256806899895e-05 -0.0032082373869104313 0 3.612116957646601e-05 -0.0031799819573837314 0 -3.2337549225726516e-05 -0.0030804629590149464 0 3.6121169576466017e-05 -0.0031799819573837314 0 -6.0280256806899895e-05 -0.0032082373869104313 0 -0.0009630380469301613 -0.0015817027807173039 0 -0.0010206382278643786 -0.0016831198316490351 0 -0.0010219362937676274 -0.0015610512389382352 0 0.00012764762944314633 -0.0031277401360839925 0 5.848161491526378e-05 -0.0030345208107322875 0 0.00016622434202393429 -0.0029964957846680546 0 -0.0010017746523160701 -0.0017996629828929678 0 -0.00094863423784653431 -0.0016976273323673912 0 -0.00093629325753345489 -0.0018390618715399922 0 -2.140891641288176e-05 -0.00010625611191138515 0 -1.5311223918759704e-05 -0.00016124565769314245 0 -4.7061235518039779e-05 -0.00018787439216171078 0 0.00048347702707313091 -0.0027530745677348928 0 0.00040983468833479957 -0.0026613403602900685 0 0.00048057963204707258 -0.0025878446420401864 0 -0.00080690633396969047 -0.0022658841591697929 0 -0.00075196281688456401 -0.002152592417106938 0 -0.00070627635370461381 -0.0022520014501110769 0 0.00066851640229670915 -0.00090248431130226137 0 0.0006473833673996172 -0.00099121723304344714 0 0.00057820812876701049 -0.00087658321691348219 0 -0.00023917684369185419 -0.00037633172236742606 0 -0.00022648095372868916 -0.00044525730697309246 0 -0.00029377898430205275 -0.00051535020426302818 0 -0.00037795594194131821 -0.0013070158513222153 0 -0.00028382587592355718 -0.001356826721654273 0 -0.00038539753962611825 -0.0014393012791187746 0 -0.00012873752005961424 -0.0023633544528555077 0 -8.2749668778926759e-05 -0.0024728998203951353 0 -0.00016420634451427981 -0.0025198426932463115 0 0.0005629904142756538 -0.0017231282762345092 0 0.00062873026112250804 -0.0016655527465502047 0 0.00066166368495914761 -0.0017879709713858212 0 -0.00054004737408075768 -0.0013537706210710074 0 -0.0006125683232300216 -0.0014317383113965233 0 -0.00062875605482679432 -0.0013215088660956181 0 8.9864916201220948e-05 -0.00067226711106879733 0 5.1749401669948457e-05 -0.00057842266936202467 0 0.00010256065147050033 -0.00054246933394499217 0 0.00035632700413840856 -0.0033117509663751501 0 0.0003291994935065302 -0.003154237493637017 0 0.00042003677468820149 -0.0031954422139573273 0 -0.0011061668633326192 -0.0021207035329977074 0 -0.0010269522091231897 -0.002074523066952506 0 -0.0010505156769959156 -0.0022031097462644712 0 0.0010018070325048124 -0.0012042533092724258 0 0.00093915798820880443 -0.001204987321245165 0 0.00092611599669905828 -0.0010966929718677432 0 -1.9225509909520479e-08 -1.185395244885993e-07 0 -4.9807159825858859e-05 -8.7006618094668533e-05 0 -4.8197872420410151e-05 -6.4751358118717044e-05 0 0.00042445120094799284 -0.0030651223533514917 0 0.00042003677468820154 -0.0031954422139573268 0 0.0003291994935065302 -0.003154237493637017 0 -0.00098266404578792169 -0.0022018496643515474 0 -0.0010505156769959156 -0.0022031097462644712 0 -0.0010269522091231897 -0.002074523066952506 0 0.00086143384594819018 -0.0010571414110114943 0 0.00092611599669905828 -0.0010966929718677432 0 0.00093915798820880443 -0.001204987321245165 0 -9.9091531547224805e-05 -0.00014440480828933208 0 -4.8197872420410151e-05 -6.4751358118717058e-05 0 -4.9807159825858859e-05 -8.7006618094668533e-05 0 0.00097134189846219019 -0.0014633117461212686 0 0.00093487125478042374 -0.0015403370750743076 0 0.00089414492361100423 -0.0013897589357344893 0 0.00086085821969118488 -0.0014881931144233853 0 0.00089414492361100423 -0.0013897589357344893 0 0.00093487125478042374 -0.0015403370750743076 0 -1.9863014581593304e-05 -0.0018236219478578704 0 -0.00010985021283439643 -0.0019606818438415784 0 -0.00012087034063166041 -0.0018039994057221641 0 0.00010954493051026805 -0.0023983256813467249 0 0.00018550614362853235 -0.002509971422220497 0 9.224709351442331e-05 -0.0025945090356716224 0 -0.00058418320334468869 -0.0016985475515187212 0 -0.0006562992766360029 -0.0018178441898864858 0 -0.00070279941169709129 -0.0016933725442084427 0 0.00056405862847680812 -0.0013845245226574549 0 0.00061848855111284226 -0.0012894125122831287 0 0.00068402369564217393 -0.0014329648106722662 0 -7.5882266899035821e-05 -0.00064469102589387501 0 -0.00011693782194190802 -0.00055405775144673518 0 -5.2860388963931653e-05 -0.00048138851507520945 0 0.00017717097253866666 -0.0016558330254566531 0 0.00022862296316282128 -0.0015690442519296426 0 0.00028521512195721929 -0.0017040977217453867 0 0.00040749734406511813 -0.002884192550937179 0 0.00034660923002612581 -0.0030065801540067193 0 0.00030193629050308756 -0.0028753005722504817 0 -0.000882569302177078 -0.0021652434634542514 0 -0.00094907637981711838 -0.0020883406155595735 0 -0.00087535272892798484 -0.0020155648336302721 0 0.00077225671088801428 -0.0010379503669596482 0 0.00085546108288667632 -0.0011499189892631319 0 0.00080177016414576798 -0.0011840665771674676 0 -0.00015745083683492523 -0.00027059856892726097 0 -9.6587314488934096e-05 -0.00018265158302172287 0 -0.00011692661516898221 -0.00027311092502724764 0 -1.9863014581593304e-05 -0.0018236219478578704 0 -0.00012087034063166041 -0.0018039994057221641 0 -4.893149009387922e-05 -0.0016723026191155306 0 0.00097333066716519831 -0.0021356928344488865 0 0.00092309060085874091 -0.0022476564704158029 0 0.0008891221840835597 -0.0021437994405003381 0 9.3885100892282105e-05 -0.00015374459126121453 0 0.00015518995961291489 -0.00022067240029597838 0 0.00014823561091075249 -0.00026094750986098127 0 -0.00037845289164170279 -0.0030498807536753435 0 -0.00046153783073584745 -0.0029558123092391603 0 -0.0003916940651234702 -0.0028967429355915191 0 -0.00087123531491143031 -0.0011159806664835287 0 -0.00078871750839513673 -0.00097859957203046328 0 -0.00078427643629040721 -0.0010633909602453717 0 0.00026365767956447087 -0.0030206032977215481 0 0.00034660923002612581 -0.0030065801540067193 0 0.0003291994935065302 -0.003154237493637017 0 -0.000954302537565912 -0.0019743703276972478 0 -0.00094907637981711838 -0.0020883406155595735 0 -0.0010269522091231897 -0.002074523066952506 0 0.00089081895839881987 -0.0012658960995168653 0 0.00085546108288667632 -0.0011499189892631319 0 0.00093915798820880443 -0.001204987321245165 0 -6.9631187299154171e-05 -0.00017103593799468479 0 -9.6587314488934096e-05 -0.00018265158302172287 0 -4.9807159825858859e-05 -8.7006618094668533e-05 0 0.00042445120094799284 -0.0030651223533514917 0 0.0003291994935065302 -0.003154237493637017 0 0.00034660923002612581 -0.0030065801540067193 0 -0.00098266404578792169 -0.0022018496643515474 0 -0.0010269522091231897 -0.002074523066952506 0 -0.00094907637981711838 -0.0020883406155595735 0 0.00086143384594819018 -0.0010571414110114943 0 0.00093915798820880443 -0.001204987321245165 0 0.00085546108288667632 -0.0011499189892631319 0 -9.9091531547224805e-05 -0.00014440480828933208 0 -4.9807159825858859e-05 -8.7006618094668533e-05 0 -9.6587314488934096e-05 -0.00018265158302172287 0 0.00016505256001005464 -0.0026565331805298996 0 9.224709351442331e-05 -0.0025945090356716224 0 0.00018550614362853238 -0.002509971422220497 0 -0.00074393285698566266 -0.0018026037386180203 0 -0.00070279941169709129 -0.0016933725442084427 0 -0.0006562992766360029 -0.0018178441898864858 0 0.00070880395131658338 -0.0013387853981614484 0 0.00068402369564217393 -0.0014329648106722662 0 0.00061848855111284226 -0.0012894125122831287 0 -8.8613954028395699e-05 -0.00043370937961653445 0 -5.2860388963931646e-05 -0.00048138851507520945 0 -0.00011693782194190802 -0.00055405775144673518 0 -0.00013884496759030573 -0.0021038901267180507 0 -8.0314023456385872e-05 -0.0022262761343759398 0 -0.00017896144628578954 -0.0022302604708243994 0 -0.00012873752005961424 -0.0023633544528555077 0 -0.00017896144628578954 -0.0022302604708243994 0 -8.0314023456385872e-05 -0.0022262761343759398 0 0.00039617085359204882 -0.0017176969339400758 0 0.00046869402681476522 -0.0016282522484963383 0 0.00048082630790256174 -0.0017815185059088762 0 -0.00037795594194131821 -0.0013070158513222153 0 -0.00046159076825109854 -0.0014085590616394437 0 -0.00045839094520400212 -0.0012782865341311304 0 0.0005629904142756538 -0.0017231282762345092 0 0.00048082630790256174 -0.0017815185059088762 0 0.00046869402681476522 -0.0016282522484963383 0 -0.00054004737408075768 -0.0013537706210710074 0 -0.00045839094520400212 -0.0012782865341311304 0 -0.00046159076825109854 -0.0014085590616394437 0 -8.8338863920917816e-05 -0.0012540008184627792 0 -7.466712561991079e-05 -0.0010964358745387817 0 1.0733211841269411e-05 -0.0011627810175861971 0 -2.7948733623913507e-06 -0.0010359299725800181 0 1.0733211841269407e-05 -0.0011627810175861971 0 -7.466712561991079e-05 -0.0010964358745387817 0 8.9864916201220948e-05 -0.00067226711106879733 0 0.0001358163957001181 -0.00079581660237621876 0 5.4590428466147501e-05 -0.00078647531455114167 0 -3.1355780351067476e-05 -0.00078838588664664224 0 5.4590428466147501e-05 -0.00078647531455114167 0 2.9617328790731231e-05 -0.00090574725674606477 0 -8.8338863920917816e-05 -0.0012540008184627792 0 -0.00017562265901275128 -0.0013115031546954198 0 -0.00015614625059133676 -0.0011641940588461299 0 -0.00023661671329789328 -0.0012148770747308429 0 -0.00015614625059133676 -0.0011641940588461299 0 -0.00017562265901275128 -0.0013115031546954198 0 0.00097134189846219019 -0.0014633117461212686 0 0.0010119268966083987 -0.0015892998527184978 0 0.00093487125478042374 -0.0015403370750743076 0 -2.140891641288176e-05 -0.00010625611191138515 0 -4.0066873370130683e-06 -7.2300354516324062e-05 0 -1.53112239187597e-05 -0.00016124565769314245 0 0.000969940393073193 -0.0016672615018716026 0 0.00093487125478042374 -0.0015403370750743076 0 0.0010119268966083987 -0.0015892998527184978 0 6.907022826948702e-06 -0.00013134671622922462 0 -1.53112239187597e-05 -0.00016124565769314245 0 -4.0066873370130683e-06 -7.2300354516324062e-05 0 0.00012764762944314633 -0.0031277401360839925 0 3.612116957646601e-05 -0.0031799819573837314 0 5.848161491526378e-05 -0.0030345208107322875 0 -0.0010017746523160701 -0.0017996629828929678 0 -0.0010206382278643786 -0.0016831198316490351 0 -0.00094863423784653431 -0.0016976273323673912 0 -3.2337549225726516e-05 -0.0030804629590149464 0 5.848161491526378e-05 -0.0030345208107322875 0 3.612116957646601e-05 -0.0031799819573837314 0 -0.0009630380469301613 -0.0015817027807173039 0 -0.00094863423784653431 -0.0016976273323673912 0 -0.0010206382278643786 -0.0016831198316490351 0 0.00049032656150950786 -0.0022536970204698951 0 0.00051165817786564844 -0.0024217709109919669 0 0.00042844857078666332 -0.0023348407261996528 0 -0.00049309481839415173 -0.0022499398434840515 0 -0.00060187077979653031 -0.0022890316396322889 0 -0.00054630266261908517 -0.0021582270029968649 0 0.00038955581503627369 -0.00082067658870319882 0 0.00047314373138690799 -0.00080837391022802959 0 0.00045516947542140153 -0.0009179592268353375 0 -0.00038595285928637101 -0.00081699309458257334 0 -0.00036314318933099312 -0.00066408047530477118 0 -0.00031831670916926879 -0.00073097205325912539 0 -3.1355780351067476e-05 -0.00078838588664664224 0 1.2442016464293579e-05 -0.00067182872675385812 0 5.4590428466147501e-05 -0.00078647531455114167 0 -1.0272602027884159e-07 -0.0025186727437416408 0 -8.2749668778926759e-05 -0.0024728998203951353 0 -2.2965900663450604e-05 -0.0023627020903050269 0 -0.00012873752005961424 -0.0023633544528555077 0 -2.2965900663450604e-05 -0.0023627020903050269 0 -8.2749668778926759e-05 -0.0024728998203951353 0 0.0005629904142756538 -0.0017231282762345092 0 0.00055682311281725588 -0.001562715230139755 0 0.00062873026112250804 -0.0016655527465502047 0 0.00064938837956754437 -0.0015544078593925351 0 0.00062873026112250804 -0.0016655527465502047 0 0.00055682311281725588 -0.001562715230139755 0 -0.00064968435881524746 -0.0015543650367439688 0 -0.0006125683232300216 -0.0014317383113965233 0 -0.0005521264516201973 -0.0015053854394228691 0 -0.00054004737408075768 -0.0013537706210710074 0 -0.0005521264516201973 -0.0015053854394228691 0 -0.0006125683232300216 -0.0014317383113965233 0 8.9864916201220948e-05 -0.00067226711106879733 0 1.2442016464293571e-05 -0.00067182872675385812 0 5.1749401669948457e-05 -0.00057842266936202467 0 -1.4205782970563462e-07 -0.00054233009646307759 0 5.1749401669948457e-05 -0.00057842266936202467 0 1.2442016464293571e-05 -0.00067182872675385812 0 0.00034078299607773877 -0.001523955127091648 0 0.00029177862067687835 -0.0013810349221289569 0 0.00037718469727881924 -0.0013948770966571626 0 -1.0272602027884159e-07 -0.0025186727437416408 0 -8.3574122438149568e-05 -0.0026191665133696034 0 -8.2749668778926759e-05 -0.0024728998203951353 0 -0.00064968435881524746 -0.0015543650367439688 0 -0.00070021997650295139 -0.0014486500730601065 0 -0.0006125683232300216 -0.0014317383113965233 0 0.00064938837956754437 -0.0015544078593925351 0 0.00071691798778153514 -0.0016837797295894616 0 0.00062873026112250804 -0.0016655527465502047 0 -1.4205782970563462e-07 -0.00054233009646307759 0 4.7256097741751544e-05 -0.00046013941322116137 0 5.1749401669948457e-05 -0.00057842266936202467 0 8.9864916201220948e-05 -0.00067226711106879733 0 5.4590428466147501e-05 -0.00078647531455114167 0 1.2442016464293571e-05 -0.00067182872675385812 0 0.00035412309379530054 -0.0022191792492430871 0 0.00042844857078666332 -0.0023348407261996528 0 0.00034657955744526098 -0.0023893085755203997 0 -0.00047385601338721954 -0.0020433070786039032 0 -0.00054630266261908517 -0.0021582270029968649 0 -0.00058375333109100195 -0.0020419152367542803 0 0.00040973806734351015 -0.0010133654796759715 0 0.00045516947542140158 -0.0009179592268353375 0 0.00051112393213742881 -0.0010428333771077122 0 -0.00027886891962761303 -0.00082596089087470792 0 -0.00031831670916926879 -0.00073097205325912539 0 -0.00024595789919058662 -0.00067056406239519428 0 0.00031688496896544697 -0.001270659361920302 0 0.00037718469727881924 -0.0013948770966571626 0 0.00029177862067687835 -0.0013810349221289569 0 0.0011059619285502095 -0.0021202175634121895 0 0.0010503563994617416 -0.0021850162965318031 0 0.0010460364603523619 -0.0020720415024188003 0 1.5898000364824493e-08 -1.1738979595391684e-07 0 4.7011617867116013e-05 -6.2939878222594583e-05 0 3.7428434249541092e-05 -6.4768176999405747e-05 0 -0.00035646165830050024 -0.0033118334949688534 0 -0.00040750694725140901 -0.0031961494553296547 0 -0.0003262184847527994 -0.0031928823795411838 0 -0.0010017396202416586 -0.0012055290095548538 0 -0.0009315939527072695 -0.0011133912988713485 0 -0.00095812708913221118 -0.001217262268199591 0 0.00040864210972210583 -0.0025156611621300175 0 0.00048057963204707258 -0.0025878446420401864 0 0.00040983468833479957 -0.0026613403602900685 0 -0.00066271008398812099 -0.0021414907367060861 0 -0.00070627635370461381 -0.0022520014501110769 0 -0.00075196281688456401 -0.002152592417106938 0 0.00056496961502009433 -0.00097043357115206665 0 0.00057820812876701049 -0.00087658321691348219 0 0.0006473833673996172 -0.00099121723304344714 0 -0.00026512531171106072 -0.00056732199208158287 0 -0.00029377898430205275 -0.00051535020426302818 0 -0.00022648095372868916 -0.00044525730697309246 0 -0.00013884496759030573 -0.0021038901267180507 0 -5.3687625436856517e-05 -0.0020958564606110125 0 -8.0314023456385872e-05 -0.0022262761343759398 0 -0.00037795594194131821 -0.0013070158513222153 0 -0.00038539753962611825 -0.0014393012791187746 0 -0.00046159076825109854 -0.0014085590616394437 0 -8.8338863920917816e-05 -0.0012540008184627792 0 -0.00015614625059133676 -0.0011641940588461299 0 -7.466712561991079e-05 -0.0010964358745387817 0 -0.00033763645266240728 -0.0017515699523506308 0 -0.00023090274965827402 -0.0017788437428630966 0 -0.00031316737393077766 -0.0018890456584475369 0 0.00026365767956447087 -0.0030206032977215481 0 0.00030193629050308756 -0.0028753005722504817 0 0.00034660923002612581 -0.0030065801540067193 0 -0.000954302537565912 -0.0019743703276972478 0 -0.00087535272892798484 -0.0020155648336302721 0 -0.00094907637981711838 -0.0020883406155595735 0 0.00089081895839881987 -0.0012658960995168653 0 0.00080177016414576798 -0.0011840665771674676 0 0.00085546108288667632 -0.0011499189892631319 0 -6.9631187299154171e-05 -0.00017103593799468479 0 -0.00011692661516898221 -0.00027311092502724764 0 -9.6587314488934096e-05 -0.00018265158302172287 0 -0.00022796576057765297 -0.001922159253055471 0 -0.00031316737393077766 -0.0018890456584475369 0 -0.00023090274965827402 -0.0017788437428630966 0 
</DataArray>
</PointData>
<CellData Scalars="" Vectors="" Tensors="stress,">
<DataArray type="Float64" Name="stress" NumberOfComponents="9" format="ascii">
20767460.317010045 515198.2240626812 0 515198.2240626812 -101080983.31216145 0 0 0 -28109733.04830277 17043135.629851222 -1628755.5773767829 0 -1628755.5773767829 -99731760.018030167 0 0 0 -28941018.535862684 13802645.200763106 -111855.98890176415 0 -111855.98890176415 -100317097.60644078 0 0 0 -30280058.341987252 -82019.649364829063 2105648.7016196549 0 2105648.7016196549 -99587017.238767147 0 0 0 -34884162.910846174 20319203.892599106 -684320.54671534896 0 -684320.54671534896 -100910208.21948433 0 0 0 -28206851.514409781 19695526.64591074 -1028802.149184376 0 -1028802.149184376 -101309854.69086981 0 0 0 -28565014.815735698 12620698.426904321 463910.59243270755 0 463910.59243270755 -101116234.60373616 0 0 0 -30973437.661891103 12963966.86428988 1317803.5978857875 0 1317803.5978857875 -100435329.75348204 0 0 0 -30614977.011217237 15446737.423586726 -318466.18204915524 0 -318466.18204915524 -100048187.50298858 0 0 0 -29610507.527790546 5973787.4794664383 810385.90913367271 0 810385.90913367271 -98453401.856487989 0 0 0 -32367865.031957507 4942827.4945479631 2183626.8633164018 0 2183626.8633164018 -94147781.177011013 0 0 0 -31221733.78886199 -36195388.637770236 -17992981.815733541 0 -17992981.815733541 -95361135.445545182 0 0 0 -46044783.429160416 7975194.652756691 -43639.984228912726 0 -43639.984228912726 -99480349.079713345 0 0 0 -32026804.0494349 1047025.1539443153 -718.55869615077972 0 -718.55869615077972 -100236159.13206136 0 0 0 -34716196.892341077 4941927.913077116 -5479705.8813690692 0 -5479705.8813690692 -98654187.894425631 0 0 0 -32799290.99347192 8019044.2389159203 46755.749413967133 0 46755.749413967133 -99478205.313121796 0 0 0 -32010706.375971794 -55954867.524589948 39061842.932501353 0 39061842.932501353 -103957586.22413279 0 0 0 -55969358.812052958 1060459.6889381409 -19768.813807010651 0 -19768.813807010651 -100153744.33273983 0 0 0 -34682649.625330448 5031474.4575082064 5642850.6527691185 0 5642850.6527691185 -98275684.421104789 0 0 0 -32635473.487258822 -56254573.076432742 -39110261.870078713 0 -39110261.870078713 -104514328.73552585 0 0 0 -56269115.6341855 858495.46204823256 1994572.7993424684 0 1994572.7993424684 -98113336.78925252 0 0 0 -34039194.464521468 -31195602.419849746 -24633365.959931787 0 -24633365.959931787 -84218485.512633801 0 0 0 -40394930.776369244 12970181.426869631 -114494.90497767925 0 -114494.90497767925 -100049014.67362547 0 0 0 -30477591.63636446 1727685.0179948807 165244.58950304985 0 165244.58950304985 -100874770.87826395 0 0 0 -34701480.051094055 1720785.7928385735 -121754.21508136392 0 -121754.21508136392 -100901397.70997262 0 0 0 -34713214.170996904 -31918792.401505344 24454903.607211255 0 24454903.607211255 -84766138.529091477 0 0 0 -40839725.825708888 13266734.777847052 180051.54825431108 0 180051.54825431108 -99893501.066427231 0 0 0 -30319368.201003313 1108522.3187730312 -2055320.1393141374 0 -2055320.1393141374 -98484459.862748563 0 0 0 -34081578.140391409 21187087.805661678 -96242.712206870317 0 -96242.712206870317 -100627126.88466978 0 0 0 -27804013.677652836 12970394.518690169 2125511.0672000647 0 2125511.0672000647 -99111770.923250437 0 0 0 -30149481.741596162 12723358.252138078 -1666880.6791832745 0 -1666880.6791832745 -99668192.163184047 0 0 0 -30430691.868866146 -6932813.1629756391 -239685.98392987251 0 -239685.98392987251 -92927813.829213142 0 0 0 -34951219.447266042 13578101.800276279 21520.644937762128 0 21520.644937762128 -100016939.21307898 0 0 0 -30253593.094480991 2327112.3036263273 238352.89993900061 0 238352.89993900061 -99610804.708421141 0 0 0 -34049292.341678113 2430447.8028148739 1471175.1477235854 0 1471175.1477235854 -87604393.285301507 0 0 0 -29810880.918870296 -50255353.427757964 -22644842.53534865 0 -22644842.53534865 -93350814.149898216 0 0 0 -50262158.652179651 2419073.599801675 -305770.71525502205 0 -305770.71525502205 -99701383.33338137 0 0 0 -34048808.406752929 -50067344.348200016 22542560.99226705 0 22542560.99226705 -92999228.835564077 0 0 0 -50073300.614317432 13581380.37407136 -56793.078274662868 0 -56793.078274662868 -100328058.72007799 0 0 0 -30361337.421102285 2586105.3681859374 -1719953.3935687244 0 -1719953.3935687244 -87410476.71897912 0 0 0 -29688529.972777605 2064229.4663249254 -223680.41063714027 0 -223680.41063714027 -100653191.10299206 0 0 0 -34506136.57283318 -28285500.818584163 20375821.317801427 0 20375821.317801427 -80575938.599178717 0 0 0 -38101503.796217009 16051369.832044482 359064.98998343945 0 359064.98998343945 -99617526.25523293 0 0 0 -29248154.748116136 497534.00481402874 728173.9163287133 0 728173.9163287133 -96174458.202552795 0 0 0 -33486923.469208598 11065746.253397226 -593784.4797539115 0 -593784.4797539115 -98859474.123996735 0 0 0 -30727804.754709721 12216846.362303257 273953.21381735802 0 273953.21381735802 -99544060.837969184 0 0 0 -30564525.066483021 20951414.475602388 526189.18158122897 0 526189.18158122897 -100740112.86051369 0 0 0 -27926044.434719086 15793932.838693008 -1982157.4800408483 0 -1982157.4800408483 -100251346.9765515 0 0 0 -29560094.948250428 13856872.789791539 429867.10714429617 0 429867.10714429617 -100501198.32754007 0 0 0 -30325513.938212082 2153415.7205001116 2562113.2607719563 0 2562113.2607719563 -95642500.029081702 0 0 0 -32721179.508003533 8262623.0733423233 58622.617703557014 0 58622.617703557014 -100574382.06680965 0 0 0 -32309115.647713423 2359634.7239291668 162300.07053995132 0 162300.07053995132 -100705316.65554619 0 0 0 -34420988.676065683 -5970223.3159714043 -10214399.939063452 0 -10214399.939063452 -113526414.411174 0 0 0 -41823823.204500943 8411414.7554691434 -90270.239065766335 0 -90270.239065766335 -100659512.51687455 0 0 0 -32286834.216491878 -31667296.486761093 31272067.929987237 0 31272067.929987237 -93127882.724404231 0 0 0 -43678312.723907858 2453836.7393331528 -161424.44805173576 0 -161424.44805173576 -100554996.92365503 0 0 0 -34335406.06451273 -5085086.3442819715 10443977.937194929 0 10443977.937194929 -113332477.43077654 0 0 0 -41446147.321270451 -31935461.818679892 -31319081.166168187 0 -31319081.166168187 -92613970.697772473 0 0 0 -43592301.380758338 2778781.6746522039 -6647000.7557079643 0 -6647000.7557079643 -100164648.65724489 0 0 0 -34085053.443907455 -23897207.415881783 16059600.199833602 0 16059600.199833602 -99365696.676235706 0 0 0 -43142016.432241142 10282911.112042665 -1190935.4957035184 0 -1190935.4957035184 -98009410.883915782 0 0 0 -30704274.920155764 15521290.475062251 526286.39880281687 0 526286.39880281687 -99555833.069481373 0 0 0 -29412089.908046603 16756183.123539329 -492795.73945605755 0 -492795.73945605755 -100074313.32122135 0 0 0 -29161345.569188714 5287344.1780593395 945986.66317331791 0 945986.66317331791 -99982342.740364552 0 0 0 -33143249.49680686 4677707.6202368736 1453388.4542624503 0 1453388.4542624503 -98589834.075717807 0 0 0 -32869244.259418368 -19532812.412514172 -15535125.295881592 0 -15535125.295881592 -85391550.091830343 0 0 0 -36723526.876520567 -29728547.333369218 8892991.5175342541 0 8892991.5175342541 -89678934.71315375 0 0 0 -41792618.716283046 7006414.0356739759 -1544232.4410209656 0 -1544232.4410209656 -97433320.851153374 0 0 0 -31649417.385417819 6275775.9089077711 787489.25665327907 0 787489.25665327907 -94767187.359372139 0 0 0 -30971994.007662535 19066940.811039209 343532.05189889669 0 343532.05189889669 -100345165.68516636 0 0 0 -28447378.7059443 20919956.910524607 -135744.18378221989 0 -135744.18378221989 -100596987.15954018 0 0 0 -27886960.587155819 12777319.203687668 1929311.5578864217 0 1929311.5578864217 -97745962.550714493 0 0 0 -29739025.171459436 12259380.769611001 -1921782.3675296903 0 -1921782.3675296903 -97721275.241151094 0 0 0 -29911663.065039039 -14777572.876568854 -1720749.6485747546 0 -1720749.6485747546 -94360645.622601628 0 0 0 -38198376.47470963 9912612.6212399006 -179650.49158841372 0 -179650.49158841372 -100300349.38350344 0 0 0 -31635707.86679244 10838305.493786812 405155.94582593441 0 405155.94582593441 -99941168.088582516 0 0 0 -31186001.908178091 -1804185.1480107009 17909580.584802881 0 17909580.584802881 -99745669.022462994 0 0 0 -35542448.959665805 -2505864.1076705158 -18401908.856221806 0 -18401908.856221806 -97998904.152814448 0 0 0 -35176668.891169637 1250807.8681092858 -9162702.5223808177 0 -9162702.5223808177 -104824558.98979604 0 0 0 -36250812.892590463 -11471473.600028366 17472513.617944896 0 17472513.617944896 -92277969.606428176 0 0 0 -36312305.122259825 -7492936.2146157622 15103797.069847517 0 15103797.069847517 -104945432.21912122 0 0 0 -39353428.951807916 -15692869.228158176 -18868311.479473606 0 -18868311.479473606 -103160471.66859391 0 0 0 -41598669.313863218 19258898.716533422 884710.64845097065 0 884710.64845097065 -100644472.53502262 0 0 0 -28484950.8364712 16973467.982927561 -1717941.247787863 0 -1717941.247787863 -99121523.142513037 0 0 0 -28751819.305855036 8908161.9738066196 -2577217.3439766467 0 -2577217.3439766467 -101014748.71734989 0 0 0 -32237305.360239983 -289692.36315518618 5004054.251777932 0 5004054.251777932 -98801330.891998023 0 0 0 -34681858.139303625 15863507.63596797 247315.55544054508 0 247315.55544054508 -99991850.998329401 0 0 0 -29444920.176826239 5193963.9967706203 -2030242.6748522818 0 -2030242.6748522818 -94085142.365495086 0 0 0 -31111912.429053664 6568616.3597438335 -891253.13554278016 0 -891253.13554278016 -98311985.037955761 0 0 0 -32110179.037374258 -35217972.483283274 17331791.994408771 0 17331791.994408771 -94380590.38079454 0 0 0 -45359497.002427243 14069022.53964442 532022.31237530708 0 532022.31237530708 -100321059.51604021 0 0 0 -30188212.941738546 9355389.4356663227 -535333.89189298451 0 -535333.89189298451 -99308015.507094383 0 0 0 -31483419.124999523 20203131.006067574 885430.6106954217 0 885430.6106954217 -100183178.51005089 0 0 0 -27993016.626394212 16398555.498954892 -1765976.990861088 0 -1765976.990861088 -100208255.20558763 0 0 0 -29333394.897321463 10551783.876350403 -909200.6317768842 0 -909200.6317768842 -100251451.91424668 0 0 0 -31394883.813263655 540181.5497456193 4841727.1639194787 0 4841727.1639194787 -98264765.561255991 0 0 0 -34203604.404028594 19898219.186977267 -488137.27113252878 0 -488137.27113252878 -101655945.5268445 0 0 0 -28615204.21895349 2784171.7373664379 -721862.36907915026 0 -721862.36907915026 -97007388.594620466 0 0 0 -32978125.900038838 -32857061.713341683 7305585.2679745518 0 7305585.2679745518 -80466089.308493331 0 0 0 -39663102.857642248 19858268.960852653 223079.22193944454 0 223079.22193944454 -99852300.966110379 0 0 0 -27997911.201840371 1869261.6289391518 1434047.2742236033 0 1434047.2742236033 -94659856.377830982 0 0 0 -32476708.162112117 20343932.46069932 179298.38238203526 0 179298.38238203526 -99999959.770715237 0 0 0 -27879609.558505774 5178123.4824336767 2062554.0936177969 0 2062554.0936177969 -95459341.815401316 0 0 0 -31598426.416538596 5906756.1766945124 -1452180.3486174941 0 -1452180.3486174941 -96041289.654029965 0 0 0 -31547086.717067361 -29826824.462414168 4055480.0350344889 0 4055480.0350344889 -85697291.338217646 0 0 0 -40433440.530221142 19330654.459226552 -298135.20665258169 0 -298135.20665258169 -101473608.45964327 0 0 0 -28750033.900145944 2032633.2126970754 -187013.7872774601 0 -187013.7872774601 -99202692.108152509 0 0 0 -34009520.613409474 -48168791.698251411 17712060.284617431 0 17712060.284617431 -89466385.535858154 0 0 0 -48172312.031938344 15705821.454149485 149906.68584775084 0 149906.68584775084 -100258077.26646471 0 0 0 -29593289.534310341 2437249.5778555674 221424.2877419889 0 221424.2877419889 -86685617.532983825 0 0 0 -29486928.784294862 9152955.0739833117 -2232629.0206092298 0 -2232629.0206092298 -98889640.365778685 0 0 0 -31407839.852128506 20704836.358316064 321749.36974716187 0 321749.36974716187 -100159464.38304234 0 0 0 -27809119.808653951 -14284819.304634079 3877851.0194774866 0 3877851.0194774866 -86854518.410514921 0 0 0 -35398768.200302139 9137819.7747833729 1571440.6483933628 0 1571440.6483933628 -98533911.923589468 0 0 0 -31288632.252082109 10008482.055001825 -2044452.7060553432 0 -2044452.7060553432 -96954102.190953553 0 0 0 -30430967.047583252 -24374921.885291398 5474812.7734222077 0 5474812.7734222077 -92734263.685548753 0 0 0 -40988214.949794054 19937540.526750565 360555.90949571133 0 360555.90949571133 -100416120.59092903 0 0 0 -28167503.022462368 8661729.9757145643 1143927.1226562262 0 1143927.1226562262 -96196795.67273134 0 0 0 -30637272.99395597 17217959.160833716 -1653352.7265963405 0 -1653352.7265963405 -100915589.53078008 0 0 0 -29294170.629481196 20783080.88802126 711167.40480327606 0 711167.40480327606 -100449723.41871345 0 0 0 -27883324.885742396 5822547.81273669 2626836.6421834826 0 2626836.6421834826 -98243588.71174565 0 0 0 -32347364.314653099 12435112.134891629 264111.19364272803 0 264111.19364272803 -101164981.12194252 0 0 0 -31055454.145467758 21249962.826715946 -346850.38060961524 0 -346850.38060961524 -100750311.49319482 0 0 0 -27825122.033267736 16630109.825831532 1581261.6084302664 0 1581261.6084302664 -100943114.40871418 0 0 0 -29509551.604008913 15107874.521676086 -932253.32477533817 0 -932253.32477533817 -100806954.88789287 0 0 0 -29994678.128175952 6310809.5004570484 -1459857.7547526117 0 -1459857.7547526117 -96288706.048755765 0 0 0 -31492263.791904569 5661726.0301359296 2924437.7634030329 0 2924437.7634030329 -94932624.162936926 0 0 0 -31244814.34648031 -36217301.187332429 -25248487.291002259 0 -25248487.291002259 -96393137.547078609 0 0 0 -46413653.557043858 13403284.765210092 -186463.68042778969 0 -186463.68042778969 -99286965.139130592 0 0 0 -30059288.130872309 5577555.3810956478 230563.80967471004 0 230563.80967471004 -98856259.726211548 0 0 0 -32647546.520790577 5027643.0957603455 -250043.08793711662 0 -250043.08793711662 -99240119.125329494 0 0 0 -32974366.610349298 -35136261.947491467 26068414.685258642 0 26068414.685258642 -95376880.693591043 0 0 0 -45679599.924378872 13724661.981617451 288065.36314356327 0 288065.36314356327 -99145120.838926315 0 0 0 -29897160.60005784 5818258.3706946075 -2935605.7336659133 0 -2935605.7336659133 -95393691.715868652 0 0 0 -31351401.670810908 20795710.282663703 -474426.31912849471 0 -474426.31912849471 -101130485.31011343 0 0 0 -28117171.259607434 16901772.92543751 1669745.316704452 0 1669745.316704452 -99756782.955381751 0 0 0 -28999253.510480344 13792262.759922147 -36244.809067964554 0 -36244.809067964554 -100243074.59618069 0 0 0 -30257784.14269042 380109.81540459394 -1755381.8649994619 0 -1755381.8649994619 -98867491.947511435 0 0 0 -34470583.746237397 14146439.517563462 -1454929.9751344621 0 -1454929.9751344621 -99084418.152815104 0 0 0 -29728292.522338033 18409383.544763446 945350.12757658958 0 945350.12757658958 -99605914.565143585 0 0 0 -28418785.85713315 -7796896.6864588559 9927519.1399927586 0 9927519.1399927586 -98318673.731206685 0 0 0 -37140449.646182954 5363522.7815345526 -3669252.1862283945 0 -3669252.1862283945 -100755678.09999359 0 0 0 -33387254.361460686 12127449.979520202 -1653314.0040257573 0 -1653314.0040257573 -99630523.608170748 0 0 0 -30626075.770027518 -5592961.4421395957 9956854.6995615289 0 9956854.6995615289 -92975673.264001101 0 0 0 -34499022.147149205 17827287.373884559 735593.02378427982 0 735593.02378427982 -100320524.38416243 0 0 0 -28872632.953597188 9400790.1060523391 -2972170.7725049853 0 -2972170.7725049853 -100098017.44654703 0 0 0 -31744029.569173127 18649163.494983554 -1382773.2333749533 0 -1382773.2333749533 -100396038.06439519 0 0 0 -28611406.099294066 19997511.799693465 891316.36902010441 0 891316.36902010441 -100630030.4914037 0 0 0 -28221381.542098641 5364484.3820912242 2748441.7449350953 0 2748441.7449350953 -100591922.01931155 0 0 0 -33329603.173027039 10221487.344952643 -1674504.0545063317 0 -1674504.0545063317 -100808497.03496134 0 0 0 -31705453.391503096 19374334.746875018 -684247.6269698143 0 -684247.6269698143 -99810188.270625517 0 0 0 -28152548.733312637 18544305.801255226 -738156.0975946784 0 -738156.0975946784 -100257034.29370952 0 0 0 -28599454.972359061 11447615.473394394 1964874.9163145348 0 1964874.9163145348 -98729770.362016678 0 0 0 -30548754.211017847 11248800.424254179 1437023.3593429327 0 1437023.3593429327 -99097317.184657812 0 0 0 -30746980.866141319 8725953.6502034664 433872.51493109687 0 433872.51493109687 -98542709.709308863 0 0 0 -31435864.620686769 7579873.7211101055 1837192.2910660505 0 1837192.2910660505 -100675614.4944911 0 0 0 -32583509.270683289 -13844023.559657095 -8670455.9710156918 0 -8670455.9710156918 -93860798.925932497 0 0 0 -37696687.869956344 -9695007.5880627334 -10440509.910336152 0 -10440509.910336152 -91623678.550739527 0 0 0 -35461540.148580804 20581738.360813916 180552.19127333164 0 180552.19127333164 -101713712.81329083 0 0 0 -28396191.058366954 13710186.018102288 631485.70141460001 0 631485.70141460001 -100705113.38600039 0 0 0 -30448224.578764439 20564554.530157089 77132.461285173893 0 77132.461285173893 -100194215.22277069 0 0 0 -27870381.242414713 7006523.7718171477 1473654.8954032063 0 1473654.8954032063 -96607704.143075109 0 0 0 -31360413.129940212 6595460.1900938153 -2170019.1924296618 0 -2170019.1924296618 -97709103.496830702 0 0 0 -31889775.157357991 -22884766.806190386 1264658.6596014081 0 1264658.6596014081 -85743674.524308085 0 0 0 -38019954.46567446 20396817.616932154 -162853.71270622313 0 -162853.71270622313 -101331757.25026083 0 0 0 -28327228.87166512 20600722.576890469 -312191.05573253334 0 -312191.05573253334 -101637945.86303902 0 0 0 -28363028.15015173 -19302292.435485795 10825433.681451648 0 10825433.681451648 -87271086.569813818 0 0 0 -37300682.651854858 7519591.6076288223 -1396502.7440001518 0 -1396502.7440001518 -98919189.44756937 0 0 0 -31989859.243978977 19441721.317479163 481326.89453113079 0 481326.89453113079 -99800279.685769677 0 0 0 -28125495.428901881 7659828.3649481535 937346.83181859553 0 937346.83181859553 -97127489.67229557 0 0 0 -31313681.457571507 13715286.19991672 -1017117.3626019359 0 -1017117.3626019359 -98663145.354521751 0 0 0 -29731750.704111934 13902671.822823048 779689.82884413004 0 779689.82884413004 -99689652.77862525 0 0 0 -30025443.33453095 -6170485.4015996903 11948724.291178189 0 11948724.291178189 -99949203.298115939 0 0 0 -37141891.044900462 -3821214.3938603997 -11961683.252447546 0 -11961683.252447546 -103029590.35210973 0 0 0 -37397781.66108954 12454922.349568844 -1876619.7335851789 0 -1876619.7335851789 -99702491.894340992 0 0 0 -30536649.340670466 19760429.737855911 686380.1690800786 0 686380.1690800786 -100190867.54765797 0 0 0 -28150653.233430624 -5258829.5491261482 7540279.4474555999 0 7540279.4474555999 -91153245.796880364 0 0 0 -33744226.371102303 10898601.798935652 -541038.4486143589 0 -541038.4486143589 -99714528.081813812 0 0 0 -31085574.199007392 19152940.770912975 -1006266.6417537332 0 -1006266.6417537332 -101444492.38277072 0 0 0 -28802043.064150244 15599725.086574316 -487529.83901280165 0 -487529.83901280165 -99264311.093307495 0 0 0 -29282605.102356434 6665995.8634655476 850977.82398426533 0 850977.82398426533 -99341515.03196311 0 0 0 -32436431.708974123 13504056.540817022 -232353.49202233553 0 -232353.49202233553 -100344202.38344097 0 0 0 -30394051.044918299 6399498.7308498621 441576.88188558817 0 441576.88188558817 -99969831.145766735 0 0 0 -32749616.345220923 15674778.495545864 -942493.77003093879 0 -942493.77003093879 -99171812.566953182 0 0 0 -29223961.9249928 13299347.276331425 -764947.18318927288 0 -764947.18318927288 -100157895.2441678 0 0 0 -30400491.788742781 12977120.453139398 1034146.8671972752 0 1034146.8671972752 -100137334.53819224 0 0 0 -30506074.929768469 13744997.294173062 938417.84898149967 0 938417.84898149967 -98719661.896833003 0 0 0 -29741132.610931098 4692449.1393629313 7738671.1090019941 0 7738671.1090019941 -98546722.150526613 0 0 0 -32848995.553907305 -2835916.3653598279 11556072.487190604 0 11556072.487190604 -102765763.76625231 0 0 0 -36960588.046064243 -2179979.7033299208 -11945202.029903371 0 -11945202.029903371 -98134938.803203464 0 0 0 -35110221.477286726 -4864668.9300121665 -12007841.412898052 0 -12007841.412898052 -99243899.671514213 0 0 0 -36437999.010534227 5731103.5821073055 232077.70418643951 0 232077.70418643951 -100758919.70711136 0 0 0 -33259735.643751621 -16564865.086062759 27447607.167620085 0 27447607.167620085 -133595337.40174305 0 0 0 -52556070.870732039 -18458911.1184806 30888030.846731693 0 30888030.846731693 -106104105.61954008 0 0 0 -43597055.85830722 5309789.2417864799 -97363.07556951046 0 -97363.07556951046 -99610292.734652519 0 0 0 -33005176.222503185 5457256.52044487 117366.27299236506 0 117366.27299236506 -99527029.834663868 0 0 0 -32924420.659976721 -18569068.363754109 -30824690.844110087 0 -30824690.844110087 -105944772.39100634 0 0 0 -43579844.264166139 -15045895.546741158 -26888985.236973949 0 -26888985.236973949 -132925101.87703249 0 0 0 -51789849.098320782 5693209.1784208715 -263889.60493326187 0 -263889.60493326187 -100889048.20434895 0 0 0 -33318543.659074932 6670021.6769816875 -1505527.0498361588 0 -1505527.0498361588 -98279368.523054838 0 0 0 -32063271.396125555 20216431.813095093 367192.08829253912 0 367192.08829253912 -99855510.436746836 0 0 0 -27873677.518278003 -21259362.957195982 7326461.63493146 0 7326461.63493146 -84108651.138304278 0 0 0 -36878804.933425091 6465169.5558150411 1793518.3908894956 0 1793518.3908894956 -96870555.057549834 0 0 0 -31641884.925607264 19948121.927033544 -1015622.1934559345 0 -1015622.1934559345 -100528725.87761158 0 0 0 -28203211.382702351 18853564.606845856 1278046.8151479214 0 1278046.8151479214 -100828606.22433949 0 0 0 -28691264.56612277 10111873.129724741 1007817.7981290296 0 1007817.7981290296 -100906822.97535396 0 0 0 -31778232.445970178 8435608.0326835364 -2351340.144649595 0 -2351340.144649595 -99931333.437662601 0 0 0 -32023503.891742721 1555899.6427919543 -583919.05254304409 0 -583919.05254304409 -96089088.852120921 0 0 0 -33086616.223265085 -45836939.095924482 5001120.1916603222 0 5001120.1916603222 -85140184.816157535 0 0 0 -45841993.369228698 19425771.698322535 114600.23648327237 0 114600.23648327237 -100172200.96160316 0 0 0 -28261250.242148399 2339446.1874734764 886568.54861629009 0 886568.54861629009 -90431835.738641873 0 0 0 -30832336.342908919 4239597.7879473418 18343706.309391327 0 18343706.309391327 -110246513.93230295 0 0 0 -37102420.650524467 -40811402.488652468 -41066663.983167864 0 -41066663.983167864 -116911765.29052942 0 0 0 -55203108.722713679 -40409938.253711045 40963449.828981668 0 40963449.828981668 -117110278.32481255 0 0 0 -55132075.802483246 2156739.4452493191 101178.58300963044 0 101178.58300963044 -100624702.01832819 0 0 0 -34463786.900577545 5737237.2837758064 -29412.67524600029 0 -29412.67524600029 -99265232.936523438 0 0 0 -32734798.478461266 2157461.6759691238 -130460.4266961813 0 -130460.4266961813 -100570054.55363655 0 0 0 -34444407.507183552 4063689.0439824164 -18157133.298658147 0 -18157133.298658147 -110803827.57929951 0 0 0 -37359048.487360984 5689326.1834582686 13328.219100832939 0 13328.219100832939 -99337614.614845276 0 0 0 -32776900.950985491 19828597.190861955 -58515.468134880066 0 -58515.468134880066 -100145897.77197015 0 0 0 -28111055.203387961 1837413.4878060818 871473.20332599059 0 871473.20332599059 -98172991.678652048 0 0 0 -33717452.366796136 2620950.7901823521 -659771.3464169763 0 -659771.3464169763 -94314578.511533499 0 0 0 -32092769.702472925 -32056038.644573323 -4716262.9955096357 0 -4716262.9955096357 -80451323.017158061 0 0 0 -39377576.581605986 -8806252.2991780341 17585486.552661031 0 17585486.552661031 -99347090.200368345 0 0 0 -37853669.874841243 2105087.7350267172 -10528229.808717281 0 -10528229.808717281 -99208586.336265951 0 0 0 -33986224.510433793 17504256.056672707 -785105.05064046383 0 -785105.05064046383 -99359490.936668545 0 0 0 -28649332.20799838 12790821.663688421 1326431.4937384371 0 1326431.4937384371 -98492483.501870632 0 0 0 -29995581.643363953 5790312.9835283756 4298337.8547968026 0 4298337.8547968026 -99738089.800732017 0 0 0 -32881721.886021137 -13835825.619609056 -12356847.340953544 0 -12356847.340953544 -98961093.666612506 0 0 0 -39478921.750177562 20696296.261593342 -15277.364800557494 0 -15277.364800557494 -100473771.02141047 0 0 0 -27922116.165935755 10284069.817961141 2353352.1837788224 0 2353352.1837788224 -96685266.09905988 0 0 0 -30240418.698384479 10292637.563075185 -1836714.1604829431 0 -1836714.1604829431 -96590891.986161083 0 0 0 -30204389.048080087 -21896228.493467659 290532.76873448491 0 290532.76873448491 -91913771.392632395 0 0 0 -39833499.960135013 5545165.5377121419 -781715.92070156336 0 -781715.92070156336 -98138078.60688892 0 0 0 -32407519.57421191 17395714.187218904 575345.67986255884 0 575345.67986255884 -99890099.16450882 0 0 0 -28873034.742051363 -21073200.322238259 15596117.544714997 0 15596117.544714997 -86322332.797238573 0 0 0 -37588436.591816895 6021649.4146670103 -967849.52158200741 0 -967849.52158200741 -99427819.192326844 0 0 0 -32692159.422180891 15106009.1965909 -1627504.8050957918 0 -1627504.8050957918 -99468505.518140554 0 0 0 -29526873.712542295 18203052.890441179 983190.90117251873 0 983190.90117251873 -100604705.55566645 0 0 0 -28840578.432829142 -469959.32727432251 7391563.4652941823 0 7391563.4652941823 -95755133.309098899 0 0 0 -33678782.422730654 8946742.5039675832 -3593371.0996260047 0 -3593371.0996260047 -100182334.53976744 0 0 0 -31932457.212529957 10641328.509522498 -561126.66203927994 0 -561126.66203927994 -99969266.995706737 0 0 0 -31264778.470164478 14191440.964590788 679153.98868815601 0 679153.98868815601 -99242471.203673363 0 0 0 -29767860.583678961 17398542.811895907 -1289174.2844034433 0 -1289174.2844034433 -101132697.9838053 0 0 0 -29306954.310168445 16880026.036444023 -858904.51017260551 0 -858904.51017260551 -100591191.00746906 0 0 0 -29298907.739858791 16259226.492491722 -1511895.6736138761 0 -1511895.6736138761 -99208401.053442001 0 0 0 -29032211.09633255 18741172.001929045 1067071.3862575293 0 1067071.3862575293 -99527944.02385062 0 0 0 -28275370.207672596 -2642616.9736792296 7032319.3104204237 0 7032319.3104204237 -100019182.94873777 0 0 0 -35931629.972845957 5510000.6400699615 -3785032.5194384381 0 -3785032.5194384381 -101192778.59906983 0 0 0 -33488972.285650134 8800707.7813397348 188331.54489481449 0 188331.54489481449 -99111083.425368845 0 0 0 -31608631.475410372 5397487.561568737 -12362.595282666385 0 -12362.595282666385 -99489052.729444504 0 0 0 -32932047.808756828 -3262586.2701739073 15828997.854841769 0 15828997.854841769 -104675103.2408362 0 0 0 -37778191.328853518 5457223.9156022072 -29148.642347455025 0 -29148.642347455025 -99577140.397127867 0 0 0 -32941970.768533945 -36454868.182027563 34905483.963167824 0 34905483.963167824 -114701491.07007167 0 0 0 -52904725.738234743 -36929109.074912578 -33928847.421467647 0 -33928847.421467647 -115196072.80073701 0 0 0 -53243813.656477347 8898394.8570549488 -159244.57838445902 0 -159244.57838445902 -99152062.667169094 0 0 0 -31588783.733540058 -3025263.5566995144 -15871008.664940216 0 -15871008.664940216 -105224652.38234508 0 0 0 -37887470.578665584 12675934.481232494 -55478.738405823708 0 -55478.738405823708 -101172882.74573582 0 0 0 -30973931.892576128 11377999.458213687 -195931.77577187866 0 -195931.77577187866 -100850046.30645823 0 0 0 -31315216.396885633 18632707.271591187 -1095046.8578221202 0 -1095046.8578221202 -100696562.03696132 0 0 0 -28722349.167879343 21236200.426658556 102941.35000300407 0 102941.35000300407 -100577269.44840825 0 0 0 -27769374.157612398 12837511.320279956 1782786.0381826758 0 1782786.0381826758 -99434153.020442009 0 0 0 -30308824.595056891 13150365.69482255 -1971559.3359331824 0 -1971559.3359331824 -98940498.910025835 0 0 0 -30026546.62532115 -7433009.7938976828 669974.46653702855 0 669974.46653702855 -93089475.214667216 0 0 0 -35182869.752997719 16980853.519310951 -668954.82057788968 0 -668954.82057788968 -100285026.23998976 0 0 0 -29156460.452237606 9420916.0425037742 1352119.0459904671 0 1352119.0459904671 -99655980.683703423 0 0 0 -31582272.624419868 6343850.7504070103 3170785.2335278094 0 3170785.2335278094 -100524743.91122824 0 0 0 -32963312.60628745 -8995240.5924814045 -12456851.357427007 0 -12456851.357427007 -88994072.069728583 0 0 0 -34296259.431773499 17645346.116076469 -1814074.8547390699 0 -1814074.8547390699 -99968553.541729212 0 0 0 -28813122.59897846 19915875.551817179 903548.49994245172 0 903548.49994245172 -101000296.70780039 0 0 0 -28379547.404594183 5543907.684351325 2416092.1628525704 0 2416092.1628525704 -98298718.502701521 0 0 0 -32464183.786422551 12682033.479444921 -1267973.3468698263 0 -1267973.3468698263 -100423921.84791541 0 0 0 -30709660.928964674 10315209.746954679 -1112483.5564202666 0 -1112483.5564202666 -100192829.08375001 0 0 0 -31457166.767878294 -6396942.9874570817 13936646.153642446 0 13936646.153642446 -92487509.892627001 0 0 0 -34609558.508029446 16173922.279720902 753774.00644814968 0 753774.00644814968 -100145240.70235229 0 0 0 -29389961.447921157 6361072.3474802375 -5500261.5508739054 0 -5500261.5508739054 -100504908.21352768 0 0 0 -32950342.55311662 19591299.734548092 -610390.5014077127 0 -610390.5014077127 -101067642.01329064 0 0 0 -28516719.797559977 18725821.016031146 614216.38937723637 0 614216.38937723637 -101426906.4070034 0 0 0 -28945379.886840463 18165851.177750826 221163.80410987139 0 221163.80410987139 -101602477.69454098 0 0 0 -29202819.280876398 20512394.431689858 635715.86158485711 0 635715.86158485711 -101295254.14620304 0 0 0 -28274000.900079727 20435909.217366219 578842.72042813897 0 578842.72042813897 -101098058.81345892 0 0 0 -28231752.358632326 2517223.4242180586 6990809.8823839873 0 6990809.8823839873 -101519394.03230929 0 0 0 -34650759.712831914 -24227495.468065739 -17143140.261045612 0 -17143140.261045612 -99053944.882288605 0 0 0 -43148504.12262404 17201968.636930704 284498.43980668485 0 284498.43980668485 -101322578.12567091 0 0 0 -29442213.321058989 15559380.848590493 -250836.57245230675 0 -250836.57245230675 -99865990.288442373 0 0 0 -29507313.303948283 2031679.5118498802 253108.34552389383 0 253108.34552389383 -100435646.82864094 0 0 0 -34441388.560876846 663677.10047209263 -326165.47636920214 0 -326165.47636920214 -95751486.087396622 0 0 0 -33280733.145423591 -29098070.746006437 -20116306.098171081 0 -20116306.098171081 -80971110.790837228 0 0 0 -38524213.537895277 5324428.1392366886 -1627338.0483406559 0 -1627338.0483406559 -97052836.687987328 0 0 0 -32104942.992062569 -32527971.754918739 4706129.4885373451 0 4706129.4885373451 -87296147.323025823 0 0 0 -41938441.67728059 19660396.001457557 203328.65182256699 0 203328.65182256699 -100370841.95924628 0 0 0 -28248656.085226193 6113708.4660800695 1088669.928562019 0 1088669.928562019 -93270719.332354784 0 0 0 -30504953.803196073 19899605.513086379 518567.94152480364 0 518567.94152480364 -101263045.88123216 0 0 0 -28477204.128851116 8920402.1990536302 -1186080.9300744236 0 -1186080.9300744236 -99483167.037807524 0 0 0 -31696967.693563893 4797996.8315487504 -248699.0527985096 0 -248699.0527985096 -100026198.25262907 0 0 0 -33329870.497378111 18531342.689890385 -137418.50883132577 0 -137418.50883132577 -99933913.045141697 0 0 0 -28490899.624337912 1908349.4920156335 421593.91639882326 0 421593.91639882326 -97169158.673864052 0 0 0 -33341283.213646855 1977212.4929942584 -1088693.1782984734 0 -1088693.1782984734 -88619354.835213035 0 0 0 -30324749.819776583 -45840052.94511012 -11260428.635684023 0 -11260428.635684023 -85143707.354417488 0 0 0 -45844316.104834653 15666394.341832131 -1190044.4968415499 0 -1190044.4968415499 -100207310.2859202 0 0 0 -29589320.580430537 16010104.123939276 1295410.6701078266 0 1295410.6701078266 -99695388.577312946 0 0 0 -29289849.558680773 3299001.3384928703 7979591.1643525437 0 7979591.1643525437 -98969344.337286711 0 0 0 -33484620.049577773 3690414.0703512207 -7471522.5028097332 0 -7471522.5028097332 -98671875.145374879 0 0 0 -33243511.376258247 -9633317.1425775588 39766357.46359814 0 39766357.46359814 -155125441.12742698 0 0 0 -57665565.394501582 -43214458.807852134 -39946913.134392329 0 -39946913.134392329 -118672675.12478742 0 0 0 -56660496.876423821 -43312831.353328757 40132794.126010127 0 40132794.126010127 -119003015.83501031 0 0 0 -56810546.515918665 -9399297.4394286722 -39584522.932775885 0 -39584522.932775885 -154903771.17209318 0 0 0 -57506074.014032647 2067115.6028895378 320198.43438303471 0 320198.43438303471 -100608002.30436802 0 0 0 -34489310.345517397 3932093.6104909182 -18477.237144470215 0 -18477.237144470215 -100215142.50177956 0 0 0 -33699067.111950994 3810984.5430854559 14627.627144575119 0 14627.627144575119 -100320348.62605238 0 0 0 -33778277.429038644 2111728.5856657028 -272537.19414031506 0 -272537.19414031506 -100535524.81053066 0 0 0 -34448328.678702354 6263002.1685575247 -51903.64455974102 0 -51903.64455974102 -100557068.58698463 0 0 0 -33002923.24644959 9045698.0290796757 35038.900884091854 0 35038.900884091854 -100574839.804461 0 0 0 -32035199.621383667 7069467.7792389393 -266821.90944910049 0 -266821.90944910049 -99217036.411408663 0 0 0 -32251649.021259308 -3271961.3357655406 12072215.903014332 0 12072215.903014332 -103978192.89085686 0 0 0 -37537553.979317784 11760858.550139189 191193.61325842142 0 191193.61325842142 -99085837.981636524 0 0 0 -30563742.80102396 -30785287.783473097 -26304841.771093883 0 -26304841.771093883 -105811290.06104086 0 0 0 -47808802.245579891 -3381777.1591047347 16565327.919463813 0 16565327.919463813 -109424814.54649282 0 0 0 -39482307.096959144 -9636864.2050617784 -26753222.049194917 0 -26753222.049194917 -94709691.005488068 0 0 0 -36521294.323692456 19142993.168891072 -754572.40658387542 0 -754572.40658387542 -101541576.68715096 0 0 0 -28839504.231390953 12374463.6190328 1304301.6534185112 0 1304301.6534185112 -99746922.212990522 0 0 0 -30580360.507885158 19746225.083091736 841582.05004416406 0 841582.05004416406 -100303768.56003428 0 0 0 -28195140.216929913 14462559.989205092 -1808570.9431473017 0 -1808570.9431473017 -98654638.589229763 0 0 0 -29467227.510008723 9046304.0859753042 -1328266.9502878785 0 -1328266.9502878785 -100467274.72828844 0 0 0 -31997339.724809632 -8550567.1720476151 6341864.5156871341 0 6341864.5156871341 -96675744.3761518 0 0 0 -36829209.04186976 13872252.819241166 -136074.63964521885 0 -136074.63964521885 -101387095.3977043 0 0 0 -30630194.902462065 15978923.336195111 -181860.45457732677 0 -181860.45457732677 -100457171.30518198 0 0 0 -29567386.78914541 19947190.711480509 911187.74991250038 0 911187.74991250038 -101338599.65477043 0 0 0 -28486993.130151618 21134207.274514437 -110506.09126746655 0 -110506.09126746655 -100184417.71589565 0 0 0 -27667573.654483557 9965545.3703284264 2162699.0881462097 0 2162699.0881462097 -99191300.165158749 0 0 0 -31229014.178190589 9686751.4144465923 -2104567.5304359198 0 -2104567.5304359198 -99139478.557062387 0 0 0 -31308454.499915481 -11304677.617435843 -1285254.9472317398 0 -1285254.9472317398 -87661146.776617825 0 0 0 -34638038.537918776 19871583.718165874 897161.12057386339 0 897161.12057386339 -100870962.43189478 0 0 0 -28349782.549805164 18631857.798835278 -1394377.5083632171 0 -1394377.5083632171 -100447130.87741232 0 0 0 -28635345.577502251 19238232.605090022 1314222.1753437519 0 1314222.1753437519 -100654607.8398428 0 0 0 -28495731.332163453 9290480.0556725264 2478662.5002897978 0 2478662.5002897978 -98817351.94166249 0 0 0 -31334405.160096526 10941468.513458014 -2139558.1789100319 0 -2139558.1789100319 -100020603.99831915 0 0 0 -31177697.419701338 17772986.101908684 -966144.05880331993 0 -966144.05880331993 -100146602.51876736 0 0 0 -28830765.745900631 12962426.151177645 1372582.834564209 0 1372582.834564209 -100071750.08806038 0 0 0 -30488263.377908945 7495968.1769447923 3895500.8067539036 0 3895500.8067539036 -100133419.66675234 0 0 0 -32423108.021432698 -2827564.2170713842 -10537055.505551741 0 -10537055.505551741 -94146305.786301076 0 0 0 -33940854.501180351 12420442.426688328 -385707.06247186661 0 -385707.06247186661 -100593005.41968675 0 0 0 -30860397.047549412 15580341.390430927 -769429.28563141823 0 -769429.28563141823 -100395778.92228913 0 0 0 -29685403.13615036 12425814.716749907 1134790.9107022882 0 1134790.9107022882 -99142600.975539446 0 0 0 -30350875.190576196 3826088.631059587 7546379.7532476783 0 7546379.7532476783 -102421931.06160688 0 0 0 -34508544.850691617 -10417003.787253425 -12521928.700981826 0 -12521928.700981826 -97153509.673001528 0 0 0 -37649679.711089239 19941376.671809644 -782461.66476368904 0 -782461.66476368904 -101610064.62516779 0 0 0 -28584040.783675343 12766017.984929979 -1673792.0020515323 0 -1673792.0020515323 -98000419.879577696 0 0 0 -29832040.663126767 -15771672.885430098 9711071.0196155235 0 9711071.0196155235 -97150554.426286817 0 0 0 -39522779.559100926 19073885.853726625 683337.47250072658 0 683337.47250072658 -99939614.436484814 0 0 0 -28303005.003965616 7073925.0872247815 -1398617.1790808141 0 -1398617.1790808141 -99664789.04813379 0 0 0 -32406802.386318147 15539716.419886112 1108812.4608949423 0 1108812.4608949423 -98757005.101569176 0 0 0 -29126051.038589239 15868061.440962791 -1045276.7994406819 0 -1045276.7994406819 -98814078.351345539 0 0 0 -29031105.918633938 -4809630.6514264941 -9946520.0866098106 0 -9946520.0866098106 -102206824.94303483 0 0 0 -37455759.458061457 -3522835.2618517578 9201584.3548379391 0 9201584.3548379391 -102607452.86717361 0 0 0 -37145600.845158905 20924991.552407742 112988.45272776484 0 112988.45272776484 -101125155.03463316 0 0 0 -28070057.218778729 14397916.760984778 655132.27324703336 0 655132.27324703336 -100999245.16386127 0 0 0 -30310464.94100666 15103669.203688562 144399.21221301705 0 144399.21221301705 -100897683.71768808 0 0 0 -30027905.079899788 17593568.285178781 -1419413.644371748 0 -1419413.644371748 -100243579.06080651 0 0 0 -28927503.771469593 19113712.326405525 1181523.8607735336 0 1181523.8607735336 -99603260.67751503 0 0 0 -28171341.922888279 16594204.255475044 -1713576.3249996901 0 -1713576.3249996901 -100082906.67610741 0 0 0 -29221045.847221136 18699871.312896371 1126889.2475150228 0 1126889.2475150228 -100493616.18566227 0 0 0 -28627810.705468059 3619717.5378789902 5192780.3599860817 0 5192780.3599860817 -100064766.05289364 0 0 0 -33755766.980255127 5924033.5754741132 -3215448.8653010726 0 -3215448.8653010726 -100851209.1520561 0 0 0 -33224511.451803595 4505181.5630576611 5063120.8046966344 0 5063120.8046966344 -96853943.94870913 0 0 0 -32322066.834977984 10284401.039169192 -3103642.2665272057 0 -3103642.2665272057 -99518768.13043052 0 0 0 -31232028.481941491 17079169.295133114 -517794.9020909667 0 -517794.9020909667 -99468430.022649765 0 0 0 -28836241.254630804 9410696.3812669218 1109484.09905231 0 1109484.09905231 -97788719.691352129 0 0 0 -30932308.158529907 5842266.7976171449 3372928.3921462893 0 3372928.3921462893 -98437147.158054888 0 0 0 -32408208.126153283 -27586479.984519213 -15929017.300541379 0 -15929017.300541379 -100293144.99150491 0 0 0 -44757868.741608441 20384033.953170538 -849603.68843407463 0 -849603.68843407463 -100397896.94706869 0 0 0 -28004852.047864199 19568835.588512897 -796957.79900506139 0 -796957.79900506139 -100629380.95242023 0 0 0 -28371190.877367973 15533743.690626198 1874562.8677195907 0 1874562.8677195907 -100265059.61843419 0 0 0 -29655960.574732848 16024761.34545821 1902237.3207376003 0 1902237.3207376003 -98871214.773535371 0 0 0 -28996258.699827015 12277844.293695897 366234.97943452001 0 366234.97943452001 -100423430.06673034 0 0 0 -30850955.020562083 10023601.593429238 1819664.1800670624 0 1819664.1800670624 -100521519.63289392 0 0 0 -31674271.313812584 1431103.693829298 -4536109.4499075608 0 -4536109.4499075608 -95627034.202422976 0 0 0 -32968575.678007811 -3421718.7448193431 -4832765.3805421293 0 -4832765.3805421293 -97935479.007248282 0 0 0 -35475019.213223636 4483922.0408699512 -837372.07679629326 0 -837372.07679629326 -98141671.20770061 0 0 0 -32780212.208390594 -28281284.738716483 10994692.725549482 0 10994692.725549482 -83507920.057763308 0 0 0 -39126221.678767934 19354572.349151134 274715.54094693065 0 274715.54094693065 -99871414.663549423 0 0 0 -28180894.81003952 4372946.366743058 1458292.3116521835 0 1458292.3116521835 -95196006.289141297 0 0 0 -31788070.972839504 19244241.61988318 -1193900.1979643106 0 -1193900.1979643106 -100969640.76036048 0 0 0 -28603889.699167132 19194389.587958097 1281231.5953015089 0 1281231.5953015089 -100181588.60373878 0 0 0 -28345519.655523062 9746345.7054396868 2682573.1518498361 0 2682573.1518498361 -100353314.18750262 0 0 0 -31712438.968721986 9026222.1053686738 -2336121.0090491772 0 -2336121.0090491772 -99614101.047570348 0 0 0 -31705757.629770577 17310429.279719353 -1276968.0567457676 0 -1276968.0567457676 -99404718.436510086 0 0 0 -28733001.204876661 15675762.360285044 1454700.1355926991 0 1454700.1355926991 -100175390.33217192 0 0 0 -29574869.790160418 4750646.7857530713 5075407.1719311178 0 5075407.1719311178 -99203858.383849144 0 0 0 -33058624.059333563 1383042.0129321516 -7751289.7432233691 0 -7751289.7432233691 -100015884.21169639 0 0 0 -34521494.76956746 19649372.847643733 577222.11090004444 0 577222.11090004444 -101685231.31050909 0 0 0 -28712550.462003112 -45953662.81055519 -7752657.8153553773 0 -7752657.8153553773 -85347149.965229541 0 0 0 -45955284.471524656 2406159.6001057345 -1315057.0396873355 0 -1315057.0396873355 -90391744.556626841 0 0 0 -30794954.734782483 2339515.2941469746 370544.60362285376 0 370544.60362285376 -95658240.723120049 0 0 0 -32661553.900140684 19408816.421288013 -114042.37317698858 0 -114042.37317698858 -100007424.82544088 0 0 0 -28209512.941453695 -11234495.300861908 14414472.550625592 0 14414472.550625592 -122084242.04664494 0 0 0 -46661558.071627393 -56347007.181770362 -39129796.817192063 0 -39129796.817192063 -104571234.12596421 0 0 0 -56321384.4577071 5791824.2311279774 88117.741322047979 0 88117.741322047979 -100569353.2069931 0 0 0 -33172135.141552687 1178400.9109888077 -129900.95804071426 0 -129900.95804071426 -100091683.42934179 0 0 0 -34619648.881423473 1145953.0379731043 90532.000411868095 0 90532.000411868095 -100081231.29470456 0 0 0 -34627347.38985616 -56047373.490835436 39080429.693027742 0 39080429.693027742 -104014121.4786438 0 0 0 -56021523.23931773 5823296.0562462807 -81524.979944761857 0 -81524.979944761857 -100575199.9665761 0 0 0 -33163166.368615866 -11206092.296113327 -14345684.070827201 0 -14345684.070827201 -122160617.92459902 0 0 0 -46678348.577249333 11277790.437556744 -1318270.7748342156 0 -1318270.7748342156 -98540874.827564716 0 0 0 -30542079.536503077 -17290973.994144466 13676581.845566615 0 13676581.845566615 -98284963.067486733 0 0 0 -40451577.971570924 17752227.096852243 755347.29680252075 0 755347.29680252075 -99324758.298048198 0 0 0 -28550385.920418322 5522025.7554507256 -2769501.5615874752 0 -2769501.5615874752 -99521540.98276484 0 0 0 -32899830.329559803 21086238.682559133 -124614.97956675291 0 -124614.97956675291 -101290268.26793408 0 0 0 -28071410.354881167 16089715.423044682 1241207.1007977426 0 1241207.1007977426 -99951045.84115696 0 0 0 -29351465.646339178 15244701.018457174 -937745.0957916975 0 -937745.0957916975 -100010105.53037214 0 0 0 -29667891.579170227 -673862.80009961128 -767061.26964432001 0 -767061.26964432001 -99230112.610516429 0 0 0 -34966391.39371562 18232909.141624212 -832400.84034345485 0 -832400.84034345485 -101399807.18822169 0 0 0 -29108414.316308975 9876400.5974701643 375202.36459077895 0 375202.36459077895 -100006495.74315119 0 0 0 -31545533.300988436 16983794.428097308 -60885.893381297588 0 -60885.893381297588 -101472479.64638335 0 0 0 -29571039.826399982 19495376.251222372 -733999.19502818584 0 -733999.19502818584 -100406568.21840978 0 0 0 -28318917.188515663 12657977.849842548 1933429.9758826792 0 1933429.9758826792 -99360632.086794853 0 0 0 -30345928.982933283 10149667.7662251 604073.66554054618 0 604073.66554054618 -100432685.65267241 0 0 0 -31599056.260256529 -5828516.24289307 -7039241.6985149533 0 -7039241.6985149533 -92324183.192512512 0 0 0 -34353444.802391976 19252880.312941909 -122252.1412113905 0 -122252.1412113905 -100083995.28875124 0 0 0 -28290890.241533399 859991.19034075737 790266.69895634055 0 790266.69895634055 -98933445.619222403 0 0 0 -34325709.050108671 845509.25896823406 -427686.67571604252 0 -427686.67571604252 -94292972.043467999 0 0 0 -32706611.974574804 -30966707.735393707 -8374479.574616529 0 -8374479.574616529 -77253581.999407902 0 0 0 -37877101.407180563 19509221.399690986 -1040933.393784523 0 -1040933.393784523 -100586102.74497247 0 0 0 -28376908.47084856 9785800.3317469358 817765.00425311923 0 817765.00425311923 -100938543.12644386 0 0 0 -31903459.97814393 20485655.592289329 -757503.58389878273 0 -757503.58389878273 -101253533.88028002 0 0 0 -28268757.40079689 18363815.697916806 1327668.5917625427 0 1327668.5917625427 -100675349.12926507 0 0 0 -28809036.700971901 14797480.862402439 291003.27100676298 0 291003.27100676298 -100892535.9970839 0 0 0 -30133269.297138453 9000656.0194838643 -1058497.2567471713 0 -1058497.2567471713 -99457070.75248754 0 0 0 -31659745.156551242 -35969264.803025156 9311036.586517984 0 9311036.586517984 -82624152.549202219 0 0 0 -41507696.073279575 2179007.6944265366 -656286.31051743031 0 -656286.31051743031 -98171319.846667528 0 0 0 -33597309.253284216 3348830.064045012 705825.21105366945 0 705825.21105366945 -91550795.924774647 0 0 0 -30870688.051255345 18927865.010779142 142881.18034803867 0 142881.18034803867 -100329169.24946117 0 0 0 -28490456.483538866 21346848.627648056 -97496.807897627354 0 -97496.807897627354 -100755555.891231 0 0 0 -27793047.542254269 14970795.756528974 1839484.2842689604 0 1839484.2842689604 -100196258.92576671 0 0 0 -29828912.109233141 14771210.485375285 -1286694.4753349125 0 -1286694.4753349125 -100448065.85288501 0 0 0 -29986899.378628612 986887.81003898382 45929.695844262838 0 45929.695844262838 -95200075.852664977 0 0 0 -32974615.814919055 20677610.687088013 547481.18075037003 0 547481.18075037003 -100527132.70566583 0 0 0 -27947332.706502199 12070256.446648598 354556.30511161685 0 354556.30511161685 -99654000.370527387 0 0 0 -30654310.373357654 15306362.0803473 -1866411.412807703 0 -1866411.412807703 -99242013.613217354 0 0 0 -29377478.036504507 -5229533.9838586152 4006628.4475368559 0 4006628.4475368559 -96949424.635204971 0 0 0 -35762635.516672283 15775907.676276445 -1493589.3319231868 0 -1493589.3319231868 -100121329.01539326 0 0 0 -29520897.468691111 17157091.08420825 1273752.4513030052 0 1273752.4513030052 -100245336.1240592 0 0 0 -29080885.763947964 4484885.5023776293 6684959.0725625455 0 6684959.0725625455 -96496217.726459503 0 0 0 -32203966.278428674 7447988.519087851 -4987464.84463045 0 -4987464.84463045 -98647872.327710271 0 0 0 -31919959.333017886 20078222.982956886 5924.7389889955521 0 5924.7389889955521 -101704369.3913908 0 0 0 -28569151.242951989 17584142.174689054 507851.15611091256 0 507851.15611091256 -101539758.54539561 0 0 0 -29384465.729747295 19834223.408199571 -835393.42364871502 0 -835393.42364871502 -99926803.815984726 0 0 0 -28032403.142724492 14313277.790308833 1601293.6365939472 0 1601293.6365939472 -99274147.755368471 0 0 0 -29736304.487770915 9291254.3130283356 1086943.5350522688 0 1086943.5350522688 -99984416.037837148 0 0 0 -31742606.603683114 -6084505.1535721878 -7771380.6573698521 0 -7771380.6573698521 -96149263.068180591 0 0 0 -35781818.87761344 1830359.9690115452 10702374.026956536 0 10702374.026956536 -99807910.510905564 0 0 0 -34292142.689662874 -8393478.418512255 -17467537.710557804 0 -17467537.710557804 -98232744.839089632 0 0 0 -37319178.14016065 16850895.944406033 -122396.70801985264 0 -122396.70801985264 -101536710.24469256 0 0 0 -29640035.005100369 17734112.632391721 -719866.96759706736 0 -719866.96759706736 -101386336.72221452 0 0 0 -29278278.431437939 20524709.354429454 -210640.65962088108 0 -210640.65962088108 -100548707.23568112 0 0 0 -28008399.25843814 20824392.391927242 -318070.00419044495 0 -318070.00419044495 -100366291.02007616 0 0 0 -27839664.519851923 10754697.028341174 2373079.5106708184 0 2373079.5106708184 -97500866.677749872 0 0 0 -30361159.377293229 11632323.456162453 1995490.9874641895 0 1995490.9874641895 -98292160.419929504 0 0 0 -30330942.937318563 10321508.316168547 -1351912.0224632472 0 -1351912.0224632472 -97269998.739171028 0 0 0 -30431971.648050904 10588713.841676474 -1712896.6624610722 0 -1712896.6624610722 -98128615.797299623 0 0 0 -30638965.68446815 -19097057.761069089 -2227836.0926435292 0 -2227836.0926435292 -92165549.091626942 0 0 0 -38941912.398443609 -14268385.168671355 -4156997.7460695207 0 -4156997.7460695207 -92094542.811761975 0 0 0 -37227024.793151662 18382201.651144415 -588509.41179919243 0 -588509.41179919243 -99551877.14170596 0 0 0 -28409386.421696514 10367934.696188688 1554941.1550318971 0 1554941.1550318971 -97965765.645965099 0 0 0 -30659240.832422018 7850834.3180984259 1501699.7956993841 0 1501699.7956993841 -96995830.739531279 0 0 0 -31200748.747501493 -22031582.34036959 -12357198.697037935 0 -12357198.697037935 -95985889.801524043 0 0 0 -41306115.249662764 13990942.844990253 -1223758.614700824 0 -1223758.614700824 -98250047.503910065 0 0 0 -29490686.630622149 16616873.990627646 808174.42613124847 0 808174.42613124847 -99342944.674388289 0 0 0 -28954124.739316225 -12373156.084973097 12046610.952678114 0 12046610.952678114 -101789694.68272588 0 0 0 -39956997.768694609 1750859.4070765376 -7386944.2921201587 0 -7386944.2921201587 -101556387.52314818 0 0 0 -34931934.840625048 6096760.5672448874 5615120.0478171147 0 5615120.0478171147 -99870248.893132925 0 0 0 -32820720.914060771 -9256299.0407823473 -15068962.810370222 0 -15068962.810370222 -91081485.021668702 0 0 0 -35118224.421857879 20950889.499163151 135722.76403957605 0 135722.76403957605 -100524215.53808117 0 0 0 -27850664.113621235 11868272.919106662 1871834.3322682381 0 1871834.3322682381 -97764208.338396907 0 0 0 -30063577.396751583 12220764.86820662 -1989678.5754190087 0 -1989678.5754190087 -98057917.436486244 0 0 0 -30043003.398897886 -14703272.491201609 1786601.2306905389 0 1786601.2306905389 -93528435.960156381 0 0 0 -37881097.957975298 20969803.037284017 128455.04193097353 0 128455.04193097353 -101388296.50575709 0 0 0 -28146472.713965535 17010725.289696097 816188.72675120831 0 816188.72675120831 -101279984.45661163 0 0 0 -29494240.708420634 20226100.332836866 -552492.58743730187 0 -552492.58743730187 -100023277.72124958 0 0 0 -27929012.085944414 10059238.940316737 1869683.2474540472 0 1869683.2474540472 -99616341.079443812 0 0 0 -31344985.74869436 9300800.3896113038 -611311.07982331514 0 -611311.07982331514 -99413453.593789756 0 0 0 -31539428.621462524 -9322076.7885501683 -7326286.188710615 0 -7326286.188710615 -87617819.471700609 0 0 0 -33928963.691087782 16491915.043259382 -873309.41804611683 0 -873309.41804611683 -101415766.32095289 0 0 0 -29723347.94719255 19162176.963649869 -380532.03126642108 0 -380532.03126642108 -101691379.59081459 0 0 0 -28885220.919507623 16744691.019033745 -316353.2901905179 0 -316353.2901905179 -101791528.5290941 0 0 0 -29766393.128521129 19957668.545169234 -422136.64748454094 0 -422136.64748454094 -100346656.66575003 0 0 0 -28136145.842203259 11652447.901821494 2248115.7841583192 0 2248115.7841583192 -96838807.80965519 0 0 0 -29815225.967741847 10197331.601549983 -664302.4590471983 0 -664302.4590471983 -96407510.051595211 0 0 0 -30173562.457515836 -21935410.512951627 -5619020.9626071006 0 -5619020.9626071006 -94832537.549824417 0 0 0 -40868781.821971625 18220357.438129112 661723.04218631983 0 661723.04218631983 -101161037.60878518 0 0 0 -29029238.059729651 21012417.784107447 295589.07063150406 0 295589.07063150406 -100361443.42777252 0 0 0 -27772158.975282907 11394316.606915772 1463077.5014292598 0 1463077.5014292598 -99428481.594044805 0 0 0 -30811957.745495141 11830769.18274349 -2169310.6125424504 0 -2169310.6125424504 -99161183.187858343 0 0 0 -30565644.901790202 -7935241.5687241852 2645982.8197395653 0 2645982.8197395653 -89507677.968737602 0 0 0 -34105021.838111609 5607438.3783074915 3468453.951621294 0 3468453.951621294 -99774291.282077 0 0 0 -32958398.516319305 889378.68475466967 6614240.8591994345 0 6614240.8591994345 -103416627.45711744 0 0 0 -35884537.070326984 -18946621.285277277 -18414295.605099037 0 -18414295.605099037 -89191411.890481189 0 0 0 -37848311.611515462 -26637732.722100571 -20469517.969277129 0 -20469517.969277129 -94790256.827727556 0 0 0 -42499796.34243986 18110389.835959196 72490.790800184011 0 72490.790800184011 -101524564.19335818 0 0 0 -29194961.025089622 -10122173.207430363 -15888073.086745448 0 -15888073.086745448 -107998148.86049032 0 0 0 -41342112.723772228 -15596405.341657892 18828659.92773664 0 18828659.92773664 -103828486.01682073 0 0 0 -41798711.975467518 15257543.826222297 -495263.50945472717 0 -495263.50945472717 -100449850.13546248 0 0 0 -29817307.208233956 15982389.732172623 -702155.25866007805 0 -702155.25866007805 -99209408.211658239 0 0 0 -29129456.467819795 8644411.7123157978 1051706.5046540229 0 1051706.5046540229 -99208832.651480675 0 0 0 -31697547.328707933 10359658.844988585 963854.87324294075 0 963854.87324294075 -99162918.1994524 0 0 0 -31081140.774062395 -24645057.711337924 19923383.974969912 0 19923383.974969912 -94547503.593701079 0 0 0 -41717396.45676364 1243069.250464648 -6597731.3894085884 0 -6597731.3894085884 -103102773.4808889 0 0 0 -35650896.480648488 6570645.8356081247 -692496.96486151218 0 -692496.96486151218 -99552642.029261827 0 0 0 -32543698.667778611 13512273.686552048 201077.27263084054 0 201077.27263084054 -100297706.11738348 0 0 0 -30374901.350791216 -17518318.677065656 17474623.140013516 0 17474623.140013516 -88708164.835802734 0 0 0 -37179269.22950393 5354332.7847165465 -3312567.6387171745 0 -3312567.6387171745 -101605379.3024466 0 0 0 -33687866.281205535 6067794.1099164486 -895723.14735001326 0 -895723.14735001326 -100225552.54854012 0 0 0 -32955215.453518152 15448813.96264267 483728.83812355995 0 483728.83812355995 -99608086.29120636 0 0 0 -29455745.314997196 17676841.179160953 -1435020.518047452 0 -1435020.518047452 -100096054.8653326 0 0 0 -28846724.790160179 17218557.439862013 -1237696.3855607957 0 -1237696.3855607957 -99639607.724709034 0 0 0 -28847367.599696398 17410082.821590185 1396106.0494730473 0 1396106.0494730473 -100439255.49134064 0 0 0 -29060210.434412956 17797136.924943388 1321736.0954983234 0 1321736.0954983234 -99014379.223692775 0 0 0 -28426034.804562151 6869141.2081514001 4529552.4911057055 0 4529552.4911057055 -98549198.020083904 0 0 0 -32088019.884176314 1705063.5338522196 6328854.5144848824 0 6328854.5144848824 -101592533.6002861 0 0 0 -34960614.523251832 7546889.0311538577 -4853163.7475643158 0 -4853163.7475643158 -98763446.128803968 0 0 0 -31925794.98417753 2705616.7022489905 -5320290.4578319862 0 -5320290.4578319862 -100667616.06402481 0 0 0 -34286699.776621521 9595569.2297203541 -1421391.047198534 0 -1421391.047198534 -98025051.563782454 0 0 0 -30950318.816921949 17188720.14470911 569633.47165495157 0 569633.47165495157 -100319144.36795235 0 0 0 -29095648.478135109 -22072448.652254909 12456482.107776742 0 12456482.107776742 -93363437.167185038 0 0 0 -40402560.036803961 6395507.3120848536 -2843293.0790657401 0 -2843293.0790657401 -99343569.247095466 0 0 0 -32531821.677253604 16608050.220217586 83823.266191929579 0 83823.266191929579 -101143224.74383354 0 0 0 -29587311.083265781 14664270.368332863 -317156.3459752351 0 -317156.3459752351 -100996543.85424638 0 0 0 -30216295.720069647 15472051.98105073 -189997.01218004525 0 -189997.01218004525 -100789985.13314581 0 0 0 -29861276.603233218 13819780.519641399 -698673.67171275616 0 -698673.67171275616 -99219698.462450027 0 0 0 -29889971.279983044 10876553.259332895 631353.17090755701 0 631353.17090755701 -100017147.68234873 0 0 0 -31199208.04805541 1875832.1801316738 9143131.6099284291 0 9143131.6099284291 -105125834.00971311 0 0 0 -36137500.640353501 -10420093.824394301 -16983489.965189233 0 -16983489.965189233 -92033986.974890172 0 0 0 -35858928.279749557 -17286664.119764581 29418780.715189368 0 29418780.715189368 -97046305.022339195 0 0 0 -40016539.199736312 -3748867.5229949504 -16234472.940732494 0 -16234472.940732494 -108999335.89133184 0 0 0 -39461871.195014372 10559661.425307751 -1930325.1297546923 0 -1930325.1297546923 -97612792.126583576 0 0 0 -30468595.745446444 -21351148.872339584 8308367.6877393425 0 8308367.6877393425 -93688093.262590095 0 0 0 -40263734.747225381 19194971.903573632 465518.68861043453 0 465518.68861043453 -100291006.25258183 0 0 0 -28383612.022152781 8063569.6907920837 -170841.21856841445 0 -170841.21856841445 -97482789.853555918 0 0 0 -31296727.056967258 -11189833.668347582 20111654.820962891 0 20111654.820962891 -96120757.472359657 0 0 0 -37558706.899247542 2926057.7679312825 -12027773.915508837 0 -12027773.915508837 -101876601.10326803 0 0 0 -34632690.167367876 15697354.264190674 -115454.190502882 0 -115454.190502882 -100206863.61423159 0 0 0 -29578328.272514343 1978498.2714038119 163341.93843996525 0 163341.93843996525 -99054665.490276039 0 0 0 -33976658.526605226 2437195.8845092067 -167011.98676490784 0 -167011.98676490784 -86398293.087496385 0 0 0 -29386384.021045446 -48034563.4001396 -18010392.219717629 0 -18010392.219717629 -89215384.537799567 0 0 0 -48037481.778278701 20167557.922531843 -80854.64854824543 0 -80854.64854824543 -99968312.565538406 0 0 0 -27930264.125052214 3114044.0295140743 836453.13907933235 0 836453.13907933235 -95802984.162333727 0 0 0 -32441129.046487093 2260510.0807175636 -1074757.1622790694 0 -1074757.1622790694 -95120603.316259623 0 0 0 -32501032.632439613 -34324812.135535173 -2795490.1716373079 0 -2795490.1716373079 -81316139.054547802 0 0 0 -40474332.916529045 12037860.309757113 306388.78385972977 0 306388.78385972977 -99118577.498509705 0 0 0 -30478251.016063392 7724502.9800633192 -543642.46296989918 0 -543642.46296989918 -100475977.66386175 0 0 0 -32463016.139329433 11843203.995923996 236983.28207314014 0 236983.28207314014 -100262922.20917797 0 0 0 -30946901.374638796 18166057.391322017 -233484.12614264339 0 -233484.12614264339 -101707109.52848554 0 0 0 -29239368.248007178 4413752.6972886324 -1725222.7738633454 0 -1725222.7738633454 -96686151.189674139 0 0 0 -32295339.472334981 5805386.5460082293 -1538045.1613251865 0 -1538045.1613251865 -93516762.347899914 0 0 0 -30698981.530662417 10728955.872243524 -136085.64721310139 0 -136085.64721310139 -99645591.960297108 0 0 0 -31120822.630818725 2069978.6052896976 284627.71762645245 0 284627.71762645245 -101054817.40129614 0 0 0 -34644693.578602552 10922638.050542518 10155.133973121643 0 10155.133973121643 -100677712.75847507 0 0 0 -31414276.14777644 4621320.5908164978 -259893.89512681216 0 -259893.89512681216 -99997296.501432896 0 0 0 -33381591.568715811 -1207014.7205398679 -9939189.2058971729 0 -9939189.2058971729 -107826789.24242473 0 0 0 -38161831.387037665 -32777853.32749236 26037167.942492973 0 26037167.942492973 -94105883.255253077 0 0 0 -44409307.80396089 11212808.481259525 123131.65990698338 0 123131.65990698338 -99362588.442244649 0 0 0 -30852422.986344635 2361893.9620938301 -190460.85520267487 0 -190460.85520267487 -100699901.34993029 0 0 0 -34418302.585742712 6967591.3797430396 -4400582.5313800946 0 -4400582.5313800946 -97748537.002651572 0 0 0 -31773330.968017995 -35861493.518885143 29076266.894312952 0 29076266.894312952 -93075192.43283084 0 0 0 -45127840.083100587 6843990.0719554126 4333125.8520167619 0 4333125.8520167619 -97380422.100392163 0 0 0 -31687751.209952831 -35454178.562157817 -28977457.517939076 0 -28977457.517939076 -92956949.843683273 0 0 0 -44943894.94204437 -947639.43886485696 9327618.3282607496 0 9327618.3282607496 -108411871.33711773 0 0 0 -38275828.771593839 -28884061.636904001 -25099410.672597051 0 -25099410.672597051 -92464806.73416169 0 0 0 -42472103.92987299 20191303.568881154 617236.18928593397 0 617236.18928593397 -101531948.02443767 0 0 0 -28469225.559444785 19326427.391466081 -6605.768541932106 0 -6605.768541932106 -101794575.44899511 0 0 0 -28863851.820135176 12524136.582862794 -144105.37548273802 0 -144105.37548273802 -101355372.01359963 0 0 0 -31090932.400757849 13561775.590155855 -859416.900390625 0 -859416.900390625 -100193096.62907103 0 0 0 -30320962.363620386 13464550.33470387 -767650.19912469387 0 -767650.19912469387 -101143649.77065066 0 0 0 -30687684.802581362 8162365.1159612536 720851.59214386344 0 720851.59214386344 -100557852.70965311 0 0 0 -32338420.657792032 9854831.425321579 -1796789.979000628 0 -1796789.979000628 -99422826.488452196 0 0 0 -31348798.27209568 -11665023.815891102 9474250.1613325179 0 9474250.1613325179 -88879957.878881127 0 0 0 -35190743.593170285 18926623.792119145 573714.95996081829 0 573714.95996081829 -100101640.15133953 0 0 0 -28411255.725727201 9020117.1468086839 -737963.25135840476 0 -737963.25135840476 -99052256.43893826 0 0 0 -31511248.752245367 17886076.772499621 802553.95917999744 0 802553.95917999744 -101309584.59708804 0 0 0 -29198227.738605797 20526470.439464808 496120.64942798018 0 496120.64942798018 -100708844.83749485 0 0 0 -28063831.039310455 13825292.515354812 -2275420.6829447746 0 -2275420.6829447746 -99044088.82935226 0 0 0 -29826578.709899247 12183781.800103724 508751.8852878809 0 508751.8852878809 -99881397.878541589 0 0 0 -30694165.627453148 -5818043.0505144596 2995968.8704042137 0 2995968.8704042137 -93715595.062825799 0 0 0 -34836773.339669079 10707850.161140919 40575.361327469349 0 40575.361327469349 -99922682.646141529 0 0 0 -31225191.369750023 5929187.7467600107 67049.736725091934 0 67049.736725091934 -98958250.983816624 0 0 0 -32560172.132969975 11214082.406473637 -186207.36831566785 0 -186207.36831566785 -100384950.83740473 0 0 0 -31209803.95082593 4769845.4916091003 408175.65667140484 0 408175.65667140484 -100719203.10051318 0 0 0 -33582275.163116455 13566975.48489356 -1289572.0312244892 0 -1289572.0312244892 -99987997.896436214 0 0 0 -30247357.844040155 16975969.882623196 1135416.4629892111 0 1135416.4629892111 -100144708.43886375 0 0 0 -29109058.494684339 -425303.75244951248 9890331.8287525326 0 9890331.8287525326 -94766568.961220711 0 0 0 -33317155.449784577 7446117.7795934677 -5519632.9842294604 0 -5519632.9842294604 -99712749.464402676 0 0 0 -32293321.089683294 14453504.445371032 -294487.84248265624 0 -294487.84248265624 -101510821.87209177 0 0 0 -30470061.09935236 15437928.218606114 -388752.4394390285 0 -388752.4394390285 -101648431.06227779 0 0 0 -30173675.995285034 12096531.048864394 -378361.66287112236 0 -378361.66287112236 -100125947.06256515 0 0 0 -30810295.604795188 8345342.0107688904 513357.47869583964 0 513357.47869583964 -100177961.54559851 0 0 0 -32141416.837190151 12986703.221624613 -1163529.599604845 0 -1163529.599604845 -100214996.56835365 0 0 0 -30529902.671355009 14882431.805204272 1050758.6045181751 0 1050758.6045181751 -99973602.611215591 0 0 0 -29781909.782104135 512910.53232631087 11035315.834305778 0 11035315.834305778 -96372507.977164924 0 0 0 -33550859.10569343 4767973.6050050259 -8721052.0799250603 0 -8721052.0799250603 -97677301.74263525 0 0 0 -32518264.848170578 17940142.185530424 -1423153.9507100582 0 -1423153.9507100582 -101318362.79606533 0 0 0 -29182377.213686943 18640607.444540143 -1284228.7214692831 0 -1284228.7214692831 -99960424.722859383 0 0 0 -28461936.047411561 9378553.8181760907 1418869.0159962177 0 1418869.0159962177 -98638389.164735079 0 0 0 -31240942.371295631 5177460.0465709865 1764809.7931956053 0 1764809.7931956053 -100633269.97898167 0 0 0 -33409533.476343721 19896995.34941709 -184228.00979304314 0 -184228.00979304314 -100225285.64174628 0 0 0 -28114901.602314949 20137698.906556606 -297005.42580795288 0 -297005.42580795288 -99939134.488042355 0 0 0 -27930502.453519821 5964927.7467874289 1469870.3051851094 0 1469870.3051851094 -95656877.284912348 0 0 0 -31392182.33834374 4683882.7728022337 1291168.0884704292 0 1291168.0884704292 -98660461.245179176 0 0 0 -32891802.46533215 -35148434.427210033 -5576772.9687153362 0 -5576772.9687153362 -88318001.845428556 0 0 0 -43213252.695423514 -23559400.744670175 -7137439.2291420773 0 -7137439.2291420773 -81751663.215146035 0 0 0 -36858872.385935679 20839606.923785925 -315108.63882911205 0 -315108.63882911205 -101190812.19222355 0 0 0 -28122921.843953133 18198183.100273252 1152339.3910239041 0 1152339.3910239041 -101218574.38628292 0 0 0 -29057136.950103402 20987501.123667419 -321048.2625079155 0 -321048.2625079155 -101302903.10047153 0 0 0 -28110390.691881597 17351642.15372014 1150553.2075482905 0 1150553.2075482905 -100772441.42111397 0 0 0 -29197279.743587732 9412031.0243554115 -159142.26549172401 0 -159142.26549172401 -100223232.21948385 0 0 0 -31783920.418294907 5184381.3848571777 55740.580010890961 0 55740.580010890961 -100667704.9535656 0 0 0 -33419163.249047756 -24465569.456708133 29934475.097697593 0 29934475.097697593 -100626901.79849774 0 0 0 -43782364.939322054 -2789498.7916009724 -11706242.87028192 0 -11706242.87028192 -103803225.59355211 0 0 0 -37307453.534803599 17578890.904617786 -391805.29289567471 0 -391805.29289567471 -99756613.137712955 0 0 0 -28762202.781583071 6466664.3618140221 1123186.3880156279 0 1123186.3880156279 -97869642.144618511 0 0 0 -31991042.223981619 6077331.9200725555 103346.04792433977 0 103346.04792433977 -93750489.146241546 0 0 0 -30685605.029159188 -32667770.899478436 -15043251.158412732 0 -15043251.158412732 -92297778.236297816 0 0 0 -43737942.197521687 21110078.817417741 -472603.60159027576 0 -472603.60159027576 -100544245.43688798 0 0 0 -27801958.31681478 15526192.876209497 1865005.5211358964 0 1865005.5211358964 -100530999.48228002 0 0 0 -29751682.312124729 13623475.31409812 -737253.95737758279 0 -737253.95737758279 -100192546.9251616 0 0 0 -30299175.063872337 2207130.4417322278 -3182633.424255088 0 -3182633.424255088 -94897248.902491391 0 0 0 -32441541.461265653 20223096.461250305 -377258.17849200964 0 -377258.17849200964 -101242258.18794513 0 0 0 -28356706.604343176 20738658.20599103 -725935.4369635582 0 -725935.4369635582 -100585632.61351299 0 0 0 -27946441.042632818 16790844.959262848 1722851.2033339739 0 1722851.2033339739 -100838426.24521828 0 0 0 -29416653.450084448 13408087.0270046 -149532.91498753428 0 -149532.91498753428 -100808433.307477 0 0 0 -30590121.198165298 6711870.1555033326 -2365013.4958721995 0 -2365013.4958721995 -96082846.18575865 0 0 0 -31279841.610589325 21244211.380264044 -128600.50801247358 0 -128600.50801247358 -100656445.71124268 0 0 0 -27794282.015842676 14827307.411883354 1645115.0012106299 0 1645115.0012106299 -99558658.292069554 0 0 0 -29655972.808065057 14062492.953715265 -1651568.836560905 0 -1651568.836560905 -99260611.997334003 0 0 0 -29819341.665266454 -4735331.7759127319 -1744387.6098978221 0 -1744387.6098978221 -95963729.79144609 0 0 0 -35244671.54857558 20947270.438820004 -327316.85929358006 0 -327316.85929358006 -101313263.77515006 0 0 0 -28128097.66771543 17358254.638871431 1123368.9211330414 0 1123368.9211330414 -100515810.52688885 0 0 0 -29105144.560806155 20810932.746898055 -315733.38735306263 0 -315733.38735306263 -101190119.36737919 0 0 0 -28132715.317168474 18165108.722521305 1134190.8224233501 0 1134190.8224233501 -101002136.38761568 0 0 0 -28992959.682782888 20125564.323512554 -435541.94598984718 0 -435541.94598984718 -100034666.89057803 0 0 0 -27968185.898473024 7875913.800173521 1724198.7720931768 0 1724198.7720931768 -99084991.015564919 0 0 0 -31923177.025387049 7498767.9710813761 -1516378.1320302486 0 -1516378.1320302486 -98298363.978777885 0 0 0 -31779858.602693677 -16273130.013937056 -7520593.2063895315 0 -7520593.2063895315 -85982388.651681334 0 0 0 -35789431.532966442 -32787240.549855925 1443946.8801997118 0 1443946.8801997118 -82553824.231908217 0 0 0 -40369372.673617445 4219296.8809485435 872319.28770513833 0 872319.28770513833 -93933854.566445827 0 0 0 -31400095.189924002 3392421.6659817696 -1668508.0417507589 0 -1668508.0417507589 -96634413.388694763 0 0 0 -32634697.102949739 20090872.289383173 42823.184609174728 0 42823.184609174728 -100100112.2392025 0 0 0 -28003233.982436657 20997582.528040886 -304563.85945284367 0 -304563.85945284367 -100521252.84223461 0 0 0 -27833284.609967947 12021648.543236732 2121573.9358972907 0 2121573.9358972907 -99230476.116484165 0 0 0 -30523089.650636435 11257762.556464314 -1493032.2530127168 0 -1493032.2530127168 -99753947.575615883 0 0 0 -30973664.756703019 -7383921.9732882082 -2674662.3571555763 0 -2674662.3571555763 -90208992.349731147 0 0 0 -34157520.013056785 18356497.763350964 249891.44981086254 0 249891.44981086254 -101669548.26230419 0 0 0 -29159567.674633622 17803198.252429962 -945539.89750459045 0 -945539.89750459045 -100093061.46711826 0 0 0 -28801452.125140905 15689431.460828472 1327125.9986681938 0 1327125.9986681938 -98601217.172072679 0 0 0 -29019124.998935532 5373495.0736168865 5522369.5908223689 0 5522369.5908223689 -101386167.68516557 0 0 0 -33604435.414041974 -5361285.3518724442 -8714219.3853042927 0 -8714219.3853042927 -99085137.261417389 0 0 0 -36556247.914651394 20743901.014204979 498267.96669489145 0 498267.96669489145 -100150540.28793669 0 0 0 -27792323.745805979 19929588.591004848 527120.00755262375 0 527120.00755262375 -100540218.91125894 0 0 0 -28213720.612088799 11115278.783507288 1197276.3601794243 0 1197276.3601794243 -99300969.001928926 0 0 0 -30864991.576447546 12355683.888430119 -2008033.2341011763 0 -2008033.2341011763 -99235320.543063641 0 0 0 -30407872.82912159 13065132.209189177 -1969053.0660203993 0 -1969053.0660203993 -97714917.305209875 0 0 0 -29627424.783607125 9826815.2943100929 -24021.183646380901 0 -24021.183646380901 -98846269.875475168 0 0 0 -31156809.10340786 -8209312.9343581498 5237172.2204014361 0 5237172.2204014361 -91508075.52888453 0 0 0 -34901085.962134942 -15675226.183811769 6331418.4158483297 0 6331418.4158483297 -96090646.671311319 0 0 0 -39118055.499293089 18441601.180219859 -1451946.9044169188 0 -1451946.9044169188 -101238828.57582352 0 0 0 -28979029.58846131 11235687.698752224 1908130.9672272969 0 1908130.9672272969 -97977209.043374181 0 0 0 -30359532.470617652 20221909.811988592 964835.85300502181 0 964835.85300502181 -100790350.344522 0 0 0 -28198954.186386824 10003078.738863707 -270172.91359311342 0 -270172.91359311342 -98524195.857002258 0 0 0 -30982390.991348505 9710005.9681018591 61875.664780974388 0 61875.664780974388 -99290702.512230635 0 0 0 -31353243.790444851 -16357966.524691954 22596234.139078438 0 22596234.139078438 -110786994.04830444 0 0 0 -44500736.200548783 -20986239.570082605 -22162534.776581686 0 -22162534.776581686 -110157738.41251588 0 0 0 -45900392.29390946 16530899.902452707 748669.08913117647 0 748669.08913117647 -101072589.09869778 0 0 0 -29589591.218685865 6819293.0628942251 -1076512.5164221525 0 -1076512.5164221525 -97812995.009616494 0 0 0 -31847795.681352735 -31288315.308786556 14672140.306433383 0 14672140.306433383 -91728928.758908927 0 0 0 -43056035.423693419 17995813.789651871 412451.8450332284 0 412451.8450332284 -99887984.373727798 0 0 0 -28662259.704426765 5261304.8363998532 408873.16466486454 0 408873.16466486454 -94600824.74892509 0 0 0 -31268831.969383836 19208034.571627498 262409.67290174961 0 262409.67290174961 -101833779.65210426 0 0 0 -28919010.77816689 15169201.268255353 -317352.50664329529 0 -317352.50664329529 -100330289.934901 0 0 0 -29806381.03332603 1907397.0517606735 -504357.83575862646 0 -504357.83575862646 -99001075.922754288 0 0 0 -33982787.604847908 -35552337.968040243 16071774.591044735 0 16071774.591044735 -81979789.807209522 0 0 0 -41136244.721337415 17487430.747390747 389180.36667263508 0 389180.36667263508 -99535490.862288237 0 0 0 -28716821.0402143 582818.60052406788 1395749.2819180191 0 1395749.2819180191 -91978266.274506092 0 0 0 -31988406.685893655 20601076.00053367 -524750.2659419775 0 -524750.2659419775 -100700884.03248179 0 0 0 -28034932.811181694 20581232.203001738 -526838.9863011837 0 -526838.9863011837 -100756710.79945421 0 0 0 -28061417.508758307 15919659.558520794 1788402.0112770498 0 1788402.0112770498 -99041460.125854015 0 0 0 -29092630.198566675 13874179.608418465 2143245.243864283 0 2143245.243864283 -99382550.193643332 0 0 0 -29927929.704828739 11917104.47480762 -83715.152909427881 0 -83715.152909427881 -99809503.063322544 0 0 0 -30762339.505980253 11749216.541187286 -413502.38005474955 0 -413502.38005474955 -100334841.44426548 0 0 0 -31004968.716077328 -5201751.5376743078 -4260839.8196834624 0 -4260839.8196834624 -98730806.967320681 0 0 0 -36376395.476748228 -4265056.0682517588 -3426208.9484741837 0 -3426208.9484741837 -93597360.207293376 0 0 0 -34251845.696440786 19998218.943505526 -535073.38318088651 0 -535073.38318088651 -100475705.35046387 0 0 0 -28167120.242435217 13336349.022905827 2008358.509157896 0 2008358.509157896 -97952936.088054895 0 0 0 -29615805.472802043 10137827.698613465 -4640.5429449975491 0 -4640.5429449975491 -98405009.158268213 0 0 0 -30893513.510879219 -13974876.394433796 -6660827.151800327 0 -6660827.151800327 -96173753.989045918 0 0 0 -38552020.634217948 20687173.384446144 -285883.31164941192 0 -285883.31164941192 -100026131.01138878 0 0 0 -27768635.169429779 8323160.5829337239 1734455.7223059535 0 1734455.7223059535 -97955563.213213682 0 0 0 -31371340.92059797 8514180.8810375929 -1557401.246358335 0 -1557401.246358335 -94508561.151844919 0 0 0 -30098033.094782472 -19041519.706210673 -4930274.0927163139 0 -4930274.0927163139 -85927468.25026539 0 0 0 -36739145.784766614 19901030.186550379 -291763.97133301198 0 -291763.97133301198 -100389864.32244921 0 0 0 -28171091.947564602 9006656.4772420824 1873193.7018427253 0 1873193.7018427253 -96118738.192854464 0 0 0 -30489228.600464493 7907205.8392056227 -2195468.1674826145 0 -2195468.1674826145 -97502369.330020905 0 0 0 -31358307.221785426 -29367918.999028221 -6301244.6469732728 0 -6301244.6469732728 -92116866.949716032 0 0 0 -42519675.082060471 20589100.743954897 -490543.54613751173 0 -490543.54613751173 -100317840.93638182 0 0 0 -27905059.067349672 11360107.572769403 2098840.2501888871 0 2098840.2501888871 -99065494.669829369 0 0 0 -30696885.483971119 10460223.009708345 -1176307.2819972634 0 -1176307.2819972634 -99435978.232290983 0 0 0 -31141514.327903807 -10310667.929221094 -4673324.0307257101 0 -4673324.0307257101 -89728477.892104447 0 0 0 -35013701.037463933 16387831.416288525 -1205942.6929786205 0 -1205942.6929786205 -98556409.522311509 0 0 0 -28759002.337107986 17346041.546976089 1089138.4185329974 0 1089138.4185329974 -99392970.352787495 0 0 0 -28716425.082033873 -4565285.8633602262 8599858.4816586897 0 8599858.4816586897 -101340789.79055905 0 0 0 -37067126.478871763 1025733.4067268968 -6624391.4783627391 0 -6624391.4783627391 -102337673.35859254 0 0 0 -35459178.983152986 14004636.219682455 -1904255.5627852902 0 -1904255.5627852902 -98596170.295858383 0 0 0 -29607036.92666173 21007026.171417475 328937.7249443531 0 328937.7249443531 -100478502.7191692 0 0 0 -27815016.791712999 -9694929.2348668315 3304585.5913590342 0 3304585.5913590342 -95741230.501796216 0 0 0 -36902655.907832026 12625608.233106613 1373040.8293881901 0 1373040.8293881901 -98793252.231453657 0 0 0 -30158675.399421453 3866922.3823945522 -959297.94221428037 0 -959297.94221428037 -99248180.348287821 0 0 0 -33383440.288062334 -30218610.126596391 12889765.481681757 0 12889765.481681757 -84410189.651291102 0 0 0 -40120079.922260612 17572622.921024203 215216.38294732571 0 215216.38294732571 -100314655.70969343 0 0 0 -28959711.476034522 4262658.0927248001 -331233.49315042049 0 -331233.49315042049 -94150882.68873477 0 0 0 -31460878.608603597 21149550.593840599 75433.169412337244 0 75433.169412337244 -101222669.41474962 0 0 0 -28025591.587318182 15856840.383985169 823447.92587220669 0 823447.92587220669 -100842670.60496725 0 0 0 -29745040.577343576 20865754.693898141 -108056.65673661232 0 -108056.65673661232 -100093879.00502944 0 0 0 -27729843.508895695 7373183.3757039309 1775259.39587228 0 1775259.39587228 -98029217.899894714 0 0 0 -31729612.083466768 7260431.4801138639 -2262646.9677817822 0 -2262646.9677817822 -98050313.369995117 0 0 0 -31776458.661458373 -18712074.214618217 -1660743.3881526738 0 -1660743.3881526738 -84641081.702108264 0 0 0 -36173604.570854276 19431855.573883116 -97740.281714320183 0 -97740.281714320183 -101640976.014615 0 0 0 -28773192.154256165 14305495.618410587 -471725.49792975187 0 -471725.49792975187 -98923307.060976982 0 0 0 -29616234.00489831 8894613.2622309923 635793.45639538765 0 635793.45639538765 -99210168.037848949 0 0 0 -31610444.171466231 9187356.8438785076 -193240.60828748345 0 -193240.60828748345 -100623312.64420891 0 0 0 -32002584.530115604 7788045.0341738462 268311.89879643917 0 268311.89879643917 -99529128.569366097 0 0 0 -32109379.237317204 -21427426.117662847 22209031.251315251 0 22209031.251315251 -102642471.49917603 0 0 0 -43424464.165893614 -5713485.6366904005 -14647845.919610038 0 -14647845.919610038 -106871656.11331987 0 0 0 -39404799.612503551 20738574.479352951 -558124.7873390317 0 -558124.7873390317 -100209451.35536289 0 0 0 -27814806.906603575 13327005.392673969 1726887.0431851149 0 1726887.0431851149 -98958672.376316667 0 0 0 -29971083.444274902 11586728.314438581 -1242596.5496474504 0 -1242596.5496474504 -99135578.99985826 0 0 0 -30642097.739896774 -8923550.9921526909 -6433100.7708982676 0 -6433100.7708982676 -93814866.308155119 0 0 0 -35958446.055107713 1852608.9112401903 11658973.058863282 0 11658973.058863282 -104737721.58519512 0 0 0 -36009789.435884237 -9390569.5008529462 -20953666.830743089 0 -20953666.830743089 -94401508.53965807 0 0 0 -36327227.314178824 17009189.852460146 284111.266212672 0 284111.266212672 -101496385.88244045 0 0 0 -29570518.610493183 15983658.027646184 -318440.43910788 0 -318440.43910788 -101400404.58371973 0 0 0 -29895861.294625759 18361177.607766509 -1308749.2901255488 0 -1308749.2901255488 -100763342.69519401 0 0 0 -28840757.780599833 18475429.335308552 1333979.0121794343 0 1333979.0121794343 -99828600.481851101 0 0 0 -28473609.901289701 9289987.4773971438 3240559.6972056925 0 3240559.6972056925 -99581824.627854109 0 0 0 -31602143.002659976 7988705.9143781066 -3787279.5243574083 0 -3787279.5243574083 -98283527.387987018 0 0 0 -31603187.515763104 10102705.762332022 -1627794.9029625654 0 -1627794.9029625654 -100737959.93047917 0 0 0 -31722338.958851457 20450026.053711869 -990.64309966564178 0 -990.64309966564178 -100260643.38081463 0 0 0 -27933716.064485811 7204795.8841766119 2186832.6805613581 0 2186832.6805613581 -96158019.200676203 0 0 0 -31133628.160774708 7827172.1344050169 -1597114.7258793861 0 -1597114.7258793861 -95355628.165327549 0 0 0 -30634959.610822797 -28554211.018656425 891478.63496493548 0 891478.63496493548 -88817740.244377971 0 0 0 -41080182.942062043 20683919.41158402 620753.39338070154 0 620753.39338070154 -100968250.34439921 0 0 0 -28099515.826485157 20388730.819210529 709899.44293045998 0 709899.44293045998 -101222819.30731201 0 0 0 -28291930.970835567 18260787.35676229 -556826.58938771486 0 -556826.58938771486 -101529046.75355458 0 0 0 -29143890.788877368 11142482.786618471 89203.366801738739 0 89203.366801738739 -99952245.493755817 0 0 0 -31083416.947498083 2116361.6651272774 100444.28339385986 0 100444.28339385986 -99739333.9799757 0 0 0 -34168040.310196877 1865306.5088919788 3135610.0555284023 0 3135610.0555284023 -88950180.03391543 0 0 0 -30479705.733758293 -51893674.87905781 -27587166.827940855 0 -27587166.827940855 -96361053.319944605 0 0 0 -51889154.869650841 2108796.175504812 -147243.53776896 0 -147243.53776896 -99612076.102164 0 0 0 -34126147.974330775 -52268469.485243864 27632029.121578828 0 27632029.121578828 -97057986.384371594 0 0 0 -52264259.554365404 10903889.860622883 -113541.4168697034 0 -113541.4168697034 -100168732.84741116 0 0 0 -31242695.045375347 2153619.7447290686 -3135194.9474382401 0 -3135194.9474382401 -88315730.222127035 0 0 0 -30156738.667089317 19546215.104180098 -1163466.2017394006 0 -1163466.2017394006 -100119594.66790104 0 0 0 -28200682.847302437 17917443.676273465 1445901.9029914141 0 1445901.9029914141 -100853789.94885874 0 0 0 -29027721.195405126 9043516.414547652 2457106.0449323058 0 2457106.0449323058 -100097678.3884775 0 0 0 -31868956.690875441 6087776.5357395411 -3833601.9779135287 0 -3833601.9779135287 -99308735.24458456 0 0 0 -32627335.548095644 21018373.556446195 87031.984330415726 0 87031.984330415726 -100245472.36870217 0 0 0 -27729484.58428967 9476048.8386403322 1886934.6619120091 0 1886934.6619120091 -98845008.288647175 0 0 0 -31279135.807502389 9424504.6615120173 -2331850.6327788085 0 -2331850.6327788085 -98904293.705285072 0 0 0 -31317926.165320516 -12677019.65296378 954037.84023056924 0 954037.84023056924 -86799609.283433065 0 0 0 -34816820.127738871 18613582.377555251 -1481540.6125456691 0 -1481540.6125456691 -99803488.42271471 0 0 0 -28416467.115805745 18555992.11410594 1220283.2958562374 0 1220283.2958562374 -100712502.81080055 0 0 0 -28754778.743843079 5775902.6177319884 2668818.6211398095 0 2668818.6211398095 -100132354.52957237 0 0 0 -33024758.169144154 7922798.4308177829 -3519904.9637528658 0 -3519904.9637528658 -100146383.12136602 0 0 0 -32278254.641691864 4553714.668718338 -886249.28509777784 0 -886249.28509777784 -97584858.252171993 0 0 0 -32560900.254208803 -37864634.972871006 12183208.207886659 0 12183208.207886659 -88671579.933644697 0 0 0 -44287675.217280507 4512978.2900131941 871696.50636896491 0 871696.50636896491 -90856974.816905022 0 0 0 -30220398.784412146 18303806.245718479 185896.67666399479 0 185896.67666399479 -100009794.92592645 0 0 0 -28597096.038072586 1151429.1927107573 -429373.85293424129 0 -429373.85293424129 -98185903.234649658 0 0 0 -33962065.914678574 -45494063.418255322 14584574.328348791 0 14584574.328348791 -84486518.258916274 0 0 0 -45493203.587010056 17033363.329743862 202619.22187715487 0 202619.22187715487 -100232214.83450222 0 0 0 -29119598.026665211 1422043.8223312036 599182.67325747013 0 599182.67325747013 -85612330.489458054 0 0 0 -29466600.33349441 1569385.6116838271 1137361.2866390347 0 1137361.2866390347 -88293820.781200811 0 0 0 -30353552.30933084 18480609.401006222 181507.55028045177 0 181507.55028045177 -99894092.057872772 0 0 0 -28494718.92990303 -45084376.511206016 11182292.018989882 0 11182292.018989882 -83732189.823379412 0 0 0 -45085798.217104889 1721411.030809846 -447700.83247673512 0 -447700.83247673512 -96827128.312475756 0 0 0 -33287001.048583064 11861645.861052752 -246898.3546615839 0 -246898.3546615839 -99180112.428589821 0 0 0 -30561463.298637867 8144958.7607555389 382725.45486032963 0 382725.45486032963 -98901439.795276165 0 0 0 -31764768.362082481 -13302556.743956834 22130361.078666229 0 22130361.078666229 -98860351.525645852 0 0 0 -39257017.8943609 -3610480.7861094475 -18762933.581386596 0 -18762933.581386596 -110629589.41225612 0 0 0 -39984024.569427848 20093213.828716397 -778090.35666239262 0 -778090.35666239262 -100944159.02571988 0 0 0 -28297830.818951249 20351030.364891008 -946652.30204832554 0 -946652.30204832554 -100264352.09830338 0 0 0 -27969662.606694505 17539501.122394085 1793891.3848448843 0 1793891.3848448843 -99181645.551077127 0 0 0 -28574750.550039053 17246063.447297335 1596579.2279826328 0 1596579.2279826328 -100711351.50821257 0 0 0 -29212850.821320295 12382647.64583838 1306978.0973795503 0 1306978.0973795503 -100409596.45904696 0 0 0 -30809432.084623098 10797997.969527245 917482.31623465568 0 917482.31623465568 -100971507.14886999 0 0 0 -31560728.212770104 -848872.25985078514 -2662453.9798440337 0 -2662453.9798440337 -100020035.45540881 0 0 0 -35304117.700340852 5591729.3307192922 -3665571.3457717597 0 -3665571.3457717597 -97979199.889379188 0 0 0 -32335614.695530951 12492690.729355454 -291430.92207479477 0 -291430.92207479477 -99193199.917618275 0 0 0 -30345178.215891957 11585102.097094297 553716.38646924496 0 553716.38646924496 -98540235.419035912 0 0 0 -30434296.662679434 12161941.606800675 -2133113.8417602181 0 -2133113.8417602181 -97258869.197734594 0 0 0 -29783924.656826854 20442319.720709085 368558.6023876667 0 368558.6023876667 -100628422.50659084 0 0 0 -28065135.975058556 -18096022.627764836 3853657.4280631691 0 3853657.4280631691 -94015279.905972123 0 0 0 -39238955.886807859 10748115.570001006 1149252.8222050667 0 1149252.8222050667 -97788127.818067312 0 0 0 -30464004.286823273 11776367.540283084 -341880.4808755219 0 -341880.4808755219 -99953632.298870087 0 0 0 -30862042.665505469 10306823.578301907 -131265.30005520582 0 -131265.30005520582 -100621916.82798409 0 0 0 -31610282.637388706 20250067.970344305 523124.21644166112 0 523124.21644166112 -99936331.404328346 0 0 0 -27890192.201894522 9644425.1970594823 -2020493.2868372202 0 -2020493.2868372202 -99540940.240886182 0 0 0 -31463780.265339524 8949901.9508020431 921500.70232105255 0 921500.70232105255 -98959115.571534485 0 0 0 -31503224.767256424 -11345495.292220026 6823500.7172362078 0 6823500.7172362078 -87548955.703860313 0 0 0 -34613057.848628104 17879542.844158351 -659357.0677960515 0 -659357.0677960515 -101203977.43431222 0 0 0 -29163552.106553793 19896880.641918421 -967499.45366561413 0 -967499.45366561413 -101149070.43382072 0 0 0 -28438266.427165747 18364682.318878055 1496904.5224477649 0 1496904.5224477649 -100081016.14956176 0 0 0 -28600716.840739369 12876037.153461844 1385838.8717339635 0 1385838.8717339635 -100304454.29617 0 0 0 -30599945.999947876 6465148.1619973183 -1918396.1490727291 0 -1918396.1490727291 -98941327.745199203 0 0 0 -32366662.854120791 20090192.951177776 808810.26861190796 0 808810.26861190796 -100724022.27222705 0 0 0 -28221840.262367189 15301829.018661499 -1852691.243908897 0 -1852691.243908897 -99239499.792531013 0 0 0 -29378184.770854235 12233466.153976321 -1032285.8187026978 0 -1032285.8187026978 -100470044.22797894 0 0 0 -30882802.325900912 -1700856.2326748669 4734749.6953046322 0 4734749.6953046322 -94786437.615407705 0 0 0 -33770552.846828878 15975256.243866351 305173.62781894207 0 305173.62781894207 -101428521.49429914 0 0 0 -29908642.837651584 4144741.2255535722 1574563.8265420794 0 1574563.8265420794 -100693762.53587508 0 0 0 -33792157.458612502 16995729.397190928 -504882.74686467648 0 -504882.74686467648 -101841469.24565482 0 0 0 -29696008.946962476 19329134.35342896 1308699.0998183489 0 1308699.0998183489 -100808871.5426662 0 0 0 -28517908.016233087 18025485.251814663 -207016.56871634722 0 -207016.56871634722 -101512762.09996986 0 0 0 -29220546.896854341 19849844.359111547 -20792.104903873664 0 -20792.104903873664 -100092823.85123539 0 0 0 -28085042.822243214 1398278.940047075 714204.17866957188 0 714204.17866957188 -94157812.059508696 0 0 0 -32465836.591811609 2059376.4889850083 -752150.91977512836 0 -752150.91977512836 -92057026.941857934 0 0 0 -31499177.658505492 -45120867.966903456 -1074275.9723681458 0 -1074275.9723681458 -83805085.013486832 0 0 0 -45124083.543136597 14384949.435985684 -2106641.5348398089 0 -2106641.5348398089 -99531517.223905087 0 0 0 -29801298.725772023 21128141.337548971 315265.14584746957 0 315265.14584746957 -100727206.82003307 0 0 0 -27859672.918869495 -3423207.1759445071 1706442.9155354053 0 1706442.9155354053 -94682284.450187683 0 0 0 -34336922.069146276 13431504.011554658 1125910.3854418993 0 1125910.3854418993 -100024073.56902039 0 0 0 -30307399.34511286 9790464.2213585973 517468.83467710856 0 517468.83467710856 -97562107.877712965 0 0 0 -30720075.279724002 19460665.900018215 338895.69269794226 0 338895.69269794226 -101390609.99235153 0 0 0 -28675480.43231678 18023240.461743832 -105171.57987701893 0 -105171.57987701893 -101716618.90089035 0 0 0 -29292682.453701258 -41631448.666855633 -50108714.442588829 0 -50108714.442588829 -193969415.37841904 0 0 0 -82460302.415846109 -81251989.703792378 50769971.195616506 0 50769971.195616506 -151136314.51008621 0 0 0 -81335906.474857509 -41759180.955113865 50277226.017560601 0 50277226.017560601 -193914091.11316383 0 0 0 -82485645.223897189 -81133549.525764182 -50641582.449635074 0 -50641582.449635074 -150914861.14012653 0 0 0 -81216943.733061746 1809450.0961871147 49829.128788891896 0 49829.128788891896 -100689787.24909639 0 0 0 -34608118.003518105 1565517.6389636993 -69394.804860472679 0 -69394.804860472679 -99651028.567539692 0 0 0 -34329928.825001717 1784357.8803081512 -15463.441903710365 0 -15463.441903710365 -100573223.06947613 0 0 0 -34576102.816209078 1393165.9285498736 69387.971789956093 0 69387.971789956093 -99616355.026427507 0 0 0 -34378116.184257165 19023068.325748682 854740.54779911041 0 854740.54779911041 -101496008.78834033 0 0 0 -28865529.161907077 16399477.356479287 404177.63201838732 0 404177.63201838732 -101281339.91545224 0 0 0 -29708651.895640612 16018168.989766836 -374620.79992133379 0 -374620.79992133379 -100920324.91665089 0 0 0 -29715754.574409485 19145494.087635517 -220780.34420955181 0 -220780.34420955181 -100245308.19836593 0 0 0 -28384934.938755512 5422776.7074387074 1368563.9753920436 0 1368563.9753920436 -96615893.786457062 0 0 0 -31917590.977656364 5604960.6551778316 -1042013.0057842135 0 -1042013.0057842135 -91616015.708473921 0 0 0 -30103869.268653631 -37061414.107542843 -8171816.692650618 0 -8171816.692650618 -88725775.814647228 0 0 0 -44025516.472766533 18662034.244393229 -1113674.3872569799 0 -1113674.3872569799 -100465224.21814823 0 0 0 -28631116.490814209 16507500.360080719 1653751.7244128734 0 1653751.7244128734 -99546786.996536255 0 0 0 -29063750.32275939 8432268.1046251059 3411761.4343631715 0 3411761.4343631715 -100846478.71397245 0 0 0 -32344973.713271677 2185280.6067853644 -5545798.3765510619 0 -5545798.3765510619 -97359278.052736193 0 0 0 -33310899.10608273 16153277.888717599 323734.7693362236 0 323734.7693362236 -101204053.03319164 0 0 0 -29767771.30056601 11184758.370859146 -926577.22597168386 0 -926577.22597168386 -100202530.31259286 0 0 0 -31156220.179606795 17299172.352088094 -294342.02975511551 0 -294342.02975511551 -99728802.998735666 0 0 0 -28850370.726326585 1484452.3870930672 406217.72728610039 0 406217.72728610039 -99508901.681987762 0 0 0 -34308557.253213167 17098822.681915045 -239307.6793385148 0 -239307.6793385148 -100382236.64446115 0 0 0 -29149194.886891365 3672381.6209874153 882138.65493190289 0 882138.65493190289 -99224050.324289799 0 0 0 -33443084.04615581 505995.12150388956 -1019187.0027855933 0 -1019187.0027855933 -92648552.099792361 0 0 0 -32249894.942400873 -33696419.241221353 -16124204.829199221 0 -16124204.829199221 -80638280.224487647 0 0 0 -40017144.812998153 3380849.9801062942 567055.36608147621 0 567055.36608147621 -93998619.881982207 0 0 0 -31716219.465656698 -31863651.392618664 -13864097.16738225 0 -13864097.16738225 -84970118.210561186 0 0 0 -40891819.36111296 8510271.8740127087 -515123.63902147114 0 -515123.63902147114 -98910970.711483479 0 0 0 -31640244.593114853 14312656.517712116 365008.76388072968 0 365008.76388072968 -98920935.660575509 0 0 0 -29612897.700002432 14798306.582676172 -1674372.7137592435 0 -1674372.7137592435 -100016763.34996724 0 0 0 -29826459.86855197 19596910.72857976 896553.20760563016 0 896553.20760563016 -99836039.016726494 0 0 0 -28083694.900851488 -2045366.9844470024 7265590.1635004953 0 7265590.1635004953 -96530149.464801848 0 0 0 -34501430.757237107 10189740.863024324 -1667535.6415616572 0 -1667535.6415616572 -99351700.816635668 0 0 0 -31206685.983763963 -25601768.956009291 21558584.543699048 0 21558584.543699048 -102209885.64557621 0 0 0 -44734079.110554926 489628.19972348213 -8282270.1550424322 0 -8282270.1550424322 -101137241.07190216 0 0 0 -35226664.505262613 12655008.58153069 -664831.70373147726 0 -664831.70373147726 -100536557.68312502 0 0 0 -30758542.185558021 20532336.196990728 179013.57763588428 0 179013.57763588428 -100410616.85092771 0 0 0 -27957398.22887814 9395951.3762713671 2250313.4306483269 0 2250313.4306483269 -95993435.427942753 0 0 0 -30309119.418084979 9883031.4958415031 -1906322.1692189872 0 -1906322.1692189872 -96266630.522879362 0 0 0 -30234259.659463167 -24387107.539871506 3353516.1158388481 0 3353516.1158388481 -91869632.960786551 0 0 0 -40689859.175230302 21376044.022561908 64803.370450973511 0 64803.370450973511 -100795705.20416117 0 0 0 -27796881.413559556 21052056.640032649 204850.67448437214 0 204850.67448437214 -101197074.09298253 0 0 0 -28050756.10853231 15922075.806857944 1221454.2788020968 0 1221454.2788020968 -100885756.17352605 0 0 0 -29737288.128333807 14971709.635660768 792757.52893278003 0 792757.52893278003 -100237927.00710154 0 0 0 -29843176.080004215 16077106.223120689 -1438726.0270070732 0 -1438726.0270070732 -101109838.17198181 0 0 0 -29761456.182101488 16471551.213612676 -1395698.235953331 0 -1395698.235953331 -100026812.41015458 0 0 0 -29244341.418789744 18765020.658229351 -428148.22349107265 0 -428148.22349107265 -99852579.692887306 0 0 0 -28380645.662130356 8125630.5719351768 1442103.6125277877 0 1442103.6125277877 -97512808.744877815 0 0 0 -31285512.3605299 7152752.1106548905 -670760.54925462604 0 -670760.54925462604 -95237980.87190479 0 0 0 -30829830.066437304 -28127751.297841206 -11758018.592814509 0 -11758018.592814509 -92264474.316817701 0 0 0 -42137278.965130612 19177027.344718933 -538151.20639061928 0 -538151.20639061928 -100384734.892169 0 0 0 -28422697.641607761 10771026.400092363 1899055.6333233118 0 1899055.6333233118 -97545522.188588142 0 0 0 -30371073.52597332 8282111.1750274897 389968.59396222234 0 389968.59396222234 -97775530.908170938 0 0 0 -31322696.906600237 -20694294.314746812 -8280025.9589693546 0 -8280025.9589693546 -93321516.252867818 0 0 0 -39905533.698665097 15259519.235437036 302584.64549380541 0 302584.64549380541 -101195735.7603426 0 0 0 -30077675.783716917 9508498.7020936012 -1566772.4100828171 0 -1566772.4100828171 -98164706.709208965 0 0 0 -31029672.802490234 18707378.989961386 563379.02644586563 0 563379.02644586563 -99501659.485638142 0 0 0 -28277998.173486948 -20870297.518782005 11746490.685306534 0 11746490.685306534 -92654673.649038583 0 0 0 -39733739.908737198 7520012.2354129553 -579789.42138808966 0 -579789.42138808966 -97621289.067742109 0 0 0 -31535446.891315162 13855802.308691978 -537289.75907421112 0 -537289.75907421112 -100323543.83839226 0 0 0 -30263709.535395145 10458524.584217072 711510.690122962 0 711510.690122962 -99054969.145593405 0 0 0 -31008755.5964818 19644026.611095667 -1012957.944244206 0 -1012957.944244206 -99904338.219360113 0 0 0 -28091109.062892675 15981684.590590715 1866797.8129341006 0 1866797.8129341006 -100364183.75529504 0 0 0 -29533874.707646728 9746962.7152759433 1747033.3235193789 0 1747033.3235193789 -99910515.037418246 0 0 0 -31557243.312749803 1413050.0041313767 -5033860.7192023695 0 -5033860.7192023695 -97506389.446096301 0 0 0 -33632668.804687738 20766724.904204369 269179.14025580883 0 269179.14025580883 -101531684.39421272 0 0 0 -28267735.821502805 17135222.005570412 -193616.8592890501 0 -193616.8592890501 -100044310.99003029 0 0 0 -29018181.144560814 1479851.9723177236 392943.71099853516 0 392943.71099853516 -97818184.853107378 0 0 0 -33718416.508276314 1486027.1801842905 -767547.44620233774 0 -767547.44620233774 -85036883.371580273 0 0 0 -29242799.666988686 -45982391.256269455 -14688949.595445042 0 -14688949.595445042 -85389625.336261958 0 0 0 -45980205.807385996 7937229.9140608907 181595.86621555686 0 181595.86621555686 -100912410.67380548 0 0 0 -32541313.265910685 19770461.369869232 41812.992653846741 0 41812.992653846741 -100076731.30239868 0 0 0 -28107194.476385117 1301316.6225309372 794548.1303243041 0 794548.1303243041 -91627758.371273041 0 0 0 -31614254.612059712 1109017.6253917697 -745160.19337582588 0 -745160.19337582588 -93854925.344096079 0 0 0 -32461067.701546501 -44613975.433154911 2278672.020768737 0 2278672.020768737 -82850163.02722916 0 0 0 -44612448.461134419 2164220.0451965034 7784034.1702964902 0 7784034.1702964902 -100232356.36896348 0 0 0 -34323847.713318408 -25367939.260875225 -21448159.15428409 0 -21448159.15428409 -102424589.45120448 0 0 0 -44727385.049227893 9133506.4239507318 -328665.87966552377 0 -328665.87966552377 -97973201.844327807 0 0 0 -31093893.397131979 16526309.746888205 -383343.78805434704 0 -383343.78805434704 -101301982.24345142 0 0 0 -29671485.373797253 14869499.733229697 107354.66805994511 0 107354.66805994511 -101313253.13001347 0 0 0 -30255313.688874185 320704.84195399284 1259892.9890179336 0 1259892.9890179336 -95003130.527768612 0 0 0 -33138848.990035295 20092168.623555422 119249.00283420086 0 119249.00283420086 -99842006.248401642 0 0 0 -27912443.168696165 -34638250.148914918 3932232.1259174496 0 3932232.1259174496 -78763899.201556131 0 0 0 -39690752.27266486 1498680.9827840328 -682342.51259055734 0 -682342.51259055734 -96061555.577427387 0 0 0 -33097006.108124971 20639081.285518646 -694764.03982925415 0 -694764.03982925415 -100740623.20736551 0 0 0 -28035539.672646284 18121780.197612762 1273791.3927258253 0 1273791.3927258253 -100512188.51642418 0 0 0 -28836642.9115839 12612096.794257224 397623.47557508945 0 397623.47557508945 -100806904.77260423 0 0 0 -30868182.79242146 4771463.1629999876 -2298169.7404581606 0 -2298169.7404581606 -99865514.403916359 0 0 0 -33282917.934320807 19065596.760551333 1098617.0989391208 0 1098617.0989391208 -101227633.7705642 0 0 0 -28756712.953504443 19058947.102003336 435014.89708679914 0 435014.89708679914 -101325788.69626355 0 0 0 -28793394.557991028 18871770.457035303 -1085000.0880022049 0 -1085000.0880022049 -99696601.772504807 0 0 0 -28288690.960414171 15045031.12230444 1544456.125066638 0 1544456.125066638 -99542595.913636208 0 0 0 -29574147.676965952 8057759.6553032398 3108405.5716688633 0 3108405.5716688633 -100167704.1001004 0 0 0 -32238480.555678964 -3105771.309927702 -7712976.4780524075 0 -7712976.4780524075 -97124293.630981088 0 0 0 -35080522.729318082 11632229.380331635 -1292880.7099326849 0 -1292880.7099326849 -101001432.26714849 0 0 0 -31279221.010385871 17926103.263834596 -460745.11996996403 0 -460745.11996996403 -100271161.07790554 0 0 0 -28820770.234924912 6926626.6466088295 1202191.3920817971 0 1202191.3920817971 -99585669.099087238 0 0 0 -32430664.858367205 5658537.8542979956 596224.13704175502 0 596224.13704175502 -99372556.584303617 0 0 0 -32799906.555501938 -18391701.128453381 -12734305.131943226 0 -12734305.131943226 -86710255.315005139 0 0 0 -36785684.755210467 20299628.10274601 -165160.50064688921 0 -165160.50064688921 -100417435.76073313 0 0 0 -28041232.680295229 7785660.6521704197 2162914.5613583326 0 2162914.5613583326 -96469662.319565773 0 0 0 -31039400.583588243 -28108525.134164408 -2197566.6177641489 0 -2197566.6177641489 -89650292.345359772 0 0 0 -41215586.11783345 14175339.91170311 -197330.73472230136 0 -197330.73472230136 -100852685.31486893 0 0 0 -30337070.891108036 696970.77227628231 -1005322.8933897018 0 -1005322.8933897018 -96198806.529362202 0 0 0 -33425642.514980078 -33364602.601201527 182821.95405048691 0 182821.95405048691 -77255120.179816902 0 0 0 -38716902.973356448 4244074.7503842115 -1403664.1298165321 0 -1403664.1298165321 -94142060.03544426 0 0 0 -31464294.849771142 -37033977.673583813 798226.0932133887 0 798226.0932133887 -85188188.472807348 0 0 0 -42777758.151236914 1221179.971714735 525405.91275513172 0 525405.91275513172 -95213510.708580494 0 0 0 -32897315.757902861 20203877.369813681 -19278.871093034744 0 -19278.871093034744 -99945097.841855049 0 0 0 -27909427.165214539 20154847.352800131 22999.02185189724 0 22999.02185189724 -100092301.5626483 0 0 0 -27978108.973446608 3352912.4936875105 1373062.7365072966 0 1373062.7365072966 -94648867.098208189 0 0 0 -31953584.111582279 20491649.377155066 -187571.08738732338 0 -187571.08738732338 -99997458.860404015 0 0 0 -27827033.319137096 5217005.7841328382 1545390.3949466944 0 1545390.3949466944 -97282840.480593204 0 0 0 -32223042.143761158 -25251781.077323847 -3686962.8504996598 0 -3686962.8504996598 -81654516.955398396 0 0 0 -37417204.311452784 18827272.08846283 -840540.85648286343 0 -840540.85648286343 -99596403.273612976 0 0 0 -28269195.914802551 13572730.898830771 1562454.4088931084 0 1562454.4088931084 -98981237.567234993 0 0 0 -29892977.333941579 7736704.7221182585 2215478.6484199762 0 2215478.6484199762 -99282403.681746364 0 0 0 -32040994.635869801 -10060108.18610847 -10080232.89516148 0 -10080232.89516148 -98090611.85105443 0 0 0 -37852752.013007015 15306125.051124573 62103.447377771139 0 62103.447377771139 -101297154.82912326 0 0 0 -30096860.422299504 21030244.198361397 311419.09326338768 0 311419.09326338768 -100944826.47708797 0 0 0 -27970103.797554493 15846496.88769412 -1687113.4076149464 0 -1687113.4076149464 -99402109.170200109 0 0 0 -29244464.29887712 13837267.301391959 850125.7418487668 0 850125.7418487668 -99501268.328463078 0 0 0 -29982400.359474897 -4695833.918546021 2273162.607061103 0 2273162.607061103 -98989771.139886379 0 0 0 -36289961.770451367 18061188.99413836 -165808.43461155891 0 -165808.43461155891 -100133650.56196404 0 0 0 -28725361.548738599 932372.43149209023 626954.21697112918 0 626954.21697112918 -99592363.257328987 0 0 0 -34530996.78904295 697946.88025534153 -213417.45498049259 0 -213417.45498049259 -92948318.117595911 0 0 0 -32287629.933069229 -32201887.433856212 -12098367.739926223 0 -12098367.739926223 -77844545.239875689 0 0 0 -38516251.43580617 18425752.071273252 -317475.150192976 0 -317475.150192976 -99674797.345637247 0 0 0 -28437165.84602721 4472355.2393395901 812573.6367978137 0 812573.6367978137 -97747578.815685272 0 0 0 -32646328.251720905 4514999.4591304064 -1403597.6215253342 0 -1403597.6215253342 -92263003.756911039 0 0 0 -30711801.504223228 -35383536.177262016 -13218754.392397711 0 -13218754.392397711 -86797170.199426532 0 0 0 -42763247.23184099 5011377.702201128 -1806281.0293477178 0 -1806281.0293477178 -96410304.087860584 0 0 0 -31989624.234980702 7860799.9139196873 -1462601.0007069111 0 -1462601.0007069111 -95332163.276921511 0 0 0 -30614977.17705071 20235238.438781381 186495.66312092543 0 186495.66312092543 -101357465.31358266 0 0 0 -28392779.406180382 20906130.755613923 -385443.41031610966 0 -385443.41031610966 -100937355.30400252 0 0 0 -28010928.591935992 14880877.674346328 1994888.9649137855 0 1994888.9649137855 -99193427.39844346 0 0 0 -29509392.403433919 13190024.278140843 -809956.37148994207 0 -809956.37148994207 -100279131.61230958 0 0 0 -30481187.566958964 -4139956.1937425137 -2010458.3659424335 0 -2010458.3659424335 -95757513.710730314 0 0 0 -34964114.46656546 18953139.098560095 -469715.18399709463 0 -469715.18399709463 -101441813.71185446 0 0 0 -28871036.114653111 19347499.304533958 -491489.44356250763 0 -491489.44356250763 -100052951.36988831 0 0 0 -28246908.222873688 7779117.4457893372 1550568.1011565924 0 1550568.1011565924 -99206970.465147257 0 0 0 -31999748.556775093 7343409.2251663208 -612541.38548859954 0 -612541.38548859954 -98435969.21994698 0 0 0 -31882395.998173118 -16774413.439267382 -9952805.5166854039 0 -9952805.5166854039 -86518608.566926211 0 0 0 -36152557.702167727 19996445.923427582 283400.91386324912 0 283400.91386324912 -101732507.68119049 0 0 0 -28607621.61521697 7456416.4550358057 -1432305.4390032291 0 -1432305.4390032291 -99015030.046623707 0 0 0 -32045514.75705564 -20371192.956128567 11350913.295379199 0 11350913.295379199 -88019440.091471791 0 0 0 -37936721.566660136 18083597.64977622 392423.74284732342 0 392423.74284732342 -100488521.0829277 0 0 0 -28841723.201603174 6740424.2121621966 -558421.3719855547 0 -558421.3719855547 -97883412.653734207 0 0 0 -31900045.954550207 19505177.355890989 -370346.38093210757 0 -370346.38093210757 -99760512.284832001 0 0 0 -28089367.225129366 5400908.7727017552 1336111.1557015181 0 1336111.1557015181 -98554627.35422495 0 0 0 -32603801.50353311 5226263.2093888521 -1253343.7613366246 0 -1253343.7613366246 -95966358.628800243 0 0 0 -31759033.396794081 -25302188.947756343 -9537168.8751918599 0 -9537168.8751918599 -84679741.962467656 0 0 0 -38493675.8185784 18366828.600006819 -289434.19086277485 0 -289434.19086277485 -100311486.63125086 0 0 0 -28680630.310935259 5336016.0950468779 1291801.1339857578 0 1291801.1339857578 -98722352.735184908 0 0 0 -32685217.824048162 5321442.9222729206 -227729.46157258749 0 -227729.46157258749 -94917716.671737313 0 0 0 -31358695.812312603 -28663329.245737374 -10402291.852154385 0 -10402291.852154385 -86861799.949393108 0 0 0 -40433795.218295678 21131772.198346376 -342450.49999916553 0 -342450.49999916553 -100314756.69848251 0 0 0 -27714044.575047731 14159043.712739825 1904953.3186488152 0 1904953.3186488152 -99120869.802002788 0 0 0 -29736639.131242037 13029977.510018349 -1357501.0437779427 0 -1357501.0437779427 -98999457.809215426 0 0 0 -30089318.104718804 -7241605.4287751913 -3360298.8300284594 0 -3360298.8300284594 -95069324.841442883 0 0 0 -35808825.594576299 20955424.488296986 389158.77748453617 0 389158.77748453617 -101256203.5180757 0 0 0 -28105272.660422325 21232365.976301432 413255.06955838203 0 413255.06955838203 -100743852.60861754 0 0 0 -27829020.32131052 17866232.289536357 -1127572.2162139416 0 -1127572.2162139416 -100361559.2437923 0 0 0 -28873364.433989525 14411407.766197205 132260.42762774229 0 132260.42762774229 -100997224.15411806 0 0 0 -30305035.735772371 16743553.654998422 -1603902.3472406268 0 -1603902.3472406268 -100862887.36922765 0 0 0 -29441766.799980164 15085813.916604042 637693.46379566193 0 637693.46379566193 -100789161.34469652 0 0 0 -29996171.599832296 13678033.416157536 -439632.79825508595 0 -439632.79825508595 -101064456.22969788 0 0 0 -30585247.984739013 12725531.843131691 242577.27672123909 0 242577.27672123909 -100387783.90673053 0 0 0 -30681788.222259611 6552862.857485503 1410994.5599068105 0 1410994.5599068105 -96252813.459413826 0 0 0 -31394982.710674912 4386649.1156970263 491542.61661684327 0 491542.61661684327 -99835512.234359503 0 0 0 -33407102.091531754 15203769.549451828 -413623.74996507168 0 -413623.74996507168 -100947449.86606932 0 0 0 -30010288.110816002 14287780.451331973 -46439.769953265786 0 -46439.769953265786 -101264158.41937733 0 0 0 -30441732.288815975 5331246.7809713483 -1221146.2571498752 0 -1221146.2571498752 -93628495.722757339 0 0 0 -30904037.129625142 -34524793.378754839 -1352733.77517136 0 -1352733.77517136 -86087340.523220479 0 0 0 -42214246.865691364 4222634.0119597316 -1826716.375505209 0 -1826716.375505209 -96700662.578608394 0 0 0 -32367309.998327076 -27900145.138283379 -1060478.9121777769 0 -1060478.9121777769 -82560476.87471202 0 0 0 -38661217.704548381 20056637.5439291 -73870.896040856838 0 -73870.896040856838 -100249158.46104717 0 0 0 -28067382.320991516 4540962.2658140063 1687578.6357184052 0 1687578.6357184052 -96277004.694342852 0 0 0 -32107614.849985182 20514195.7795012 -48387.769046783447 0 -48387.769046783447 -100001743.22807932 0 0 0 -27820641.607002258 4824906.1444781423 1308483.4637465477 0 1308483.4637465477 -96255607.887382984 0 0 0 -32000745.610016763 18784570.098502219 -1121335.6793020964 0 -1121335.6793020964 -99720836.894651651 0 0 0 -28327693.378652036 17658149.815677881 1434301.7515381873 0 1434301.7515381873 -99999501.938317299 0 0 0 -28819473.242923737 5490177.575565815 3760374.6332800463 0 3760374.6332800463 -100330254.65623784 0 0 0 -33194026.978235126 1381333.7920444161 -5459145.7093507051 0 -5459145.7093507051 -101546208.66657433 0 0 0 -35057706.206085488 6442607.0326818824 79516.345029860735 0 79516.345029860735 -95977686.310529709 0 0 0 -31337277.747246683 21133451.574119329 143299.5096142292 0 143299.5096142292 -101028065.11548996 0 0 0 -27963114.73947978 21316172.209848166 235360.26095003565 0 235360.26095003565 -100706305.5806613 0 0 0 -27786546.679784536 15541622.578904882 -1727741.3969000578 0 -1727741.3969000578 -100541540.65430699 0 0 0 -29749971.326390728 15106000.608769476 -1735682.4496791363 0 -1735682.4496791363 -99355854.236909628 0 0 0 -29487448.769849002 14781357.496486545 1190532.8398929238 0 1190532.8398929238 -99689344.541430593 0 0 0 -29717795.465730429 14646021.625220273 1259709.3262937069 0 1259709.3262937069 -100411383.7087519 0 0 0 -30017876.729236152 2237581.992092669 1331635.3759083289 0 1331635.3759083289 -95480438.048697233 0 0 0 -32634999.619811594 -4127701.150711298 308332.65913201123 0 308332.65913201123 -97984167.634484649 0 0 0 -35739154.074818611 16223481.577779114 -586700.48696792126 0 -586700.48696792126 -100994365.56778622 0 0 0 -29669809.396502554 21329619.627120972 125170.74531239271 0 125170.74531239271 -100624674.50435829 0 0 0 -27753269.207033157 13721179.856033802 1746538.9085202217 0 1746538.9085202217 -99450080.281959295 0 0 0 -30005115.149073839 14211907.742895007 -1792376.5454034805 0 -1792376.5454034805 -99812404.569700956 0 0 0 -29960173.889382005 -4180293.1262987256 1422801.0126971155 0 1422801.0126971155 -95120375.980669141 0 0 0 -34755234.187438726 399667.3351213038 796993.86429363489 0 796993.86429363489 -98875532.678896487 0 0 0 -34466552.870321244 19297274.884258986 -1017279.2775675654 0 -1017279.2775675654 -100842961.00751519 0 0 0 -28540990.143139839 17954775.829408169 1674632.5177520514 0 1674632.5177520514 -99358055.956097126 0 0 0 -28491148.044341087 10473429.561434329 2545150.7796057165 0 2545150.7796057165 -100951563.88574791 0 0 0 -31667347.013509691 3400588.9456544518 -3462286.486751318 0 -3462286.486751318 -99110220.337332487 0 0 0 -33498370.987087309 16009026.136324406 -177556.8706869483 0 -177556.8706869483 -101303015.43358219 0 0 0 -29852896.254040122 657844.94708323479 -533692.76118779182 0 -533692.76118779182 -99718207.551959991 0 0 0 -34671126.911706924 -31320430.928782515 12328287.992475772 0 12328287.992475772 -76527247.607493341 0 0 0 -37746687.487696543 18324116.092157364 173284.12347626686 0 173284.12347626686 -99969404.205234051 0 0 0 -28575850.839577198 345388.57839596272 609853.88006415963 0 609853.88006415963 -93068496.283004045 0 0 0 -32453087.696612954 18399962.994796276 -964656.68318235874 0 -964656.68318235874 -100688709.49156761 0 0 0 -28801061.273869991 14297900.663467526 1687518.228387475 0 1687518.228387475 -99314845.247250795 0 0 0 -29755930.60432446 8945730.3485975266 2768234.9625562429 0 2768234.9625562429 -100862888.01386499 0 0 0 -32171005.182843566 -2712589.0576731265 -7677748.806030333 0 -7677748.806030333 -94342140.768343985 0 0 0 -33969155.439105898 21040385.709638119 316996.00864359736 0 316996.00864359736 -101036306.59179878 0 0 0 -27998572.308756351 16044129.081577154 617554.94765084982 0 617554.94765084982 -100924583.20480064 0 0 0 -29708158.943128377 13669512.805849433 -34299.619260400534 0 -34299.619260400534 -100945235.52517748 0 0 0 -30546502.951764822 19293334.515520096 886892.68259570003 0 886892.68259570003 -100920557.32245684 0 0 0 -28569527.982428074 19200360.928472757 -365707.07910525799 0 -365707.07910525799 -100339208.28989863 0 0 0 -28398596.576499224 8816206.5807688236 1722720.4186102152 0 1722720.4186102152 -96880221.272510529 0 0 0 -30822405.142109394 8059233.8061195612 -787616.43486249447 0 -787616.43486249447 -94757468.196958542 0 0 0 -30344382.03679359 -29346338.369170688 -8602444.665527381 0 -8602444.665527381 -92929248.343930393 0 0 0 -42796455.349585377 19568340.876471996 903511.94963034987 0 903511.94963034987 -101496635.78778076 0 0 0 -28674903.218958139 
</DataArray>
</CellData>
</Piece>
</UnstructuredGrid>
</VTKFile>
