<?xml version="1.0"?>
<VTKFile type="UnstructuredGrid" version="0.1" byte_order="LittleEndian">
<UnstructuredGrid>
<Piece NumberOfPoints="84" NumberOfCells="28">
<Points>
<DataArray type="Float64" NumberOfComponents="3" format="ascii">
0 0 0 0.29166666666652658 0.2916666666668038 0 0 0.33333333333472032 0 0 0 0 0.33333333333250248 0 0 0.29166666666652658 0.2916666666668038 0 0.33333333333250248 0 0 0.66666666666578889 0 0 0.49999999999981742 0.1726190476194705 0 0.33333333333250248 0 0 0.49999999999981742 0.1726190476194705 0 0.29166666666652658 0.2916666666668038 0 0.50000000000004996 0.49999999999997519 0 0.17261904761971569 0.50000000000021494 0 0.29166666666652658 0.2916666666668038 0 0.50000000000004996 0.49999999999997519 0 0.29166666666652658 0.2916666666668038 0 0.49999999999981742 0.1726190476194705 0 0 0.33333333333472032 0 0.29166666666652658 0.2916666666668038 0 0.17261904761971569 0.50000000000021494 0 0 0.66666666666759111 0 0 0.33333333333472032 0 0.17261904761971569 0.50000000000021494 0 0 0.66666666666759111 0 0.17261904761971569 0.50000000000021494 0 0.29166666666684449 0.7083333333334445 0 0 1 0 0.29166666666684449 0.7083333333334445 0 0.33333333333472032 1 0 0 1 0 0 0.66666666666759111 0 0.29166666666684449 0.7083333333334445 0 0.33333333333472032 1 0 0.29166666666684449 0.7083333333334445 0 0.50000000000021227 0.82738095238030207 0 0.50000000000004996 0.49999999999997519 0 0.29166666666684449 0.7083333333334445 0 0.17261904761971569 0.50000000000021494 0 0.50000000000004996 0.49999999999997519 0 0.50000000000021227 0.82738095238030207 0 0.29166666666684449 0.7083333333334445 0 0.50000000000004996 0.49999999999997519 0 0.82738095238054699 0.49999999999982031 0 0.70833333333346027 0.70833333333323512 0 0.50000000000004996 0.49999999999997519 0 0.70833333333346027 0.70833333333323512 0 0.50000000000021227 0.82738095238030207 0 0.66666666666759111 1 0 0.50000000000021227 0.82738095238030207 0 0.70833333333346027 0.70833333333323512 0 0.66666666666759111 1 0 0.33333333333472032 1 0 0.50000000000021227 0.82738095238030207 0 1 1 0 0.70833333333346027 0.70833333333323512 0 1 0.66666666666578889 0 1 1 0 0.66666666666759111 1 0 0.70833333333346027 0.70833333333323512 0 1 0.66666666666578889 0 0.70833333333346027 0.70833333333323512 0 0.82738095238054699 0.49999999999982031 0 1 0.33333333333250248 0 1 0.66666666666578889 0 0.82738095238054699 0.49999999999982031 0 1 0.33333333333250248 0 0.82738095238054699 0.49999999999982031 0 0.70833333333327586 0.2916666666665107 0 1 0 0 0.70833333333327586 0.2916666666665107 0 0.66666666666578889 0 0 1 0 0 1 0.33333333333250248 0 0.70833333333327586 0.2916666666665107 0 0.66666666666578889 0 0 0.70833333333327586 0.2916666666665107 0 0.49999999999981742 0.1726190476194705 0 0.50000000000004996 0.49999999999997519 0 0.70833333333327586 0.2916666666665107 0 0.82738095238054699 0.49999999999982031 0 0.50000000000004996 0.49999999999997519 0 0.49999999999981742 0.1726190476194705 0 0.70833333333327586 0.2916666666665107 0 
</DataArray>
</Points>
<Cells>
<DataArray type="UInt32" Name="connectivity" format="ascii">
0 1 2 3 4 5 6 7 8 9 10 11 12 13 14 15 16 17 18 19 20 21 22 23 24 25 26 27 28 29 30 31 32 33 34 35 36 37 38 39 40 41 42 43 44 45 46 47 48 49 50 51 52 53 54 55 56 57 58 59 60 61 62 63 64 65 66 67 68 69 70 71 72 73 74 75 76 77 78 79 80 81 82 83 
</DataArray>
<DataArray type="UInt32" Name="offsets" format="ascii">
3 6 9 12 15 18 21 24 27 30 33 36 39 42 45 48 51 54 57 60 63 66 69 72 75 78 81 84 
</DataArray>
<DataArray type="UInt32" Name="types" format="ascii">
5 5 5 5 5 5 5 5 5 5 5 5 5 5 5 5 5 5 5 5 5 5 5 5 5 5 5 5 
</DataArray>
</Cells>
<PointData Scalars="" Vectors="displacement," Tensors="">
<DataArray type="Float64" Name="displacement" NumberOfComponents="3" format="ascii">
-1.5584824053442108e-08 -0.00030001694165653596 0 0.070088335646836086 -0.28022257567506154 0 -7.4780358005472303e-09 -0.32020499126343915 0 -1.5584824053442108e-08 -0.00030001694165653596 0 0.080098696840246508 -0.00030001628284759724 0 0.0700883356468361 -0.28022257567506154 0 0.080098696840246508 -0.0003000162828475516 0 0.16016947698623049 -0.00029999067760386205 0 0.12013904093668798 -0.16597510637889371 0 0.080098696840246508 -0.0003000162828475516 0 0.12013904093668798 -0.16597510637889371 0 0.0700883356468361 -0.28022257567506154 0 0.12014811499821387 -0.48018508042122154 0 0.041485072131015398 -0.48015896687847548 0 0.0700883356468361 -0.28022257567506154 0 0.12014811499821387 -0.48018508042122154 0 0.0700883356468361 -0.28022257567506148 0 0.12013904093668798 -0.16597510637889371 0 -7.4780358005472303e-09 -0.32020499126343915 0 0.0700883356468361 -0.28022257567506154 0 0.041485072131015398 -0.48015896687847548 0 -1.5064092415384313e-08 -0.64010410590651468 0 -7.4780358005472303e-09 -0.32020499126343915 0 0.041485072131015398 -0.48015896687847548 0 -1.5064092415384313e-08 -0.64010410590651468 0 0.041485072131015398 -0.48015896687847548 0 0.070102369071105716 -0.68010724364841979 0 6.066908025753392e-08 -0.9599967308592946 0 0.070102369071105716 -0.68010724364841979 0 0.080143850737968078 -0.96003171953462541 0 6.066908025753392e-08 -0.9599967308592946 0 -1.5064092415384313e-08 -0.64010410590651468 0 0.070102369071105716 -0.68010724364841979 0 0.080143850737968078 -0.96003171953462541 0 0.070102369071105716 -0.68010724364841979 0 0.1201738468793935 -0.79439592373567103 0 0.12014811499821387 -0.48018508042122154 0 0.070102369071105716 -0.68010724364841979 0 0.041485072131015398 -0.48015896687847548 0 0.12014811499821387 -0.48018508042122154 0 0.12017384687939349 -0.79439592373567103 0 0.070102369071105716 -0.68010724364841979 0 0.12014811499821387 -0.48018508042122154 0 0.19877077226574658 -0.48022254380833357 0 0.17020407757188386 -0.68017212887449519 0 0.12014811499821387 -0.48018508042122154 0 0.17020407757188386 -0.68017212887449519 0 0.1201738468793935 -0.79439592373567103 0 0.16024891692840948 -0.96011956471511117 0 0.1201738468793935 -0.79439592373567103 0 0.17020407757188386 -0.68017212887449519 0 0.16024891692840948 -0.96011956471511117 0 0.080143850737968078 -0.96003171953462541 0 0.1201738468793935 -0.79439592373567103 0 0.24028119645225071 -0.96020262739021189 0 0.17020407757188386 -0.68017212887449519 0 0.24021784190538828 -0.64022672073181486 0 0.24028119645225071 -0.96020262739021189 0 0.16024891692840948 -0.96011956471511117 0 0.17020407757188386 -0.68017212887449519 0 0.24021784190538828 -0.64022672073181486 0 0.17020407757188386 -0.68017212887449519 0 0.19877077226574658 -0.48022254380833357 0 0.24019385794716994 -0.32025644615870608 0 0.24021784190538828 -0.64022672073181486 0 0.19877077226574658 -0.48022254380833357 0 0.24019385794716994 -0.32025644615870608 0 0.19877077226574658 -0.48022254380833357 0 0.17017893881836166 -0.28024781358620149 0 0.24019347709365835 -0.00029996913744075249 0 0.17017893881836166 -0.28024781358620149 0 0.16016947698623049 -0.00029999067760386205 0 0.24019347709365835 -0.00029996913744075249 0 0.24019385794716994 -0.32025644615870608 0 0.17017893881836166 -0.28024781358620149 0 0.16016947698623049 -0.00029999067760386205 0 0.17017893881836166 -0.28024781358620149 0 0.12013904093668798 -0.16597510637889371 0 0.12014811499821387 -0.48018508042122154 0 0.17017893881836166 -0.28024781358620149 0 0.19877077226574658 -0.48022254380833357 0 0.12014811499821387 -0.48018508042122154 0 0.12013904093668798 -0.16597510637889371 0 0.17017893881836166 -0.28024781358620149 0 
</DataArray>
</PointData>
<CellData Scalars="displacement_divergence," Vectors="" Tensors="stress,">
<DataArray type="Float64" Name="stress" NumberOfComponents="9" format="ascii">
0.00041573716440113095 -8.1415849124133466e-06 0 -8.1415849124133466e-06 -0.99959911046031102 0 0 0 -0.19983667465918198 0.00040279445591862029 2.8263372002678879e-06 0 2.8263372002678879e-06 -0.9996227274922036 0 0 0 -0.199843986607257 0.00029898662737848358 1.1989993801736173e-05 0 1.1989993801736173e-05 -0.99968880531542648 0 0 0 -0.19987796373760958 0.0003422828941948286 -1.4795424983282679e-05 0 -1.4795424983282679e-05 -0.9996430174595391 0 0 0 -0.19986014691306886 0.00038308398510056296 -3.027672865628264e-05 0 -3.027672865628264e-05 -0.99963366418946875 0 0 0 -0.19985011604087366 0.00035229084098789554 -9.8573599776885512e-06 0 -9.8573599776885512e-06 -0.99967093560761777 0 0 0 -0.19986372895332596 0.00042197931313492365 1.6336596107557888e-06 0 1.6336596107557888e-06 -0.99958726708505674 0 0 0 -0.1998330575543843 0.00044782636114315544 -1.0674331125892778e-05 0 -1.0674331125892778e-05 -0.99957277667071254 0 0 0 -0.19982499006191384 0.00046360467311079567 -1.2089610515464422e-05 0 -1.2089610515464422e-05 -0.99959552181821598 0 0 0 -0.19982638342902093 0.00055539327432785335 -1.0153118445765941e-05 0 -1.0153118445765941e-05 -0.99957580275961755 0 0 0 -0.19980408189705801 0.00047947794245381602 -2.3561938501392987e-05 0 -2.3561938501392987e-05 -0.99954458349459652 0 0 0 -0.19981302111042856 0.00039571027235549283 -3.1301907236436222e-05 0 -3.1301907236436222e-05 -0.99960506081025058 0 0 0 -0.19984187010757895 0.00039255878631988539 -8.1272596239578832e-06 0 -8.1272596239578832e-06 -0.99959576498459146 0 0 0 -0.19984064123965439 0.00039483760735789151 -2.7633552658112848e-05 0 -2.7633552658112848e-05 -0.99966306478240996 0 0 0 -0.19985364543501041 0.00022292293551751108 -9.5568620968415324e-07 0 -9.5568620968415324e-07 -0.99976030984610231 0 0 0 -0.19990747738211689 0.00027466149859123323 -3.6637566082298179e-05 0 -3.6637566082298179e-05 -0.99969310880960216 0 0 0 -0.1998836894622022 0.00032351626229665253 -8.9678341147481078e-06 0 -8.9678341147481078e-06 -0.99976286431068306 0 0 0 -0.1998878696096773 0.00040584621678219079 -5.5406932511010919e-05 0 -5.5406932511010919e-05 -0.99968994251477827 0 0 0 -0.19985681925959908 0.00010268217353448517 5.5071974888187825e-06 0 5.5071974888187825e-06 -0.99989903776147449 0 0 0 -0.19995927111758793 0.0001477711041067975 -3.4007919816129562e-05 0 -3.4007919816129562e-05 -0.9998124096343628 0 0 0 -0.1999329277060512 0.00010186814410995115 -4.6691725768849279e-05 0 -4.6691725768849279e-05 -0.99982136689724355 0 0 0 -0.19994389975062676 6.6650382644698866e-05 -1.5977798096589169e-05 0 -1.5977798096589169e-05 -0.9998904454454447 0 0 0 -0.19996475901256 8.6761839394822182e-05 9.8856819918391459e-06 0 9.8856819918391459e-06 -0.99982154614265606 0 0 0 -0.19994695686065223 0.00012969026094493066 9.2580945353582726e-06 0 9.2580945353582726e-06 -0.99978124029643423 0 0 0 -0.19993031000709785 9.2922565825916004e-05 -1.9628140816907447e-05 0 -1.9628140816907447e-05 -0.99984076005249001 0 0 0 -0.19994956749733281 0.00026068701914981618 -1.5747380629760332e-05 0 -1.5747380629760332e-05 -0.99974203395089112 0 0 0 -0.19989626938634825 0.00022572419385635811 -4.4128156225675674e-05 0 -4.4128156225675674e-05 -0.99974910481274581 0 0 0 -0.19990467612377788 0.00025945497084803104 -1.7520851850250097e-05 0 -1.7520851850250097e-05 -0.99969414457515271 0 0 0 -0.19988693792086096 
</DataArray>
<DataArray type="Float64" Name="displacement_divergence" format="ascii">
-0.71941202877305499 -0.71943835178612503 -0.71956066945539454 -0.71949652888704796 -0.71946041774714486 -0.71950942423197362 -0.71939900719578342 -0.71936996422289001 -0.71937498034447578 -0.71929469482940833 -0.71932687599754253 -0.71943073238728417 -0.71942630846275613 -0.71947312356603732 -0.71966691857562104 -0.71958128206392735 -0.7195963305948383 -0.71948454933455697 -0.71985337602331634 -0.71975853974178428 -0.71979803910225604 -0.71987313244521611 -0.71980904469834783 -0.71974911602555225 -0.71981844299039799 -0.7196265697908536 -0.71965683404560021 -0.71959297651509924 
</DataArray>
</CellData>
</Piece>
</UnstructuredGrid>
</VTKFile>
