<?xml version="1.0"?>
<VTKFile type="UnstructuredGrid" version="0.1" byte_order="LittleEndian">
<UnstructuredGrid>
<Piece NumberOfPoints="84" NumberOfCells="28">
<Points>
<DataArray type="Float64" NumberOfComponents="3" format="ascii">
0 0 0 0.29166666666652658 0.2916666666668038 0 0 0.33333333333472032 0 0 0 0 0.33333333333250248 0 0 0.29166666666652658 0.2916666666668038 0 0.33333333333250248 0 0 0.66666666666578889 0 0 0.49999999999981742 0.1726190476194705 0 0.33333333333250248 0 0 0.49999999999981742 0.1726190476194705 0 0.29166666666652658 0.2916666666668038 0 0.50000000000004996 0.49999999999997519 0 0.17261904761971569 0.50000000000021494 0 0.29166666666652658 0.2916666666668038 0 0.50000000000004996 0.49999999999997519 0 0.29166666666652658 0.2916666666668038 0 0.49999999999981742 0.1726190476194705 0 0 0.33333333333472032 0 0.29166666666652658 0.2916666666668038 0 0.17261904761971569 0.50000000000021494 0 0 0.66666666666759111 0 0 0.33333333333472032 0 0.17261904761971569 0.50000000000021494 0 0 0.66666666666759111 0 0.17261904761971569 0.50000000000021494 0 0.29166666666684449 0.7083333333334445 0 0 1 0 0.29166666666684449 0.7083333333334445 0 0.33333333333472032 1 0 0 1 0 0 0.66666666666759111 0 0.29166666666684449 0.7083333333334445 0 0.33333333333472032 1 0 0.29166666666684449 0.7083333333334445 0 0.50000000000021227 0.82738095238030207 0 0.50000000000004996 0.49999999999997519 0 0.29166666666684449 0.7083333333334445 0 0.17261904761971569 0.50000000000021494 0 0.50000000000004996 0.49999999999997519 0 0.50000000000021227 0.82738095238030207 0 0.29166666666684449 0.7083333333334445 0 0.50000000000004996 0.49999999999997519 0 0.82738095238054699 0.49999999999982031 0 0.70833333333346027 0.70833333333323512 0 0.50000000000004996 0.49999999999997519 0 0.70833333333346027 0.70833333333323512 0 0.50000000000021227 0.82738095238030207 0 0.66666666666759111 1 0 0.50000000000021227 0.82738095238030207 0 0.70833333333346027 0.70833333333323512 0 0.66666666666759111 1 0 0.33333333333472032 1 0 0.50000000000021227 0.82738095238030207 0 1 1 0 0.70833333333346027 0.70833333333323512 0 1 0.66666666666578889 0 1 1 0 0.66666666666759111 1 0 0.70833333333346027 0.70833333333323512 0 1 0.66666666666578889 0 0.70833333333346027 0.70833333333323512 0 0.82738095238054699 0.49999999999982031 0 1 0.33333333333250248 0 1 0.66666666666578889 0 0.82738095238054699 0.49999999999982031 0 1 0.33333333333250248 0 0.82738095238054699 0.49999999999982031 0 0.70833333333327586 0.2916666666665107 0 1 0 0 0.70833333333327586 0.2916666666665107 0 0.66666666666578889 0 0 1 0 0 1 0.33333333333250248 0 0.70833333333327586 0.2916666666665107 0 0.66666666666578889 0 0 0.70833333333327586 0.2916666666665107 0 0.49999999999981742 0.1726190476194705 0 0.50000000000004996 0.49999999999997519 0 0.70833333333327586 0.2916666666665107 0 0.82738095238054699 0.49999999999982031 0 0.50000000000004996 0.49999999999997519 0 0.49999999999981742 0.1726190476194705 0 0.70833333333327586 0.2916666666665107 0 
</DataArray>
</Points>
<Cells>
<DataArray type="UInt32" Name="connectivity" format="ascii">
0 1 2 3 4 5 6 7 8 9 10 11 12 13 14 15 16 17 18 19 20 21 22 23 24 25 26 27 28 29 30 31 32 33 34 35 36 37 38 39 40 41 42 43 44 45 46 47 48 49 50 51 52 53 54 55 56 57 58 59 60 61 62 63 64 65 66 67 68 69 70 71 72 73 74 75 76 77 78 79 80 81 82 83 
</DataArray>
<DataArray type="UInt32" Name="offsets" format="ascii">
3 6 9 12 15 18 21 24 27 30 33 36 39 42 45 48 51 54 57 60 63 66 69 72 75 78 81 84 
</DataArray>
<DataArray type="UInt32" Name="types" format="ascii">
5 5 5 5 5 5 5 5 5 5 5 5 5 5 5 5 5 5 5 5 5 5 5 5 5 5 5 5 
</DataArray>
</Cells>
<PointData Scalars="" Vectors="displacement," Tensors="">
<DataArray type="Float64" Name="displacement" NumberOfComponents="3" format="ascii">
-4.2685164826555291e-06 -0.00030357035780975624 0 0.094052835523148554 -0.25817191159351593 0 -1.9675760192721097e-06 -0.29345196363421328 0 -4.2685164826555291e-06 -0.00030357035780975624 0 0.10710361690699166 -0.00030412621590226796 0 0.094052835523148567 -0.25817191159351593 0 0.10710361690699166 -0.00030412621590222589 0 0.20850505779119999 -0.00029901465998395844 0 0.15892482403391567 -0.15455080748023758 0 0.10710361690699166 -0.00030412621590222589 0 0.15892482403391567 -0.15455080748023758 0 0.094052835523148567 -0.25817191159351593 0 0.16094003228471096 -0.4468603708298593 0 0.056578277076440066 -0.44052106564938626 0 0.094052835523148567 -0.25817191159351593 0 0.16094003228471096 -0.4468603708298593 0 0.094052835523148567 -0.25817191159351588 0 0.15892482403391567 -0.15455080748023758 0 -1.9675760192721097e-06 -0.29345196363421328 0 0.094052835523148567 -0.25817191159351593 0 0.056578277076440066 -0.44052106564938626 0 -3.1894820161107226e-06 -0.58571092160534 0 -1.9675760192721097e-06 -0.29345196363421328 0 0.056578277076440066 -0.44052106564938626 0 -3.1894820161107226e-06 -0.58571092160534 0 0.056578277076440066 -0.44052106564938626 0 0.097388538639091277 -0.62588303034052539 0 1.4582632553206514e-05 -0.87706223726925392 0 0.097388538639091277 -0.62588303034052539 0 0.11765600982056584 -0.88482839073814634 0 1.4582632553206514e-05 -0.87706223726925392 0 -3.1894820161107226e-06 -0.58571092160534 0 0.097388538639091277 -0.62588303034052539 0 0.11765600982056584 -0.88482839073814634 0 0.097388538639091277 -0.62588303034052539 0 0.16711680790032776 -0.73955147514141928 0 0.16094003228471096 -0.4468603708298593 0 0.097388538639091277 -0.62588303034052539 0 0.056578277076440066 -0.44052106564938626 0 0.16094003228471096 -0.4468603708298593 0 0.16711680790032774 -0.73955147514141939 0 0.097388538639091277 -0.62588303034052539 0 0.16094003228471096 -0.4468603708298593 0 0.256138098797276 -0.45619076283088289 0 0.22722489584687286 -0.64158675834765877 0 0.16094003228471096 -0.4468603708298593 0 0.22722489584687286 -0.64158675834765877 0 0.16711680790032776 -0.73955147514141928 0 0.22762476109673246 -0.90567765365269548 0 0.16711680790032776 -0.73955147514141928 0 0.22722489584687286 -0.64158675834765877 0 0.22762476109673246 -0.90567765365269548 0 0.11765600982056584 -0.88482839073814634 0 0.16711680790032776 -0.73955147514141928 0 0.31896118382005528 -0.92736503820529903 0 0.22722489584687286 -0.64158675834765877 0 0.30276332403193001 -0.61576733798252059 0 0.31896118382005528 -0.92736503820529903 0 0.22762476109673246 -0.90567765365269548 0 0.22722489584687286 -0.64158675834765877 0 0.30276332403193001 -0.61576733798252059 0 0.22722489584687286 -0.64158675834765877 0 0.256138098797276 -0.45619076283088289 0 0.29709302905791124 -0.30626440046514697 0 0.30276332403193001 -0.61576733798252059 0 0.256138098797276 -0.45619076283088289 0 0.29709302905791124 -0.30626440046514697 0 0.256138098797276 -0.45619076283088289 0 0.22146002339384019 -0.26452007213481998 0 0.29768674574419973 -0.00029014789041803004 0 0.22146002339384019 -0.26452007213481998 0 0.20850505779119999 -0.00029901465998395844 0 0.29768674574419973 -0.00029014789041803004 0 0.29709302905791124 -0.30626440046514697 0 0.22146002339384019 -0.26452007213481998 0 0.20850505779119999 -0.00029901465998395844 0 0.22146002339384019 -0.26452007213481998 0 0.15892482403391567 -0.15455080748023758 0 0.16094003228471096 -0.4468603708298593 0 0.22146002339384019 -0.26452007213481998 0 0.256138098797276 -0.45619076283088289 0 0.16094003228471096 -0.4468603708298593 0 0.15892482403391567 -0.15455080748023758 0 0.22146002339384019 -0.26452007213481998 0 
</DataArray>
</PointData>
<CellData Scalars="displacement_divergence," Vectors="" Tensors="stress,">
<DataArray type="Float64" Name="stress" NumberOfComponents="9" format="ascii">
0.11401477976314089 -0.0019449768527072808 0 -0.0019449768527072808 -0.88758503404416422 0 0 0 -0.15471405085620465 0.11143785154603864 0.00048173988295924366 0 0.00048173988295924366 -0.89309716161261199 0 0 0 -0.15633186201331467 0.08978763989145086 0.0027110124767217294 0 0.0027110124767217294 -0.90836745148697884 0 0 0 -0.1637159623191056 0.099876221569511536 -0.003670890437923513 0 -0.003670890437923513 -0.89725591787621206 0 0 0 -0.1594759392613401 0.10799166430311319 -0.0071178651541160222 0 -0.0071178651541160222 -0.89627386362260042 0 0 0 -0.15765643986389749 0.10187198582251299 -0.0027817546174796481 0 -0.0027817546174796481 -0.90460788693079408 0 0 0 -0.16054718022165629 0.11522599376098908 0.00014224182569991251 0 0.00014224182569991251 -0.88558322466443418 0 0 0 -0.15407144618068902 0.120649479149398 -0.002269582973191131 0 -0.002269582973191131 -0.88314687387368895 0 0 0 -0.15249947894485821 0.12482549683069621 -0.0025165243893782163 0 -0.0025165243893782163 -0.88871519192038795 0 0 0 -0.15277793901793824 0.14644800375452127 -0.0017615592894899557 0 -0.0017615592894899557 -0.88472582482595419 0 0 0 -0.14765556421428661 0.12821488116216737 -0.005339490967936289 0 -0.005339490967936289 -0.87841914116171427 0 0 0 -0.15004085199990944 0.11193880238249321 -0.0075370213695047372 0 -0.0075370213695047372 -0.89061624388298266 0 0 0 -0.15573548830009787 0.11012178847955628 -0.0023471418014282541 0 -0.0023471418014282541 -0.88775336691686335 0 0 0 -0.15552631568746139 0.11156093423764063 -0.0066092811381495142 0 -0.0066092811381495142 -0.90339964379731486 0 0 0 -0.15836774191193487 0.07137798105059201 -0.000466492802471558 0 -0.000466492802471558 -0.92609983141383578 0 0 0 -0.17094437007264873 0.084211702947047384 -0.0090754733095698148 0 -0.0090754733095698148 -0.91023695161996043 0 0 0 -0.16520504973458255 0.096466552277911122 -0.0020797726141075223 0 -0.0020797726141075223 -0.92670873060962133 0 0 0 -0.16604843566634209 0.11600829060531881 -0.012728805227386243 0 -0.012728805227386243 -0.91057622853271436 0 0 0 -0.15891358758547902 0.035813957086041404 0.0014897645017589722 0 0.0014897645017589722 -0.96478932392210837 0 0 0 -0.18579507336721335 0.050357772531941403 -0.010227919133566472 0 -0.010227919133566472 -0.9402741939169359 0 0 0 -0.17798328427699883 0.035490218970952725 -0.013336472743851774 0 -0.013336472743851774 -0.94312915337158021 0 0 0 -0.1815277868801255 0.02394805251283999 -0.0045589398186693941 0 -0.0045589398186693941 -0.96120966661371843 0 0 0 -0.18745232282017571 0.031426886049823105 0.0029870633236000477 0 0.0029870633236000477 -0.94291853154193495 0 0 0 -0.18229832909842239 0.045632135250956107 0.0025928757595660261 0 0.0025928757595660261 -0.93224255840573633 0 0 0 -0.17732208463095606 0.033429914281723573 -0.0057386412278757071 0 -0.0057386412278757071 -0.9478120607279803 0 0 0 -0.18287642928925135 0.081260730883209273 -0.0039286852460510557 0 -0.0039286852460510557 -0.92167950161676915 0 0 0 -0.16808375414671195 0.072059373660993686 -0.011753851021839901 0 -0.011753851021839901 -0.92337426097217501 0 0 0 -0.17026297746223626 0.081592545014959245 -0.0047849454637990396 0 -0.0047849454637990396 -0.90967774713267902 0 0 0 -0.16561704042354394 
</DataArray>
<DataArray type="Float64" Name="displacement_divergence" format="ascii">
-0.55697058308233682 -0.56279470324793279 -0.58937746434878013 -0.57411338134082457 -0.56756318351003054 -0.57796984879796232 -0.55465720625048043 -0.5489981242014893 -0.55000058046457778 -0.53156003117143191 -0.54014706719967365 -0.56064775788035237 -0.55989473647486099 -0.57012387088296534 -0.61539973226153499 -0.594738179044497 -0.59777436839883147 -0.57208891530772554 -0.66886226412196836 -0.64073982339719615 -0.65350003276845126 -0.67482836215263253 -0.65627398475432064 -0.63835950467144142 -0.65835514544130491 -0.60510151492816311 -0.61294671886405028 -0.59622134552475781 
</DataArray>
</CellData>
</Piece>
</UnstructuredGrid>
</VTKFile>
