<?xml version="1.0"?>
<VTKFile type="UnstructuredGrid" version="0.1" byte_order="LittleEndian">
<UnstructuredGrid>
<Piece NumberOfPoints="84" NumberOfCells="28">
<Points>
<DataArray type="Float64" NumberOfComponents="3" format="ascii">
0 1 0 0.29166666666684449 0.7083333333334445 0 0.33333333333472032 1 0 0 0 0 0.29166666666652658 0.2916666666668038 0 0 0.33333333333472032 0 0 1 0 0 0.66666666666759111 0 0.29166666666684449 0.7083333333334445 0 0 0 0 0.33333333333250248 0 0 0.29166666666652658 0.2916666666668038 0 1 1 0 0.66666666666759111 1 0 0.70833333333346027 0.70833333333323512 0 1 1 0 0.70833333333346027 0.70833333333323512 0 1 0.66666666666578889 0 1 0 0 1 0.33333333333250248 0 0.70833333333327586 0.2916666666665107 0 1 0 0 0.70833333333327586 0.2916666666665107 0 0.66666666666578889 0 0 0.50000000000004996 0.49999999999997519 0 0.29166666666652658 0.2916666666668038 0 0.49999999999981742 0.1726190476194705 0 0.50000000000004996 0.49999999999997519 0 0.29166666666684449 0.7083333333334445 0 0.17261904761971569 0.50000000000021494 0 0.50000000000004996 0.49999999999997519 0 0.17261904761971569 0.50000000000021494 0 0.29166666666652658 0.2916666666668038 0 0.50000000000004996 0.49999999999997519 0 0.50000000000021227 0.82738095238030207 0 0.29166666666684449 0.7083333333334445 0 0.50000000000004996 0.49999999999997519 0 0.49999999999981742 0.1726190476194705 0 0.70833333333327586 0.2916666666665107 0 0.50000000000004996 0.49999999999997519 0 0.82738095238054699 0.49999999999982031 0 0.70833333333346027 0.70833333333323512 0 0.50000000000004996 0.49999999999997519 0 0.70833333333327586 0.2916666666665107 0 0.82738095238054699 0.49999999999982031 0 0.50000000000004996 0.49999999999997519 0 0.70833333333346027 0.70833333333323512 0 0.50000000000021227 0.82738095238030207 0 0.33333333333250248 0 0 0.66666666666578889 0 0 0.49999999999981742 0.1726190476194705 0 1 0.33333333333250248 0 1 0.66666666666578889 0 0.82738095238054699 0.49999999999982031 0 0 0.66666666666759111 0 0 0.33333333333472032 0 0.17261904761971569 0.50000000000021494 0 0.66666666666759111 1 0 0.33333333333472032 1 0 0.50000000000021227 0.82738095238030207 0 0 0.66666666666759111 0 0.17261904761971569 0.50000000000021494 0 0.29166666666684449 0.7083333333334445 0 0.66666666666759111 1 0 0.50000000000021227 0.82738095238030207 0 0.70833333333346027 0.70833333333323512 0 0.33333333333250248 0 0 0.49999999999981742 0.1726190476194705 0 0.29166666666652658 0.2916666666668038 0 1 0.33333333333250248 0 0.82738095238054699 0.49999999999982031 0 0.70833333333327586 0.2916666666665107 0 0 0.33333333333472032 0 0.29166666666652658 0.2916666666668038 0 0.17261904761971569 0.50000000000021494 0 0.33333333333472032 1 0 0.29166666666684449 0.7083333333334445 0 0.50000000000021227 0.82738095238030207 0 0.66666666666578889 0 0 0.70833333333327586 0.2916666666665107 0 0.49999999999981742 0.1726190476194705 0 1 0.66666666666578889 0 0.70833333333346027 0.70833333333323512 0 0.82738095238054699 0.49999999999982031 0 
</DataArray>
</Points>
<Cells>
<DataArray type="UInt32" Name="connectivity" format="ascii">
0 1 2 3 4 5 6 7 8 9 10 11 12 13 14 15 16 17 18 19 20 21 22 23 24 25 26 27 28 29 30 31 32 33 34 35 36 37 38 39 40 41 42 43 44 45 46 47 48 49 50 51 52 53 54 55 56 57 58 59 60 61 62 63 64 65 66 67 68 69 70 71 72 73 74 75 76 77 78 79 80 81 82 83 
</DataArray>
<DataArray type="UInt32" Name="offsets" format="ascii">
3 6 9 12 15 18 21 24 27 30 33 36 39 42 45 48 51 54 57 60 63 66 69 72 75 78 81 84 
</DataArray>
<DataArray type="UInt32" Name="types" format="ascii">
5 5 5 5 5 5 5 5 5 5 5 5 5 5 5 5 5 5 5 5 5 5 5 5 5 5 5 5 
</DataArray>
</Cells>
<PointData Scalars="" Vectors="displacement," Tensors="">
<DataArray type="Float64" Name="displacement" NumberOfComponents="3" format="ascii">
4.1650786114012545e-06 -0.93941634339850788 0 0.07704260938103559 -0.6670040881562298 0 0.089887063507524012 -0.94180722125227334 0 -1.0814873721538124e-06 -0.0003011592487442329 0 0.07608571611727169 -0.27495205895782665 0 -5.1850608412387088e-07 -0.31374060586651142 0 4.1650786114012545e-06 -0.93941634339850788 0 -1.0232895356104169e-06 -0.62679313295872552 0 0.07704260938103559 -0.6670040881562298 0 -1.0814873721538124e-06 -0.0003011592487442329 0 0.086803847508725343 -0.00030112453024452353 0 0.076085716117271704 -0.27495205895782665 0 0.25937253013207634 -0.95353364869417523 0 0.17713299459233553 -0.94782662901765713 0 0.18406598658750292 -0.67145513254886735 0 0.25937253013207634 -0.95353364869417523 0 0.18406598658750292 -0.67145513254886735 0 0.25502613893015397 -0.63520492877031542 0 0.25337577184463095 -0.00029784739730443074 0 0.25339086376524628 -0.31727422203428729 0 0.18235488264448604 -0.27668711522509803 0 0.25337577184463095 -0.00029784739730443074 0 0.18235488264448604 -0.27668711522509803 0 0.1717030845731066 -0.00029937214673124993 0 0.1302075421413692 -0.47236013396705173 0 0.076085716117271704 -0.27495205895782659 0 0.12959211708789067 -0.16330530737087209 0 0.1302075421413692 -0.47236013396705173 0 0.07704260938103559 -0.6670040881562298 0 0.045316964519684623 -0.47056756520439569 0 0.1302075421413692 -0.47236013396705173 0 0.045316964519684623 -0.47056756520439569 0 0.076085716117271704 -0.27495205895782665 0 0.1302075421413692 -0.47236013396705173 0 0.13196571907075491 -0.78148405350868189 0 0.07704260938103559 -0.6670040881562298 0 0.1302075421413692 -0.47236013396705173 0 0.12959211708789067 -0.16330530737087209 0 0.18235488264448604 -0.27668711522509803 0 0.1302075421413692 -0.47236013396705173 0 0.21232954640107832 -0.47493273381981232 0 0.18406598658750292 -0.67145513254886735 0 0.1302075421413692 -0.47236013396705173 0 0.18235488264448604 -0.27668711522509803 0 0.21232954640107832 -0.47493273381981232 0 0.1302075421413692 -0.47236013396705173 0 0.18406598658750292 -0.67145513254886735 0 0.13196571907075491 -0.78148405350868189 0 0.086803847508725343 -0.00030112453024447875 0 0.1717030845731066 -0.00029937214673124993 0 0.12959211708789067 -0.16330530737087209 0 0.25339086376524628 -0.31727422203428729 0 0.25502613893015397 -0.63520492877031542 0 0.21232954640107832 -0.47493273381981232 0 -1.0232895356104169e-06 -0.62679313295872552 0 -5.1850608412387088e-07 -0.31374060586651142 0 0.045316964519684623 -0.47056756520439569 0 0.17713299459233553 -0.94782662901765713 0 0.089887063507524012 -0.94180722125227334 0 0.13196571907075491 -0.78148405350868189 0 -1.0232895356104169e-06 -0.62679313295872552 0 0.045316964519684623 -0.47056756520439569 0 0.07704260938103559 -0.6670040881562298 0 0.17713299459233553 -0.94782662901765713 0 0.13196571907075491 -0.78148405350868189 0 0.18406598658750292 -0.67145513254886735 0 0.086803847508725343 -0.00030112453024447875 0 0.12959211708789067 -0.16330530737087209 0 0.076085716117271704 -0.27495205895782665 0 0.25339086376524628 -0.31727422203428729 0 0.21232954640107832 -0.47493273381981232 0 0.18235488264448604 -0.27668711522509803 0 -5.1850608412387088e-07 -0.31374060586651142 0 0.076085716117271704 -0.27495205895782665 0 0.045316964519684623 -0.47056756520439569 0 0.089887063507524012 -0.94180722125227334 0 0.07704260938103559 -0.6670040881562298 0 0.13196571907075491 -0.78148405350868189 0 0.1717030845731066 -0.00029937214673124993 0 0.18235488264448604 -0.27668711522509803 0 0.12959211708789067 -0.16330530737087209 0 0.25502613893015397 -0.63520492877031542 0 0.18406598658750292 -0.67145513254886735 0 0.21232954640107832 -0.47493273381981232 0 
</DataArray>
</PointData>
<CellData Scalars="displacement_divergence," Vectors="" Tensors="stress,">
<DataArray type="Float64" Name="stress" NumberOfComponents="9" format="ascii">
0.03817702012901425 -0.00068989471348634979 0 -0.00068989471348634979 -0.97082814984067589 0 0 0 -0.18653022594233226 0.028653051614103087 -0.00055841615845941828 0 -0.00055841615845941828 -0.97233500777292137 0 0 0 -0.18873639123176367 0.032977740345195378 -0.0016121629586520747 0 -0.0016121629586520747 -0.96870309754073081 0 0 0 -0.18714507143910711 0.027777448951864847 0.00018930730227553004 0 0.00018930730227553004 -0.97395181664646446 0 0 0 -0.18923487353891993 0.010241429011087155 -0.0023524175283377155 0 -0.0023524175283377155 -0.98702847820526252 0 0 0 -0.19535740983883509 0.00712016670388671 0.00037458012728619483 0 0.00037458012728619483 -0.99299720808347081 0 0 0 -0.19717540827591684 0.0064590959186916269 -0.0013597922136723839 0 -0.0013597922136723839 -0.98893639676336764 0 0 0 -0.19649546016893521 0.0090156874070375283 0.00063435188287635212 0 0.00063435188287635212 -0.98484584126321539 0 0 0 -0.19516603077123559 0.024332685743781141 -0.00069037519145537241 0 -0.00069037519145537241 -0.9772730950077867 0 0 0 -0.1905880818528011 0.027067235877811568 -0.00056876333660238476 0 -0.00056876333660238476 -0.97215658985770093 0 0 0 -0.18901787079597787 0.026423676321056189 -0.0020803524415600608 0 -0.0020803524415600608 -0.9747308280847109 0 0 0 -0.18966143035273098 0.02722649196149737 -0.0019048549473772436 0 -0.0019048549473772436 -0.9767694846439593 0 0 0 -0.18990859853649242 0.017979526964595798 -0.0012132008440255415 0 -0.0012132008440255415 -0.97886138470258188 0 0 0 -0.19217637154759723 0.015439919253907086 -7.6243614887933886e-05 0 -7.6243614887933886e-05 -0.98342946810941134 0 0 0 -0.19359790977110081 0.015636935047825817 -0.0030499844883991045 0 -0.0030499844883991045 -0.98264140493372154 0 0 0 -0.19340089397717913 0.018990929068092965 -0.0025218743817739808 0 -0.0025218743817739808 -0.97882837536730993 0 0 0 -0.19196748925984342 0.020690465335587827 0.0008196240406395073 0 0.0008196240406395073 -0.97847860196256342 0 0 0 -0.19155762732539511 0.004623431398732062 -0.0011103512445225228 0 -0.0011103512445225228 -0.9923776007005447 0 0 0 -0.19755083386036254 0.030823259994042285 -0.00072644840987190484 0 -0.00072644840987190484 -0.970583332166016 0 0 0 -0.1879520144343948 0.027985264218842509 -0.0037966149300317667 0 -0.0037966149300317667 -0.97863308168628649 0 0 0 -0.19012956349348875 0.031899851765118448 -0.00082861450994842212 0 -0.00082861450994842212 -0.97215509491198304 0 0 0 -0.18805104862937289 0.022347056117747344 -0.00062069553501797881 0 -0.00062069553501797881 -0.98361322815740859 0 0 0 -0.19225323440793229 0.023660700298155535 -0.0010185623416775758 0 -0.0010185623416775758 -0.97533542979770926 0 0 0 -0.19033494589991076 0.0060282547191833902 0.00067597748805747759 0 0.00067597748805747759 -0.98763662242526706 0 0 0 -0.19632167354121671 0.02907137584026076 0.00010428720947408543 0 0.00010428720947408543 -0.9715531413652736 0 0 0 -0.18849635310500251 0.027277726465118612 -0.0021494006130857723 0 -0.0021494006130857723 -0.97281944626066463 0 0 0 -0.18910834395910925 0.018058069648245009 -0.0010880066541603117 0 -0.0010880066541603117 -0.98214085511732763 0 0 0 -0.19281655709381657 0.0070651315860358332 -0.0032271574621033083 0 -0.0032271574621033083 -0.987632990677203 0 0 0 -0.19611357181823341 
</DataArray>
<DataArray type="Float64" Name="displacement_divergence" format="ascii">
-0.67150881339239588 -0.67945100843434902 -0.67372225718078516 -0.68124554474011179 -0.70328667541980661 -0.70983146979330036 -0.70738365660816671 -0.70259771077644817 -0.68611709467008408 -0.68046433486552038 -0.68278114926983124 -0.68367095473137252 -0.69183493757134973 -0.69695247517596259 -0.69624321831784464 -0.69108296133543567 -0.68960745837142223 -0.7111830018973051 -0.6766272519638209 -0.68446642857655959 -0.67698377506574214 -0.69211164386855639 -0.68520580523967878 -0.70675802474838012 -0.67858687117800898 -0.68079003825279294 -0.69413960553773935 -0.70600885854564011 
</DataArray>
</CellData>
</Piece>
</UnstructuredGrid>
</VTKFile>
