<?xml version="1.0"?>
<VTKFile type="UnstructuredGrid" version="0.1" byte_order="LittleEndian">
<UnstructuredGrid>
<Piece NumberOfPoints="84" NumberOfCells="28">
<Points>
<DataArray type="Float64" NumberOfComponents="3" format="ascii">
0 1 0 0.29166666666684449 0.7083333333334445 0 0.33333333333472032 1 0 0 0 0 0.29166666666652658 0.2916666666668038 0 0 0.33333333333472032 0 0 1 0 0 0.66666666666759111 0 0.29166666666684449 0.7083333333334445 0 0 0 0 0.33333333333250248 0 0 0.29166666666652658 0.2916666666668038 0 1 1 0 0.66666666666759111 1 0 0.70833333333346027 0.70833333333323512 0 1 1 0 0.70833333333346027 0.70833333333323512 0 1 0.66666666666578889 0 1 0 0 1 0.33333333333250248 0 0.70833333333327586 0.2916666666665107 0 1 0 0 0.70833333333327586 0.2916666666665107 0 0.66666666666578889 0 0 0.50000000000004996 0.49999999999997519 0 0.29166666666652658 0.2916666666668038 0 0.49999999999981742 0.1726190476194705 0 0.50000000000004996 0.49999999999997519 0 0.29166666666684449 0.7083333333334445 0 0.17261904761971569 0.50000000000021494 0 0.50000000000004996 0.49999999999997519 0 0.17261904761971569 0.50000000000021494 0 0.29166666666652658 0.2916666666668038 0 0.50000000000004996 0.49999999999997519 0 0.50000000000021227 0.82738095238030207 0 0.29166666666684449 0.7083333333334445 0 0.50000000000004996 0.49999999999997519 0 0.49999999999981742 0.1726190476194705 0 0.70833333333327586 0.2916666666665107 0 0.50000000000004996 0.49999999999997519 0 0.82738095238054699 0.49999999999982031 0 0.70833333333346027 0.70833333333323512 0 0.50000000000004996 0.49999999999997519 0 0.70833333333327586 0.2916666666665107 0 0.82738095238054699 0.49999999999982031 0 0.50000000000004996 0.49999999999997519 0 0.70833333333346027 0.70833333333323512 0 0.50000000000021227 0.82738095238030207 0 0.33333333333250248 0 0 0.66666666666578889 0 0 0.49999999999981742 0.1726190476194705 0 1 0.33333333333250248 0 1 0.66666666666578889 0 0.82738095238054699 0.49999999999982031 0 0 0.66666666666759111 0 0 0.33333333333472032 0 0.17261904761971569 0.50000000000021494 0 0.66666666666759111 1 0 0.33333333333472032 1 0 0.50000000000021227 0.82738095238030207 0 0 0.66666666666759111 0 0.17261904761971569 0.50000000000021494 0 0.29166666666684449 0.7083333333334445 0 0.66666666666759111 1 0 0.50000000000021227 0.82738095238030207 0 0.70833333333346027 0.70833333333323512 0 0.33333333333250248 0 0 0.49999999999981742 0.1726190476194705 0 0.29166666666652658 0.2916666666668038 0 1 0.33333333333250248 0 0.82738095238054699 0.49999999999982031 0 0.70833333333327586 0.2916666666665107 0 0 0.33333333333472032 0 0.29166666666652658 0.2916666666668038 0 0.17261904761971569 0.50000000000021494 0 0.33333333333472032 1 0 0.29166666666684449 0.7083333333334445 0 0.50000000000021227 0.82738095238030207 0 0.66666666666578889 0 0 0.70833333333327586 0.2916666666665107 0 0.49999999999981742 0.1726190476194705 0 1 0.66666666666578889 0 0.70833333333346027 0.70833333333323512 0 0.82738095238054699 0.49999999999982031 0 
</DataArray>
</Points>
<Cells>
<DataArray type="UInt32" Name="connectivity" format="ascii">
0 1 2 3 4 5 6 7 8 9 10 11 12 13 14 15 16 17 18 19 20 21 22 23 24 25 26 27 28 29 30 31 32 33 34 35 36 37 38 39 40 41 42 43 44 45 46 47 48 49 50 51 52 53 54 55 56 57 58 59 60 61 62 63 64 65 66 67 68 69 70 71 72 73 74 75 76 77 78 79 80 81 82 83 
</DataArray>
<DataArray type="UInt32" Name="offsets" format="ascii">
3 6 9 12 15 18 21 24 27 30 33 36 39 42 45 48 51 54 57 60 63 66 69 72 75 78 81 84 
</DataArray>
<DataArray type="UInt32" Name="types" format="ascii">
5 5 5 5 5 5 5 5 5 5 5 5 5 5 5 5 5 5 5 5 5 5 5 5 5 5 5 5 
</DataArray>
</Cells>
<PointData Scalars="" Vectors="displacement," Tensors="">
<DataArray type="Float64" Name="displacement" NumberOfComponents="3" format="ascii">
6.0669080256871567e-08 -0.9599967308592946 0 0.070102369071105591 -0.68010724364841924 0 0.080143850737967634 -0.96003171953462463 0 -1.5584824053591385e-08 -0.00030001694165653552 0 0.07008833564683592 -0.28022257567506126 0 -7.4780358004667158e-09 -0.32020499126343882 0 6.0669080256871567e-08 -0.9599967308592946 0 -1.5064092415383089e-08 -0.64010410590651445 0 0.070102369071105591 -0.68010724364841924 0 -1.5584824053591385e-08 -0.00030001694165653552 0 0.080098696840246245 -0.00030001628284759686 0 0.070088335646835934 -0.28022257567506126 0 0.24028119645225055 -0.96020262739021167 0 0.16024891692840937 -0.9601195647151104 0 0.17020407757188341 -0.68017212887449463 0 0.24028119645225055 -0.96020262739021167 0 0.17020407757188341 -0.68017212887449463 0 0.24021784190538775 -0.64022672073181475 0 0.24019347709365768 -0.00029996913744075244 0 0.24019385794716935 -0.32025644615870602 0 0.1701789388183611 -0.28024781358620121 0 0.24019347709365768 -0.00029996913744075244 0 0.1701789388183611 -0.28024781358620121 0 0.16016947698622996 -0.00029999067760386173 0 0.12014811499821357 -0.48018508042122088 0 0.070088335646835934 -0.2802225756750612 0 0.12013904093668758 -0.16597510637889357 0 0.12014811499821357 -0.48018508042122088 0 0.070102369071105591 -0.68010724364841924 0 0.041485072131015342 -0.48015896687847515 0 0.12014811499821357 -0.48018508042122088 0 0.041485072131015342 -0.48015896687847515 0 0.070088335646835934 -0.28022257567506126 0 0.12014811499821357 -0.48018508042122088 0 0.12017384687939318 -0.79439592373566981 0 0.070102369071105591 -0.68010724364841924 0 0.12014811499821357 -0.48018508042122088 0 0.12013904093668758 -0.16597510637889357 0 0.1701789388183611 -0.28024781358620121 0 0.12014811499821357 -0.48018508042122088 0 0.19877077226574605 -0.48022254380833329 0 0.17020407757188341 -0.68017212887449463 0 0.12014811499821357 -0.48018508042122088 0 0.1701789388183611 -0.28024781358620121 0 0.19877077226574605 -0.48022254380833329 0 0.12014811499821357 -0.48018508042122088 0 0.17020407757188341 -0.68017212887449463 0 0.1201738468793932 -0.79439592373566981 0 0.080098696840246245 -0.00030001628284755122 0 0.16016947698622996 -0.00029999067760386173 0 0.12013904093668758 -0.16597510637889357 0 0.24019385794716935 -0.32025644615870602 0 0.24021784190538775 -0.64022672073181475 0 0.19877077226574605 -0.48022254380833329 0 -1.5064092415383089e-08 -0.64010410590651445 0 -7.4780358004667158e-09 -0.32020499126343882 0 0.041485072131015342 -0.48015896687847515 0 0.16024891692840937 -0.9601195647151104 0 0.080143850737967634 -0.96003171953462463 0 0.1201738468793932 -0.79439592373566981 0 -1.5064092415383089e-08 -0.64010410590651445 0 0.041485072131015342 -0.48015896687847515 0 0.070102369071105591 -0.68010724364841924 0 0.16024891692840937 -0.9601195647151104 0 0.1201738468793932 -0.79439592373566981 0 0.17020407757188341 -0.68017212887449463 0 0.080098696840246245 -0.00030001628284755122 0 0.12013904093668758 -0.16597510637889357 0 0.070088335646835934 -0.28022257567506126 0 0.24019385794716935 -0.32025644615870602 0 0.19877077226574605 -0.48022254380833329 0 0.1701789388183611 -0.28024781358620121 0 -7.4780358004667158e-09 -0.32020499126343882 0 0.070088335646835934 -0.28022257567506126 0 0.041485072131015342 -0.48015896687847515 0 0.080143850737967634 -0.96003171953462463 0 0.070102369071105591 -0.68010724364841924 0 0.1201738468793932 -0.79439592373566981 0 0.16016947698622996 -0.00029999067760386173 0 0.1701789388183611 -0.28024781358620121 0 0.12013904093668758 -0.16597510637889357 0 0.24021784190538775 -0.64022672073181475 0 0.17020407757188341 -0.68017212887449463 0 0.19877077226574605 -0.48022254380833329 0 
</DataArray>
</PointData>
<CellData Scalars="displacement_divergence," Vectors="" Tensors="stress,">
<DataArray type="Float64" Name="stress" NumberOfComponents="9" format="ascii">
0.00055539327432652108 -1.0153118445099807e-05 0 -1.0153118445099807e-05 -0.99957580275961755 0 0 0 -0.19980408189705823 0.00041573716440079789 -8.1415849124688577e-06 0 -8.1415849124688577e-06 -0.99959911046031014 0 0 0 -0.19983667465918187 0.00047947794245314988 -2.3561938500948898e-05 0 -2.3561938500948898e-05 -0.99954458349459741 0 0 0 -0.1998130211104289 0.00040279445591800966 2.8263372003649782e-06 0 2.8263372003649782e-06 -0.99962272749220271 0 0 0 -0.19984398660725694 0.00014777110410668648 -3.4007919816129562e-05 0 -3.4007919816129562e-05 -0.99981240963436235 0 0 0 -0.1999329277060512 0.00010268217353448517 5.5071974887077602e-06 0 5.5071974887077602e-06 -0.99989903776147404 0 0 0 -0.19995927111758782 9.2922565825860493e-05 -1.9628140817129491e-05 0 -1.9628140817129491e-05 -0.99984076005248979 0 0 0 -0.19994956749733281 0.00012969026094476386 9.2580945353301918e-06 0 9.2580945353301918e-06 -0.99978124029643334 0 0 0 -0.19993031000709768 0.00035229084098728491 -9.8573599774109955e-06 0 -9.8573599774109955e-06 -0.99967093560761622 0 0 0 -0.1998637289533258 0.00039255878631905272 -8.1272596234027716e-06 0 -8.1272596234027716e-06 -0.99959576498459168 0 0 0 -0.19984064123965456 0.00038308398509995234 -3.0276728655727528e-05 0 -3.0276728655727528e-05 -0.99963366418946764 0 0 0 -0.1998501160408736 0.0003948376073573364 -2.7633552657224669e-05 0 -2.7633552657224669e-05 -0.99966306478240841 0 0 0 -0.19985364543501019 0.00025945497084753144 -1.7520851850250097e-05 0 -1.7520851850250097e-05 -0.99969414457515093 0 0 0 -0.19988693792086068 0.00022292293551673392 -9.5568621023926475e-07 0 -9.5568621023926475e-07 -0.99976030984610187 0 0 0 -0.19990747738211712 0.00022572419385591402 -4.4128156225897719e-05 0 -4.4128156225897719e-05 -0.99974910481274504 0 0 0 -0.19990467612377782 0.00027466149859101119 -3.6637566083186357e-05 0 -3.6637566083186357e-05 -0.99969310880960016 0 0 0 -0.19988368946220181 0.00029898662737781745 1.1989993801736173e-05 0 1.1989993801736173e-05 -0.99968880531542581 0 0 0 -0.1998779637376096 6.6650382644476821e-05 -1.5977798097033258e-05 0 -1.5977798097033258e-05 -0.99989044544544448 0 0 0 -0.19996475901256 0.00044782636114271135 -1.0674331125670733e-05 0 -1.0674331125670733e-05 -0.99957277667071276 0 0 0 -0.19982499006191401 0.00040584621678285693 -5.5406932511010919e-05 0 -5.5406932511010919e-05 -0.99968994251478005 0 0 0 -0.19985681925959953 0.00046360467311057363 -1.2089610515020333e-05 0 -1.2089610515020333e-05 -0.99959552181821576 0 0 0 -0.19982638342902093 0.00032351626229676356 -8.9678341154142416e-06 0 -8.9678341154142416e-06 -0.99976286431068218 0 0 0 -0.19988786960967708 0.00034228289419391267 -1.4795424983282679e-05 0 -1.4795424983282679e-05 -0.99964301745953832 0 0 0 -0.19986014691306886 8.6761839394738915e-05 9.885681991506079e-06 0 9.885681991506079e-06 -0.9998215461426555 0 0 0 -0.19994695686065214 0.00042197931313436854 1.6336596108113e-06 0 1.6336596108113e-06 -0.9995872670850563 0 0 0 -0.19983305755438441 0.00039571027235535405 -3.1301907235770088e-05 0 -3.1301907235770088e-05 -0.9996050608102498 0 0 0 -0.19984187010757887 0.00026068701914928882 -1.5747380629593799e-05 0 -1.5747380629593799e-05 -0.99974203395089023 0 0 0 -0.19989626938634819 0.00010186814410972911 -4.6691725769376635e-05 0 -4.6691725769376635e-05 -0.9998213668972431 0 0 0 -0.19994389975062665 
</DataArray>
<DataArray type="Float64" Name="displacement_divergence" format="ascii">
-0.71929469482940922 -0.71941202877305455 -0.71932687599754364 -0.71943835178612492 -0.71975853974178428 -0.71985337602331656 -0.7198184429903981 -0.71974911602555169 -0.71950942423197295 -0.71942630846275613 -0.71946041774714486 -0.71947312356603621 -0.71959297651509835 -0.71966691857562148 -0.7196568340456001 -0.71958128206392669 -0.71956066945539465 -0.71987313244521567 -0.71936996422289057 -0.71948454933455874 -0.71937498034447578 -0.7195963305948383 -0.71949652888704796 -0.71980904469834783 -0.71939900719578365 -0.71943073238728417 -0.71962656979085338 -0.71979803910225559 
</DataArray>
</CellData>
</Piece>
</UnstructuredGrid>
</VTKFile>
