<?xml version="1.0"?>
<VTKFile type="UnstructuredGrid" version="0.1" byte_order="LittleEndian">
<UnstructuredGrid>
<Piece NumberOfPoints="3162" NumberOfCells="1054">
<Points>
<DataArray type="Float64" NumberOfComponents="3" format="ascii">
0.39507969989512881 0.74417394063201048 0 0.42715538333808079 0.70077759375307946 0 0.44764943295894188 0.73752415265401661 0 0.74417394063200648 0.6049203001048884 0 0.70087539567735502 0.57165914616526226 0 0.73752415265401194 0.55235056704108476 0 0.25582605936799319 0.39507969989513358 0 0.2963043386970643 0.4298320229681446 0 0.26247584734598628 0.44764943295894732 0 0.60492030010488373 0.25582605936799729 0 0.57188338999077359 0.29874123486230147 0 0.55175647814720108 0.26104505532086641 0 0.56566515596461675 0.63670464971409091 0 0.61233489393901674 0.60846740003560018 0 0.60879112811253555 0.66592422311595834 0 0.6519524273377173 0.64249931920594539 0 0.60879112811253555 0.66592422311595834 0 0.61233489393901674 0.60846740003560018 0 0.640156794425081 0.43301393728221721 0 0.60122390529523662 0.39097801071820221 0 0.66346942254826746 0.391530810754116 0 0.6424993192059415 0.3480475726622802 0 0.66346942254826746 0.391530810754116 0 0.60122390529523662 0.39097801071820221 0 0.74198804864688339 0.90892718720327403 0 0.77688977118331393 0.94706199857866258 0 0.71789175274016548 0.95136708251202151 0 0.091072812796719582 0.74198804864687795 0 0.052938001421335763 0.77688977118331159 0 0.04863291748797445 0.71789175274016204 0 0.89586000931544074 0.25714619498770419 0 0.94465622530468663 0.23167460333446291 0 0.94915666091748963 0.28320804985299752 0 0.25714619498771307 0.1041399906845497 0 0.23167460333446299 0.05534377469531044 0 0.28320804985300141 0.050843339082505573 0 0.89999999999958358 1 0 0.84999999999965292 1 0 0.90554214442080472 0.95994154153067524 0 0 0.89999999999958358 0 0 0.84999999999965292 0 0.040058458469322648 0.90554214442079806 0 0.040058458469319477 0.094457855579157729 0 0 0.15000000000062411 0 0 0.10000000000041601 0 0.094457855579188163 0.95994154153068711 0 0.15000000000062411 1 0 0.10000000000041601 1 0 0.90554214442081604 0.040058458469347469 0 0.84999999999960507 0 0 0.89999999999973679 0 0 0.95994154153065969 0.90554214442078618 0 1 0.84999999999960507 0 1 0.89999999999973679 0 1 0.099999999999814668 0 1 0.14999999999970359 0 0.95994154153057998 0.094457855579277675 0 0.099999999999814668 0 0 0.14999999999970359 0 0 0.094457855579284614 0.040058458469418363 0 1 0.19999999999955789 0 0.94465622530468663 0.23167460333446291 0 0.96080966346491015 0.18035159017841959 0 0.19999999999955789 0 0 0.23167460333446299 0.05534377469531044 0 0.18035159017842109 0.039190336535090492 0 0.79999999999999982 1 0 0.77688977118331393 0.94706199857866258 0 0.82675923981951416 0.95611053755456221 0 0 0.79999999999999982 0 0.052938001421335763 0.77688977118331159 0 0.043889462445437968 0.82675923981951283 0 1 0.79999999999947335 0 0.96071093996985157 0.81954008780615684 0 0.9442075111696665 0.76777356182390766 0 0.79999999999947335 0 0 0.82050174006822896 0.038839999600956771 0 0.76543419162344684 0.056452228708420968 0 0.20000000000083221 1 0 0.18045991219397989 0.960710939969875 0 0.23222643817617661 0.94420751116970569 0 0 0.20000000000083221 0 0.038839999600931263 0.17949825993190149 0 0.056452228708379938 0.23456580837661581 0 0.50000000000002642 0.7803135888501761 0 0.53770425635794761 0.80104587463999666 0 0.49771727055908782 0.83998685797641781 0 0.2196864111498267 0.50000000000003153 0 0.1989632851005598 0.53769147668950479 0 0.16001314202358469 0.49771727055909287 0 0.78031358885017377 0.49999999999997569 0 0.80106707846564795 0.46230714888029367 0 0.83998574657308889 0.50228528270184081 0 0.49999999999997108 0.21968641114982909 0 0.46229330881044273 0.19890916456654811 0 0.50228272944093777 0.16001314202359701 0 0.79999999999999982 1 0 0.75000000000034661 1 0 0.77688977118331393 0.94706199857866258 0 0 0.79999999999999982 0 0 0.75000000000034661 0 0.052938001421335763 0.77688977118331159 0 1 0.19999999999955789 0 1 0.24999999999941211 0 0.94465622530468663 0.23167460333446291 0 0.19999999999955789 0 0 0.24999999999941211 0 0 0.23167460333446299 0.05534377469531044 0 1 0.74999999999934175 0 1 0.79999999999947335 0 0.9442075111696665 0.76777356182390766 0 0.74999999999934175 0 0 0.79999999999947335 0 0 0.76543419162344684 0.056452228708420968 0 0.25000000000104028 1 0 0.20000000000083221 1 0 0.23222643817617661 0.94420751116970569 0 0 0.25000000000104028 0 0 0.20000000000083221 0 0.056452228708379938 0.23456580837661581 0 1 0.74999999999934175 0 0.9442075111696665 0.76777356182390766 0 0.94635952848698612 0.71209247961721311 0 0.74999999999934175 0 0 0.76543419162344684 0.056452228708420968 0 0.71174922810186925 0.053730171687687178 0 0.25000000000104028 1 0 0.23222643817617661 0.94420751116970569 0 0.28790752038294382 0.94635952848702642 0 0 0.25000000000104028 0 0.056452228708379938 0.23456580837661581 0 0.053730171687646627 0.28825077189828552 0 0.8289812646369813 0.82898126463698818 0 0.87660297360393757 0.8104127896505644 0 0.88962265630811221 0.85311725681459705 0 0.17101873536300011 0.82898126463696109 0 0.18958721034944021 0.87660297360394568 0 0.14688274318541941 0.88962265630811932 0 0.39507969989512881 0.74417394063201048 0 0.44764943295894188 0.73752415265401661 0 0.43306783640023289 0.78031198216144404 0 0.74417394063200648 0.6049203001048884 0 0.73752415265401194 0.55235056704108476 0 0.78031198216143516 0.56693216359979737 0 0.25582605936799319 0.39507969989513358 0 0.26247584734598628 0.44764943295894732 0 0.21968801783855879 0.43306783640023788 0 0.60492030010488373 0.25582605936799729 0 0.55175647814720108 0.26104505532086641 0 0.56683314878414581 0.21944955250104689 0 0.90554214442080472 0.95994154153067524 0 0.84999999999965292 1 0 0.86696410734367158 0.94753096683315619 0 0.040058458469322648 0.90554214442079806 0 0 0.84999999999965292 0 0.052469033166843738 0.86696410734366991 0 0.054872692726595548 0.13410685639845171 0 0 0.15000000000062411 0 0.040058458469319477 0.094457855579157729 0 0.13834721989462789 0.94095916274077984 0 0.15000000000062411 1 0 0.094457855579188163 0.95994154153068711 0 0.86589314360155567 0.054872692726639853 0 0.84999999999960507 0 0 0.90554214442081604 0.040058458469347469 0 0.94095916274074942 0.86165278010542579 0 1 0.84999999999960507 0 0.95994154153065969 0.90554214442078618 0 0.95994154153057998 0.094457855579277675 0 1 0.14999999999970359 0 0.94100406608115506 0.1383574446607955 0 0.094457855579284614 0.040058458469418363 0 0.14999999999970359 0 0 0.1383574446607988 0.058995933918849157 0 0.1104775404132264 0.2631175359816938 0 0.099694771212264055 0.22074048840547039 0 0.15899695163321451 0.22783674912227669 0 0.73688246401832591 0.11047754041323141 0 0.77925951159456153 0.09969477121230251 0 0.77216325087772952 0.15899695163319821 0 0.88949062093135778 0.73694585442531257 0 0.9041449437197947 0.7786886066890556 0 0.839908789927305 0.77106070975262608 0 0.26305414557470391 0.88949062093136155 0 0.22131139331094829 0.9041449437198319 0 0.22893929024737289 0.83990878992727813 0 0.74198804864688339 0.90892718720327403 0 0.71789175274016548 0.95136708251202151 0 0.70475631558365914 0.90098127745102974 0 0.091072812796719582 0.74198804864687795 0 0.04863291748797445 0.71789175274016204 0 0.099018722548963364 0.70475631558365193 0 0.89586000931544074 0.25714619498770419 0 0.94915666091748963 0.28320804985299752 0 0.89886191075654698 0.29506339503703172 0 0.25714619498771307 0.1041399906845497 0 0.28320804985300141 0.050843339082505573 0 0.29506339503703888 0.1011380892434444 0 0.65773042910151891 0.073296788161472337 0 0.62160809078275991 0.1093532031139005 0 0.6048537357103756 0.060530514380187868 0 0.92670321183853355 0.65773042910151081 0 0.89064679688610338 0.6216080907827598 0 0.93946948561981514 0.60485373571037115 0 0.073296788161418117 0.34226957089850552 0 0.10935320311385981 0.37839190921727089 0 0.06053051438015096 0.39514626428972788 0 0.3422695708985129 0.92670321183858773 0 0.37839190921727062 0.89064679688614412 0 0.39514626428973221 0.93946948561985189 0 0.49771727055908782 0.83998685797641781 0 0.53770425635794761 0.80104587463999666 0 0.54047998161173716 0.84333512669480526 0 0.16001314202358469 0.49771727055909287 0 0.1989632851005598 0.53769147668950479 0 0.1566648733051971 0.54047998161174216 0 0.83998574657308889 0.50228528270184081 0 0.80106707846564795 0.46230714888029367 0 0.84333218736938698 0.4595365182652234 0 0.50228272944093777 0.16001314202359701 0 0.46229330881044273 0.19890916456654811 0 0.45952001838826873 0.15666487330524251 0 0.8289812646369813 0.82898126463698818 0 0.88962265630811221 0.85311725681459705 0 0.85174853583809862 0.87705234031428159 0 0.17101873536300011 0.82898126463696109 0 0.14688274318541941 0.88962265630811932 0 0.1229476596857173 0.85174853583809695 0 0.83199780613337848 0.1690131600686714 0 0.8517485358380722 0.12294765968568611 0 0.88777909259956078 0.1484760565886154 0 0.16901316006868169 0.16800219386663079 0 0.12294765968567151 0.14825146416195439 0 0.1484760565886207 0.1122209074004519 0 0.15899695163321451 0.22783674912227669 0 0.099694771212264055 0.22074048840547039 0 0.12587517708284679 0.1889683322666954 0 0.77216325087772952 0.15899695163319821 0 0.77925951159456153 0.09969477121230251 0 0.8110316677333288 0.125875177082863 0 0.83199780613337848 0.1690131600686714 0 0.88777909259956078 0.1484760565886154 0 0.87355793346388477 0.18922011052113649 0 0.16901316006868169 0.16800219386663079 0 0.1484760565886207 0.1122209074004519 0 0.18922011052115781 0.12644206653611201 0 0.32191828326940508 0.76395804595204586 0 0.34270280102445921 0.71672416762035873 0 0.35837423432538362 0.77730446904312345 0 0.76395804595204597 0.67808171673060369 0 0.71518943060973483 0.65679402931717101 0 0.77730446904309636 0.64162576567462737 0 0.2360419540479583 0.32191828326940741 0 0.28473805236128291 0.34355768118673757 0 0.22269553095687891 0.35837423432538801 0 0.67808171673060202 0.23604195404795861 0 0.65679402931716913 0.28481056939027388 0 0.64162576567462404 0.22269553095690481 0 0.26305414557470391 0.88949062093136155 0 0.28790752038294382 0.94635952848702642 0 0.23222643817617661 0.94420751116970569 0 0.1104775404132264 0.2631175359816938 0 0.053730171687646627 0.28825077189828552 0 0.056452228708379938 0.23456580837661581 0 0.88949062093135778 0.73694585442531257 0 0.94635952848698612 0.71209247961721311 0 0.9442075111696665 0.76777356182390766 0 0.73688246401832591 0.11047754041323141 0 0.71174922810186925 0.053730171687687178 0 0.76543419162344684 0.056452228708420968 0 0.22893929024737289 0.83990878992727813 0 0.22131139331094829 0.9041449437198319 0 0.18958721034944021 0.87660297360394568 0 0.839908789927305 0.77106070975262608 0 0.9041449437197947 0.7786886066890556 0 0.87660297360393757 0.8104127896505644 0 0.35837423432538362 0.77730446904312345 0 0.34270280102445921 0.71672416762035873 0 0.39507969989512881 0.74417394063201048 0 0.77730446904309636 0.64162576567462737 0 0.71518943060973483 0.65679402931717101 0 0.74417394063200648 0.6049203001048884 0 0.22269553095687891 0.35837423432538801 0 0.28473805236128291 0.34355768118673757 0 0.25582605936799319 0.39507969989513358 0 0.64162576567462404 0.22269553095690481 0 0.65679402931716913 0.28481056939027388 0 0.60492030010488373 0.25582605936799729 0 0.57484409313590223 0.58437321637184114 0 0.53542397956703913 0.60119875982347493 0 0.53087311892591971 0.55299263141448529 0 1 0.59999999999894682 0 0.93946948561981514 0.60485373571037115 0 0.95638719633882641 0.5599388881718611 0 0.59999999999894682 0 0 0.6048537357103756 0.060530514380187868 0 0.55993888817186677 0.043612803661174412 0 0.40000000000166441 1 0 0.39514626428973221 0.93946948561985189 0 0.44006111182840962 0.9563871963389079 0 0 0.40000000000166441 0 0.06053051438015096 0.39514626428972788 0 0.043612803661092707 0.44006111182840391 0 0.43590673999053309 0.90289902042279657 0 0.48669777060454272 0.93510666819646593 0 0.44006111182840962 0.9563871963389079 0 0.097100979577207341 0.43590673999053198 0 0.064893331803534807 0.48669777060454478 0 0.043612803661092707 0.44006111182840391 0 0.90289902042272274 0.56409326000946114 0 0.93510666819640953 0.51330222939551939 0 0.95638719633882641 0.5599388881718611 0 0.56409326000946236 0.097100979577281268 0 0.5133022293955174 0.064893331803591428 0 0.55993888817186677 0.043612803661174412 0 0.57387636360620708 0.54318431390135336 0 0.57484409313590223 0.58437321637184114 0 0.53087311892591971 0.55299263141448529 0 1 0.69999999999921003 0 1 0.74999999999934175 0 0.94635952848698612 0.71209247961721311 0 0.69999999999921003 0 0 0.74999999999934175 0 0 0.71174922810186925 0.053730171687687178 0 0.30000000000124832 1 0 0.25000000000104028 1 0 0.28790752038294382 0.94635952848702642 0 0 0.30000000000124832 0 0 0.25000000000104028 0 0.053730171687646627 0.28825077189828552 0 0.90289902042272274 0.56409326000946114 0 0.85130417396420255 0.59518556406638579 0 0.85551478316835361 0.54646211938695222 0 0.43590673999053309 0.90289902042279657 0 0.40481452396081791 0.85130421228141606 0 0.45353891581270822 0.85551523377818905 0 0.56409326000946236 0.097100979577281268 0 0.59518547603920147 0.14869578771864489 0 0.54646108418729233 0.1444847662218687 0 0.097100979577207341 0.43590673999053198 0 0.14869578771858949 0.40481452396082068 0 0.1444847662218138 0.45353891581271188 0 0.90289902042272274 0.56409326000946114 0 0.89064679688610338 0.6216080907827598 0 0.85130417396420255 0.59518556406638579 0 0.56409326000946236 0.097100979577281268 0 0.62160809078275991 0.1093532031139005 0 0.59518547603920147 0.14869578771864489 0 0.43590673999053309 0.90289902042279657 0 0.37839190921727062 0.89064679688614412 0 0.40481452396081791 0.85130421228141606 0 0.097100979577207341 0.43590673999053198 0 0.10935320311385981 0.37839190921727089 0 0.14869578771858949 0.40481452396082068 0 0.74417394063200648 0.6049203001048884 0 0.69288637798153729 0.61204665218001397 0 0.70087539567735502 0.57165914616526226 0 0.39507969989512881 0.74417394063201048 0 0.38642358467307758 0.69286258923597266 0 0.42715538333808079 0.70077759375307946 0 0.60492030010488373 0.25582605936799729 0 0.61204665218000809 0.30711362201846659 0 0.57188338999077359 0.29874123486230147 0 0.25582605936799319 0.39507969989513358 0 0.30597655500381687 0.3934681685211931 0 0.2963043386970643 0.4298320229681446 0 0.51484304721220842 0.69707233951836334 0 0.57051182622447827 0.69668652018496713 0 0.54465502325161819 0.74717983044080061 0 0.30292766048163949 0.51484304721221474 0 0.30429740679959738 0.56913905146460098 0 0.25287139441262568 0.54458355434492378 0 0.70015119067225129 0.48481914991727459 0 0.69595787604187809 0.43071000156707989 0 0.74730218607442667 0.45539100053644521 0 0.48378871228000903 0.29745177826977359 0 0.43059486795334201 0.30395973419063538 0 0.45533136021725079 0.2525687312087147 0 0.91838802593870927 0.18172590289757809 0 0.96080966346491015 0.18035159017841959 0 0.94465622530468663 0.23167460333446291 0 0.18172590289758209 0.08161197406129285 0 0.18035159017842109 0.039190336535090492 0 0.23167460333446299 0.05534377469531044 0 0.81709574086843206 0.91318696080656769 0 0.82675923981951416 0.95611053755456221 0 0.77688977118331393 0.94706199857866258 0 0.086813039193431391 0.81709574086842884 0 0.043889462445437968 0.82675923981951283 0 0.052938001421335763 0.77688977118331159 0 0.91838802593884228 0.81827409710237209 0 0.9442075111696665 0.76777356182390766 0 0.96071093996985157 0.81954008780615684 0 0.82118136511706341 0.082875076569723011 0 0.76543419162344684 0.056452228708420968 0 0.82050174006822896 0.038839999600956771 0 0.1817259028976386 0.91838802593888857 0 0.23222643817617661 0.94420751116970569 0 0.18045991219397989 0.960710939969875 0 0.08287507656968085 0.1788186348829835 0 0.056452228708379938 0.23456580837661581 0 0.038839999600931263 0.17949825993190149 0 0.59819537371016407 0.74380966024143391 0 0.54465502325161819 0.74717983044080061 0 0.57051182622447827 0.69668652018496713 0 0.25619033975856881 0.59819537371016862 0 0.25287139441262568 0.54458355434492378 0 0.30429740679959738 0.56913905146460098 0 0.74380966024142703 0.40180462628984132 0 0.74730218607442667 0.45539100053644521 0 0.69595787604187809 0.43071000156707989 0 0.40180462628983732 0.2561903397585753 0 0.45533136021725079 0.2525687312087147 0 0.43059486795334201 0.30395973419063538 0 0.8312019486901514 0.72745002167959472 0 0.77998481823117694 0.71397317153691997 0 0.80847852346122429 0.67208120229789559 0 0.27254997832041528 0.8312019486901443 0 0.28602682846308641 0.77998481823117594 0 0.32791879770213411 0.80847852346120164 0 0.72767516840721058 0.16853767177393791 0 0.71397317153692708 0.22001518176882201 0 0.67208120229787616 0.1915214765387884 0 0.1685376717739448 0.27232483159280108 0 0.22001518176882229 0.28602682846307981 0 0.19152147653881049 0.32791879770215432 0 0.85607519768343354 0.69380468830529196 0 0.8312019486901514 0.72745002167959472 0 0.80847852346122429 0.67208120229789559 0 0.69379929796456197 0.14392209494791061 0 0.72767516840721058 0.16853767177393791 0 0.67208120229787616 0.1915214765387884 0 0.30619531169472608 0.85607519768342955 0 0.27254997832041528 0.8312019486901443 0 0.32791879770213411 0.80847852346120164 0 0.14392209494791439 0.30620070203545702 0 0.1685376717739448 0.27232483159280108 0 0.19152147653881049 0.32791879770215432 0 0.6519524273377173 0.64249931920594539 0 0.69288637798153729 0.61204665218001397 0 0.71518943060973483 0.65679402931717101 0 0.35944937237716967 0.65164789808436319 0 0.38642358467307758 0.69286258923597266 0 0.34270280102445921 0.71672416762035873 0 0.6424993192059415 0.3480475726622802 0 0.61204665218000809 0.30711362201846659 0 0.65679402931716913 0.28481056939027388 0 0.34804757266227387 0.35750068079406011 0 0.30597655500381687 0.3934681685211931 0 0.28473805236128291 0.34355768118673757 0 0.66919832404887702 0.81820888699730587 0 0.66923299355723143 0.8804077449518628 0 0.63969251517836323 0.84598529912890386 0 0.70085728320704077 0.84350379029875056 0 0.66923299355723143 0.8804077449518628 0 0.66919832404887702 0.81820888699730587 0 0.1817911130026923 0.66919832404888702 0 0.1195922550481313 0.66923299355722787 0 0.1540147008710982 0.63969251517836956 0 0.1564962097012354 0.70085728320703999 0 0.1195922550481313 0.66923299355722787 0 0.1817911130026923 0.66919832404888702 0 0.8182088869973061 0.33080167595111531 0 0.88040774495187946 0.33076700644278889 0 0.84598529912889664 0.36030748482164038 0 0.84350379029877964 0.29914271679296989 0 0.88040774495187946 0.33076700644278889 0 0.8182088869973061 0.33080167595111531 0 0.33080167595110582 0.18179111300269291 0 0.33076700644279272 0.1195922550481146 0 0.3603074848216346 0.15401470087110539 0 0.29914271679297122 0.15649620970120659 0 0.33076700644279272 0.1195922550481146 0 0.33080167595110582 0.18179111300269291 0 0.49189101320880302 0.59024331187324797 0 0.51172471858873747 0.64015771271794875 0 0.45517457031814612 0.62743100079604397 0 0.54901591374940373 0.42306523525165751 0 0.5047849391802508 0.40719950955717021 0 0.54715635490880632 0.37829016026862072 0 0.43590673999053309 0.90289902042279657 0 0.48758069708049379 0.89080072540186539 0 0.48669777060454272 0.93510666819646593 0 0.097100979577207341 0.43590673999053198 0 0.1091992745981364 0.48758069708049778 0 0.064893331803534807 0.48669777060454478 0 0.90289902042272274 0.56409326000946114 0 0.89079805168298443 0.51242544533572376 0 0.93510666819640953 0.51330222939551939 0 0.56409326000946236 0.097100979577281268 0 0.51241930291950477 0.1091992745981813 0 0.5133022293955174 0.064893331803591428 0 0.49189101320880302 0.59024331187324797 0 0.53542397956703913 0.60119875982347493 0 0.51172471858873747 0.64015771271794875 0 0.56566515596461675 0.63670464971409091 0 0.51172471858873747 0.64015771271794875 0 0.53542397956703913 0.60119875982347493 0 0.65773042910151891 0.073296788161472337 0 0.66251865414987876 0.1160340021949529 0 0.62160809078275991 0.1093532031139005 0 0.92670321183853355 0.65773042910151081 0 0.88396545633132484 0.6625197322180193 0 0.89064679688610338 0.6216080907827598 0 0.3422695708985129 0.92670321183858773 0 0.33748026778199908 0.88396545633134682 0 0.37839190921727062 0.89064679688614412 0 0.073296788161418117 0.34226957089850552 0 0.11603400219493119 0.33748134585014028 0 0.10935320311385981 0.37839190921727089 0 0.8289812646369813 0.82898126463698818 0 0.79422489417873421 0.79640925234634441 0 0.839908789927305 0.77106070975262608 0 0.17101873536300011 0.82898126463696109 0 0.20359074765364421 0.79422489417871855 0 0.22893929024737289 0.83990878992727813 0 0.83199780613337848 0.1690131600686714 0 0.80027482104603809 0.20596721135052129 0 0.77216325087772952 0.15899695163319821 0 0.16901316006868169 0.16800219386663079 0 0.20596721135052939 0.19972517895396219 0 0.15899695163321451 0.22783674912227669 0 0.84598529912884157 0.63969251517827153 0 0.80847852346122429 0.67208120229789559 0 0.8028306815476034 0.61296984760642026 0 0.36030748482174152 0.84598529912882459 0 0.32791879770213411 0.80847852346120164 0 0.38703015239361932 0.80283068154761972 0 0.63969251517826664 0.15401470087115929 0 0.67208120229787616 0.1915214765387884 0 0.61296984760641449 0.19716931845240021 0 0.15401470087117619 0.36030748482174652 0 0.19152147653881049 0.32791879770215432 0 0.197169318452384 0.38703015239362498 0 0.61233489393901674 0.60846740003560018 0 0.61866949026800744 0.55492322767366287 0 0.65501639383771026 0.594528181397324 0 0.74198804864688339 0.90892718720327403 0 0.78020430794084783 0.88768307197553598 0 0.77688977118331393 0.94706199857866258 0 0.091072812796719582 0.74198804864687795 0 0.11231692802445629 0.78020430794084028 0 0.052938001421335763 0.77688977118331159 0 0.81709574086843206 0.91318696080656769 0 0.77688977118331393 0.94706199857866258 0 0.78020430794084783 0.88768307197553598 0 0.086813039193431391 0.81709574086842884 0 0.052938001421335763 0.77688977118331159 0 0.11231692802445629 0.78020430794084028 0 0.73982803480991577 0.79629608696991705 0 0.79422489417873421 0.79640925234634441 0 0.78284912262770068 0.83746308049763585 0 0.8289812646369813 0.82898126463698818 0 0.78284912262770068 0.83746308049763585 0 0.79422489417873421 0.79640925234634441 0 0.20370391303007401 0.73982803480989479 0 0.20359074765364421 0.79422489417871855 0 0.16253691950235041 0.78284912262768558 0 0.17101873536300011 0.82898126463696109 0 0.16253691950235041 0.78284912262768558 0 0.20359074765364421 0.79422489417871855 0 0.79629608696994103 0.26017196519011448 0 0.80027482104603809 0.20596721135052129 0 0.84534053180161173 0.2262639405833009 0 0.83199780613337848 0.1690131600686714 0 0.84534053180161173 0.2262639405833009 0 0.80027482104603809 0.20596721135052129 0 0.26017196519013502 0.20370391303005 0 0.20596721135052939 0.19972517895396219 0 0.22626394058331961 0.15465946819838111 0 0.16901316006868169 0.16800219386663079 0 0.22626394058331961 0.15465946819838111 0 0.20596721135052939 0.19972517895396219 0 0.90045039720880915 0.9020090423547924 0 0.94156647488775558 0.94156647488774259 0 0.90554214442080472 0.95994154153067524 0 0.90082758526900886 0.098076845682916511 0 0.94156647488778256 0.058433525112256718 0 0.95994154153057998 0.094457855579277675 0 0.90082758526900886 0.098076845682916511 0 0.90554214442081604 0.040058458469347469 0 0.94156647488778256 0.058433525112256718 0 0.097990957645208238 0.90045039720880915 0 0.058433525112254137 0.94156647488774581 0 0.040058458469322648 0.90554214442079806 0 0.90045039720880915 0.9020090423547924 0 0.95994154153065969 0.90554214442078618 0 0.94156647488775558 0.94156647488774259 0 0.098076845682915317 0.099172414730993488 0 0.058433525112266523 0.058433525112214509 0 0.094457855579284614 0.040058458469418363 0 0.098076845682915317 0.099172414730993488 0 0.040058458469319477 0.094457855579157729 0 0.058433525112266523 0.058433525112214509 0 0.097990957645208238 0.90045039720880915 0 0.094457855579188163 0.95994154153068711 0 0.058433525112254137 0.94156647488774581 0 0.90289902042272274 0.56409326000946114 0 0.93946948561981514 0.60485373571037115 0 0.89064679688610338 0.6216080907827598 0 0.43590673999053309 0.90289902042279657 0 0.39514626428973221 0.93946948561985189 0 0.37839190921727062 0.89064679688614412 0 0.56409326000946236 0.097100979577281268 0 0.6048537357103756 0.060530514380187868 0 0.62160809078275991 0.1093532031139005 0 0.097100979577207341 0.43590673999053198 0 0.06053051438015096 0.39514626428972788 0 0.10935320311385981 0.37839190921727089 0 0.6519524273377173 0.64249931920594539 0 0.64518564541690571 0.69601563325001548 0 0.60879112811253555 0.66592422311595834 0 0.35944937237716967 0.65164789808436319 0 0.30421635384321521 0.64514939193436716 0 0.33231497408081678 0.60779218732873663 0 0.6424993192059415 0.3480475726622802 0 0.69601563325001248 0.35481435458309712 0 0.66346942254826746 0.391530810754116 0 0.34804757266227387 0.35750068079406011 0 0.35481435458309307 0.30398436674998969 0 0.39120887188745579 0.33407577688404289 0 1 0.5499999999988151 0 1 0.59999999999894682 0 0.95638719633882641 0.5599388881718611 0 0.5499999999988151 0 0 0.59999999999894682 0 0 0.55993888817186677 0.043612803661174412 0 0.45000000000187229 1 0 0.40000000000166441 1 0 0.44006111182840962 0.9563871963389079 0 0 0.45000000000187229 0 0 0.40000000000166441 0 0.043612803661092707 0.44006111182840391 0 1 0.049999999999899652 0 0.95994154153057998 0.094457855579277675 0 0.94156647488778256 0.058433525112256718 0 0.049999999999899652 0 0 0.094457855579284614 0.040058458469418363 0 0.058433525112266523 0.058433525112214509 0 0.94999999999986839 0 0 0.94156647488778256 0.058433525112256718 0 0.90554214442081604 0.040058458469347469 0 1 0.94999999999986839 0 0.94156647488775558 0.94156647488774259 0 0.95994154153065969 0.90554214442078618 0 0.94999999999979179 1 0 0.90554214442080472 0.95994154153067524 0 0.94156647488775558 0.94156647488774259 0 0 0.94999999999979179 0 0.040058458469322648 0.90554214442079806 0 0.058433525112254137 0.94156647488774581 0 0 0.050000000000207989 0 0.058433525112266523 0.058433525112214509 0 0.040058458469319477 0.094457855579157729 0 0.050000000000207989 1 0 0.058433525112254137 0.94156647488774581 0 0.094457855579188163 0.95994154153068711 0 0.55000000000173355 1 0 0.55307204985744796 0.94819812235491685 0 0.5931441817276254 0.95886012268751675 0 0 0.55000000000173355 0 0.051801877645083663 0.55307204985745195 0 0.041139877312483641 0.59314418172763017 0 1 0.44999999999882923 0 0.94812782820415209 0.44708943904932719 0 0.95886012268748921 0.4068558182724159 0 0.44999999999882923 0 0 0.44692795014265252 0.051801877645060238 0 0.40685581827241191 0.041139877312511682 0 0.83199780613337848 0.1690131600686714 0 0.77216325087772952 0.15899695163319821 0 0.8110316677333288 0.125875177082863 0 0.16901316006868169 0.16800219386663079 0 0.15899695163321451 0.22783674912227669 0 0.12587517708284679 0.1889683322666954 0 0.73982803480991577 0.79629608696991705 0 0.74154628962857594 0.86274820500026039 0 0.70085728320704077 0.84350379029875056 0 0.20370391303007401 0.73982803480989479 0 0.13725179499972981 0.74154628962856628 0 0.1564962097012354 0.70085728320703999 0 0.79629608696994103 0.26017196519011448 0 0.85389826602741015 0.26318949769600392 0 0.84350379029877964 0.29914271679296989 0 0.26017196519013502 0.20370391303005 0 0.26318949769601319 0.14610173397257309 0 0.29914271679297122 0.15649620970120659 0 0.53432142347292233 0.88563193847251998 0 0.48758069708049379 0.89080072540186539 0 0.49771727055908782 0.83998685797641781 0 0.1143680615274819 0.53432142347292733 0 0.1091992745981364 0.48758069708049778 0 0.16001314202358469 0.49771727055909287 0 0.88561059063756964 0.46572761956237563 0 0.89079805168298443 0.51242544533572376 0 0.83998574657308889 0.50228528270184081 0 0.46567857652706018 0.1143680615275231 0 0.51241930291950477 0.1091992745981813 0 0.50228272944093777 0.16001314202359701 0 0.1104775404132264 0.2631175359816938 0 0.099492119481027347 0.30746398533281638 0 0.053730171687646627 0.28825077189828552 0 0.26305414557470391 0.88949062093136155 0 0.30738136326657722 0.90051880305435028 0 0.28790752038294382 0.94635952848702642 0 0.73688246401832591 0.11047754041323141 0 0.69253601466723103 0.09949211948105087 0 0.71174922810186925 0.053730171687687178 0 0.88949062093135778 0.73694585442531257 0 0.90051880305432697 0.69261863673346957 0 0.94635952848698612 0.71209247961721311 0 0.77998481823117694 0.71397317153691997 0 0.76395804595204597 0.67808171673060369 0 0.80847852346122429 0.67208120229789559 0 0.28602682846308641 0.77998481823117594 0 0.32191828326940508 0.76395804595204586 0 0.32791879770213411 0.80847852346120164 0 0.71397317153692708 0.22001518176882201 0 0.67808171673060202 0.23604195404795861 0 0.67208120229787616 0.1915214765387884 0 0.22001518176882229 0.28602682846307981 0 0.2360419540479583 0.32191828326940741 0 0.19152147653881049 0.32791879770215432 0 0.8289812646369813 0.82898126463698818 0 0.839908789927305 0.77106070975262608 0 0.87660297360393757 0.8104127896505644 0 0.17101873536300011 0.82898126463696109 0 0.22893929024737289 0.83990878992727813 0 0.18958721034944021 0.87660297360394568 0 0.66548584431530877 0.55616712808283064 0 0.64455163611866495 0.50369301794551069 0 0.69798396601998558 0.5289734597937793 0 0.70015119067225129 0.48481914991727459 0 0.69798396601998558 0.5289734597937793 0 0.64455163611866495 0.50369301794551069 0 0.77998481823117694 0.71397317153691997 0 0.73984939806388494 0.70740600291923139 0 0.76395804595204597 0.67808171673060369 0 0.28602682846308641 0.77998481823117594 0 0.2925512105451914 0.73997990291173188 0 0.32191828326940508 0.76395804595204586 0 0.71397317153692708 0.22001518176882201 0 0.70740600291923772 0.26015060193611528 0 0.67808171673060202 0.23604195404795861 0 0.22001518176882229 0.28602682846307981 0 0.26014443552207939 0.29262390443653519 0 0.2360419540479583 0.32191828326940741 0 0.90045039720880915 0.9020090423547924 0 0.90554214442080472 0.95994154153067524 0 0.86696410734367158 0.94753096683315619 0 0.097990957645208238 0.90045039720880915 0 0.040058458469322648 0.90554214442079806 0 0.052469033166843738 0.86696410734366991 0 0.90082758526900886 0.098076845682916511 0 0.95994154153057998 0.094457855579277675 0 0.94100406608115506 0.1383574446607955 0 0.90045039720880915 0.9020090423547924 0 0.94095916274074942 0.86165278010542579 0 0.95994154153065969 0.90554214442078618 0 0.90082758526900886 0.098076845682916511 0 0.86589314360155567 0.054872692726639853 0 0.90554214442081604 0.040058458469347469 0 0.098076845682915317 0.099172414730993488 0 0.094457855579284614 0.040058458469418363 0 0.1383574446607988 0.058995933918849157 0 0.097990957645208238 0.90045039720880915 0 0.13834721989462789 0.94095916274077984 0 0.094457855579188163 0.95994154153068711 0 0.098076845682915317 0.099172414730993488 0 0.054872692726595548 0.13410685639845171 0 0.040058458469319477 0.094457855579157729 0 0.54901591374940373 0.42306523525165751 0 0.54715635490880632 0.37829016026862072 0 0.60122390529523662 0.39097801071820221 0 0.49854341599767982 0.37075914768127122 0 0.54715635490880632 0.37829016026862072 0 0.5047849391802508 0.40719950955717021 0 0.66548584431530877 0.55616712808283064 0 0.65501639383771026 0.594528181397324 0 0.61866949026800744 0.55492322767366287 0 0.50000000000002642 0.7803135888501761 0 0.49771727055908782 0.83998685797641781 0 0.46593838964869061 0.80781872835503554 0 0.2196864111498267 0.50000000000003153 0 0.16001314202358469 0.49771727055909287 0 0.19218127164496679 0.46593838964869538 0 0.78031358885017377 0.49999999999997569 0 0.83998574657308889 0.50228528270184081 0 0.80781854240107975 0.53406203754901738 0 0.49999999999997108 0.21968641114982909 0 0.50228272944093777 0.16001314202359701 0 0.53404982287327418 0.19215288291432539 0 0.70085728320704077 0.84350379029875056 0 0.74154628962857594 0.86274820500026039 0 0.70475631558365914 0.90098127745102974 0 0.1564962097012354 0.70085728320703999 0 0.13725179499972981 0.74154628962856628 0 0.099018722548963364 0.70475631558365193 0 0.84350379029877964 0.29914271679296989 0 0.85389826602741015 0.26318949769600392 0 0.89886191075654698 0.29506339503703172 0 0.29914271679297122 0.15649620970120659 0 0.26318949769601319 0.14610173397257309 0 0.29506339503703888 0.1011380892434444 0 0.74417394063200648 0.6049203001048884 0 0.71518943060973483 0.65679402931717101 0 0.69288637798153729 0.61204665218001397 0 0.39507969989512881 0.74417394063201048 0 0.34270280102445921 0.71672416762035873 0 0.38642358467307758 0.69286258923597266 0 0.60492030010488373 0.25582605936799729 0 0.65679402931716913 0.28481056939027388 0 0.61204665218000809 0.30711362201846659 0 0.25582605936799319 0.39507969989513358 0 0.28473805236128291 0.34355768118673757 0 0.30597655500381687 0.3934681685211931 0 0.88949062093135778 0.73694585442531257 0 0.839908789927305 0.77106070975262608 0 0.8312019486901514 0.72745002167959472 0 0.73688246401832591 0.11047754041323141 0 0.77216325087772952 0.15899695163319821 0 0.72767516840721058 0.16853767177393791 0 0.26305414557470391 0.88949062093136155 0 0.22893929024737289 0.83990878992727813 0 0.27254997832041528 0.8312019486901443 0 0.1104775404132264 0.2631175359816938 0 0.15899695163321451 0.22783674912227669 0 0.1685376717739448 0.27232483159280108 0 0.61233489393901674 0.60846740003560018 0 0.57484409313590223 0.58437321637184114 0 0.61866949026800744 0.55492322767366287 0 0.43565339604028508 0.55159384357101338 0 0.39982789553993509 0.53462762214740622 0 0.45293656999117771 0.51494832297079129 0 0.41009598069569558 0.49083935749285379 0 0.45293656999117771 0.51494832297079129 0 0.39982789553993509 0.53462762214740622 0 0.4434591735942961 0.66641640622551224 0 0.40564717507982689 0.65626423320524974 0 0.45517457031814612 0.62743100079604397 0 0.40653508887824003 0.61580573377480397 0 0.45517457031814612 0.62743100079604397 0 0.40564717507982689 0.65626423320524974 0 0.89586000931544074 0.25714619498770419 0 0.84534053180161173 0.2262639405833009 0 0.89556054516486661 0.21720615046483649 0 0.25714619498771307 0.1041399906845497 0 0.22626394058331961 0.15465946819838111 0 0.21720615046484709 0.1044394548351292 0 0.41009598069569558 0.49083935749285379 0 0.35815651743779398 0.51113440447909086 0 0.37702386074717259 0.45819417564476811 0 0.75000000000034661 1 0 0.71789175274016548 0.95136708251202151 0 0.77688977118331393 0.94706199857866258 0 0 0.75000000000034661 0 0.04863291748797445 0.71789175274016204 0 0.052938001421335763 0.77688977118331159 0 1 0.24999999999941211 0 0.94915666091748963 0.28320804985299752 0 0.94465622530468663 0.23167460333446291 0 0.24999999999941211 0 0 0.28320804985300141 0.050843339082505573 0 0.23167460333446299 0.05534377469531044 0 0.90289902042272274 0.56409326000946114 0 0.95638719633882641 0.5599388881718611 0 0.93946948561981514 0.60485373571037115 0 0.56409326000946236 0.097100979577281268 0 0.55993888817186677 0.043612803661174412 0 0.6048537357103756 0.060530514380187868 0 0.43590673999053309 0.90289902042279657 0 0.44006111182840962 0.9563871963389079 0 0.39514626428973221 0.93946948561985189 0 0.097100979577207341 0.43590673999053198 0 0.043612803661092707 0.44006111182840391 0 0.06053051438015096 0.39514626428972788 0 0.40653508887824003 0.61580573377480397 0 0.40468198875170619 0.57637931869191572 0 0.45030222762303879 0.58443295115431027 0 0.43301393728221038 0.35984320557492139 0 0.43059486795334201 0.30395973419063538 0 0.47253211736503098 0.34081710830804929 0 0.48378871228000903 0.29745177826977359 0 0.47253211736503098 0.34081710830804929 0 0.43059486795334201 0.30395973419063538 0 0.65000000000104008 1 0 0.60000000000138687 1 0 0.63753756910470316 0.95578163339252209 0 0 0.65000000000104008 0 0 0.60000000000138687 0 0.04421836660747535 0.63753756910470205 0 1 0.34999999999912063 0 1 0.3999999999989749 0 0.95581270756939096 0.36248656652865863 0 0.34999999999912063 0 0 0.3999999999989749 0 0 0.36246243089534252 0.044218366607477223 0 0.73982803480991577 0.79629608696991705 0 0.74917861927654894 0.74229989257760443 0 0.78651189793386345 0.75664155808652755 0 0.20370391303007401 0.73982803480989479 0 0.25770010742238642 0.74917861927655205 0 0.24335844191347281 0.78651189793387466 0 0.79629608696994103 0.26017196519011448 0 0.74229989257762263 0.250821380723454 0 0.7582555232258138 0.2115548431873896 0 0.26017196519013502 0.20370391303005 0 0.25082138072344978 0.25770010742236849 0 0.2115548431873881 0.2417444767741872 0 1 0.049999999999899652 0 0.94156647488778256 0.058433525112256718 0 0.96763014295114425 0.032369857048773903 0 0.049999999999899652 0 0 0.058433525112266523 0.058433525112214509 0 0.032369857048753323 0.032369857048862027 0 0.94999999999986839 0 0 0.96763014295114425 0.032369857048773903 0 0.94156647488778256 0.058433525112256718 0 0 0.050000000000207989 0 0.032369857048753323 0.032369857048862027 0 0.058433525112266523 0.058433525112214509 0 1 0.94999999999986839 0 0.96763014295120153 0.96763014295122851 0 0.94156647488775558 0.94156647488774259 0 0.94999999999979179 1 0 0.94156647488775558 0.94156647488774259 0 0.96763014295120153 0.96763014295122851 0 0.050000000000207989 1 0 0.030452409610489669 0.96954759038951022 0 0.058433525112254137 0.94156647488774581 0 0 0.94999999999979179 0 0.058433525112254137 0.94156647488774581 0 0.030452409610489669 0.96954759038951022 0 0.90045039720880915 0.9020090423547924 0 0.88962265630811221 0.85311725681459705 0 0.94095916274074942 0.86165278010542579 0 0.097990957645208238 0.90045039720880915 0 0.14688274318541941 0.88962265630811932 0 0.13834721989462789 0.94095916274077984 0 0.91838802593884228 0.81827409710237209 0 0.94095916274074942 0.86165278010542579 0 0.88962265630811221 0.85311725681459705 0 0.91838802593870927 0.18172590289757809 0 0.88777909259956078 0.1484760565886154 0 0.94100406608115506 0.1383574446607955 0 0.1817259028976386 0.91838802593888857 0 0.13834721989462789 0.94095916274077984 0 0.14688274318541941 0.88962265630811932 0 0.18172590289758209 0.08161197406129285 0 0.1484760565886207 0.1122209074004519 0 0.1383574446607988 0.058995933918849157 0 0.90082758526900886 0.098076845682916511 0 0.94100406608115506 0.1383574446607955 0 0.88777909259956078 0.1484760565886154 0 0.098076845682915317 0.099172414730993488 0 0.1383574446607988 0.058995933918849157 0 0.1484760565886207 0.1122209074004519 0 0.57387636360620708 0.54318431390135336 0 0.61866949026800744 0.55492322767366287 0 0.57484409313590223 0.58437321637184114 0 0.60122390529523662 0.39097801071820221 0 0.54715635490880632 0.37829016026862072 0 0.59596170682035776 0.34609402305862419 0 0.38703015239361932 0.80283068154761972 0 0.32791879770213411 0.80847852346120164 0 0.35837423432538362 0.77730446904312345 0 0.8028306815476034 0.61296984760642026 0 0.80847852346122429 0.67208120229789559 0 0.77730446904309636 0.64162576567462737 0 0.197169318452384 0.38703015239362498 0 0.19152147653881049 0.32791879770215432 0 0.22269553095687891 0.35837423432538801 0 0.61296984760641449 0.19716931845240021 0 0.67208120229787616 0.1915214765387884 0 0.64162576567462404 0.22269553095690481 0 0.39419886675318527 0.41912225240070788 0 0.37702386074717259 0.45819417564476811 0 0.35481422397128459 0.40312981465069342 0 0.33382663527330159 0.44130125047503482 0 0.35481422397128459 0.40312981465069342 0 0.37702386074717259 0.45819417564476811 0 0.40653508887824003 0.61580573377480397 0 0.40564717507982689 0.65626423320524974 0 0.35944937237716967 0.65164789808436319 0 0.53432142347292233 0.88563193847251998 0 0.49771727055908782 0.83998685797641781 0 0.54047998161173716 0.84333512669480526 0 0.1143680615274819 0.53432142347292733 0 0.16001314202358469 0.49771727055909287 0 0.1566648733051971 0.54047998161174216 0 0.88561059063756964 0.46572761956237563 0 0.83998574657308889 0.50228528270184081 0 0.84333218736938698 0.4595365182652234 0 0.46567857652706018 0.1143680615275231 0 0.50228272944093777 0.16001314202359701 0 0.45952001838826873 0.15666487330524251 0 0.37104651296145419 0.60545170748311072 0 0.40653508887824003 0.61580573377480397 0 0.35944937237716967 0.65164789808436319 0 0.6519524273377173 0.64249931920594539 0 0.71518943060973483 0.65679402931717101 0 0.6768914574865772 0.67861120078714243 0 0.35944937237716967 0.65164789808436319 0 0.34270280102445921 0.71672416762035873 0 0.32259853082073792 0.67670072609835186 0 0.6424993192059415 0.3480475726622802 0 0.65679402931716913 0.28481056939027388 0 0.6786112007871401 0.32310854251343019 0 0.34804757266227387 0.35750068079406011 0 0.28473805236128291 0.34355768118673757 0 0.3231032570156932 0.32141443408924047 0 0.73982803480991577 0.79629608696991705 0 0.70085728320704077 0.84350379029875056 0 0.69892030930712212 0.7971997999085858 0 0.20370391303007401 0.73982803480989479 0 0.1564962097012354 0.70085728320703999 0 0.2028002000914135 0.69892030930711557 0 0.79629608696994103 0.26017196519011448 0 0.84350379029877964 0.29914271679296989 0 0.7971997999085878 0.3010796906928917 0 0.26017196519013502 0.20370391303005 0 0.29914271679297122 0.15649620970120659 0 0.30107969069289831 0.20280020009141189 0 0.43301393728221038 0.35984320557492139 0 0.42930823106401639 0.40626685012722968 0 0.39222057657781068 0.38067796690227418 0 0.73982803480991577 0.79629608696991705 0 0.78284912262770068 0.83746308049763585 0 0.74154628962857594 0.86274820500026039 0 0.20370391303007401 0.73982803480989479 0 0.16253691950235041 0.78284912262768558 0 0.13725179499972981 0.74154628962856628 0 0.79629608696994103 0.26017196519011448 0 0.84534053180161173 0.2262639405833009 0 0.85389826602741015 0.26318949769600392 0 0.26017196519013502 0.20370391303005 0 0.22626394058331961 0.15465946819838111 0 0.26318949769601319 0.14610173397257309 0 0.56566515596461675 0.63670464971409091 0 0.57484409313590223 0.58437321637184114 0 0.61233489393901674 0.60846740003560018 0 0.84598529912884157 0.63969251517827153 0 0.85607519768343354 0.69380468830529196 0 0.80847852346122429 0.67208120229789559 0 0.63969251517826664 0.15401470087115929 0 0.69379929796456197 0.14392209494791061 0 0.67208120229787616 0.1915214765387884 0 0.36030748482174152 0.84598529912882459 0 0.30619531169472608 0.85607519768342955 0 0.32791879770213411 0.80847852346120164 0 0.15401470087117619 0.36030748482174652 0 0.14392209494791439 0.30620070203545702 0 0.19152147653881049 0.32791879770215432 0 0.20370391303007401 0.73982803480989479 0 0.24335844191347281 0.78651189793387466 0 0.20359074765364421 0.79422489417871855 0 0.73982803480991577 0.79629608696991705 0 0.78651189793386345 0.75664155808652755 0 0.79422489417873421 0.79640925234634441 0 0.26017196519013502 0.20370391303005 0 0.2115548431873881 0.2417444767741872 0 0.20596721135052939 0.19972517895396219 0 0.79629608696994103 0.26017196519011448 0 0.7582555232258138 0.2115548431873896 0 0.80027482104603809 0.20596721135052129 0 0.51172471858873747 0.64015771271794875 0 0.47818752133962877 0.66454462905280853 0 0.45517457031814612 0.62743100079604397 0 0.54901591374940373 0.42306523525165751 0 0.60122390529523662 0.39097801071820221 0 0.59313386551587477 0.43977047843653239 0 0.640156794425081 0.43301393728221721 0 0.59313386551587477 0.43977047843653239 0 0.60122390529523662 0.39097801071820221 0 0.70252050881959183 0.70358884261915833 0 0.71518943060973483 0.65679402931717101 0 0.73984939806388494 0.70740600291923139 0 0.29641115738084339 0.70252050881958938 0 0.34270280102445921 0.71672416762035873 0 0.2925512105451914 0.73997990291173188 0 0.76395804595204597 0.67808171673060369 0 0.73984939806388494 0.70740600291923139 0 0.71518943060973483 0.65679402931717101 0 0.32191828326940508 0.76395804595204586 0 0.2925512105451914 0.73997990291173188 0 0.34270280102445921 0.71672416762035873 0 0.70358884261915744 0.29747949118041561 0 0.65679402931716913 0.28481056939027388 0 0.70740600291923772 0.26015060193611528 0 0.29747949118041711 0.2964111573808435 0 0.28473805236128291 0.34355768118673757 0 0.26014443552207939 0.29262390443653519 0 0.67808171673060202 0.23604195404795861 0 0.70740600291923772 0.26015060193611528 0 0.65679402931716913 0.28481056939027388 0 0.2360419540479583 0.32191828326940741 0 0.26014443552207939 0.29262390443653519 0 0.28473805236128291 0.34355768118673757 0 0.74198804864688339 0.90892718720327403 0 0.70475631558365914 0.90098127745102974 0 0.74154628962857594 0.86274820500026039 0 0.091072812796719582 0.74198804864687795 0 0.099018722548963364 0.70475631558365193 0 0.13725179499972981 0.74154628962856628 0 0.89586000931544074 0.25714619498770419 0 0.89886191075654698 0.29506339503703172 0 0.85389826602741015 0.26318949769600392 0 0.25714619498771307 0.1041399906845497 0 0.29506339503703888 0.1011380892434444 0 0.26318949769601319 0.14610173397257309 0 0.59819537371016407 0.74380966024143391 0 0.64203711532612107 0.74316477213290444 0 0.61896574319320252 0.795216048370321 0 0.66820316019503978 0.77769800602796979 0 0.61896574319320252 0.795216048370321 0 0.64203711532612107 0.74316477213290444 0 0.25619033975856881 0.59819537371016862 0 0.25684529255773247 0.64203554247963057 0 0.2047839516296828 0.61896574319320252 0 0.22230199397202771 0.66820316019503168 0 0.2047839516296828 0.61896574319320252 0 0.25684529255773247 0.64203554247963057 0 0.74380966024142703 0.40180462628984132 0 0.74316477213289889 0.35796288467388632 0 0.79521604837030013 0.38103425680679831 0 0.77769800602796679 0.33179683980497482 0 0.79521604837030013 0.38103425680679831 0 0.74316477213289889 0.35796288467388632 0 0.40180462628983732 0.2561903397585753 0 0.3579628846738841 0.25683522786710378 0 0.38103425680679859 0.2047839516297037 0 0.33179683980498331 0.2223019939720311 0 0.38103425680679859 0.2047839516297037 0 0.3579628846738841 0.25683522786710378 0 0.92670321183853355 0.65773042910151081 0 0.93946948561981514 0.60485373571037115 0 0.96654491682122368 0.6363613838740827 0 0.65773042910151891 0.073296788161472337 0 0.6048537357103756 0.060530514380187868 0 0.63635157668793507 0.033457646040912177 0 0.3422695708985129 0.92670321183858773 0 0.39514626428973221 0.93946948561985189 0 0.36363861612613613 0.96654491682121313 0 0.073296788161418117 0.34226957089850552 0 0.06053051438015096 0.39514626428972788 0 0.033457646040922301 0.36364842331228431 0 0.6519524273377173 0.64249931920594539 0 0.6768914574865772 0.67861120078714243 0 0.64518564541690571 0.69601563325001548 0 0.35944937237716967 0.65164789808436319 0 0.32259853082073792 0.67670072609835186 0 0.30421635384321521 0.64514939193436716 0 0.6424993192059415 0.3480475726622802 0 0.6786112007871401 0.32310854251343019 0 0.69601563325001248 0.35481435458309712 0 0.34804757266227387 0.35750068079406011 0 0.3231032570156932 0.32141443408924047 0 0.35481435458309307 0.30398436674998969 0 0.73982803480991577 0.79629608696991705 0 0.71159714897733284 0.75039044679290845 0 0.74917861927654894 0.74229989257760443 0 0.20370391303007401 0.73982803480989479 0 0.249609553207091 0.71159714897732929 0 0.25770010742238642 0.74917861927655205 0 0.79629608696994103 0.26017196519011448 0 0.75039044679291111 0.28840285102267788 0 0.74229989257762263 0.250821380723454 0 0.26017196519013502 0.20370391303005 0 0.28840285102268098 0.24960955320708811 0 0.25082138072344978 0.25770010742236849 0 0.43565339604028508 0.55159384357101338 0 0.45030222762303879 0.58443295115431027 0 0.40468198875170619 0.57637931869191572 0 0.3999999999989749 0 0 0.44999999999882923 0 0 0.40685581827241191 0.041139877312511682 0 1 0.3999999999989749 0 1 0.44999999999882923 0 0.95886012268748921 0.4068558182724159 0 0 0.60000000000138687 0 0 0.55000000000173355 0 0.041139877312483641 0.59314418172763017 0 0.60000000000138687 1 0 0.55000000000173355 1 0 0.5931441817276254 0.95886012268751675 0 1 0.049999999999899652 0 1 0.099999999999814668 0 0.95994154153057998 0.094457855579277675 0 0.049999999999899652 0 0 0.099999999999814668 0 0 0.094457855579284614 0.040058458469418363 0 0.94999999999979179 1 0 0.89999999999958358 1 0 0.90554214442080472 0.95994154153067524 0 0 0.94999999999979179 0 0 0.89999999999958358 0 0.040058458469322648 0.90554214442079806 0 1 0.89999999999973679 0 1 0.94999999999986839 0 0.95994154153065969 0.90554214442078618 0 0.89999999999973679 0 0 0.94999999999986839 0 0 0.90554214442081604 0.040058458469347469 0 0.10000000000041601 1 0 0.050000000000207989 1 0 0.094457855579188163 0.95994154153068711 0 0 0.10000000000041601 0 0 0.050000000000207989 0 0.040058458469319477 0.094457855579157729 0 0.88949062093135778 0.73694585442531257 0 0.8312019486901514 0.72745002167959472 0 0.85607519768343354 0.69380468830529196 0 0.73688246401832591 0.11047754041323141 0 0.72767516840721058 0.16853767177393791 0 0.69379929796456197 0.14392209494791061 0 0.26305414557470391 0.88949062093136155 0 0.27254997832041528 0.8312019486901443 0 0.30619531169472608 0.85607519768342955 0 0.1104775404132264 0.2631175359816938 0 0.1685376717739448 0.27232483159280108 0 0.14392209494791439 0.30620070203545702 0 0.51484304721220842 0.69707233951836334 0 0.54465502325161819 0.74717983044080061 0 0.49073113440598592 0.73759004618730417 0 0.30292766048163949 0.51484304721221474 0 0.25287139441262568 0.54458355434492378 0 0.262418491288269 0.49071922292154141 0 0.70015119067225129 0.48481914991727459 0 0.74730218607442667 0.45539100053644521 0 0.73815142352639962 0.50697050072007344 0 0.48378871228000903 0.29745177826977359 0 0.45533136021725079 0.2525687312087147 0 0.50732841191799194 0.2613117081243182 0 0.66548584431530877 0.55616712808283064 0 0.61866949026800744 0.55492322767366287 0 0.64455163611866495 0.50369301794551069 0 0.5586987495249669 0.33382663527330653 0 0.59596170682035776 0.34609402305862419 0 0.54715635490880632 0.37829016026862072 0 0.41009598069569558 0.49083935749285379 0 0.42340342337193693 0.44762131874855388 0 0.46152714345798918 0.47344359412352599 0 0.63969251517836323 0.84598529912890386 0 0.61896574319320252 0.795216048370321 0 0.66919832404887702 0.81820888699730587 0 0.1540147008710982 0.63969251517836956 0 0.2047839516296828 0.61896574319320252 0 0.1817911130026923 0.66919832404888702 0 0.84598529912889664 0.36030748482164038 0 0.79521604837030013 0.38103425680679831 0 0.8182088869973061 0.33080167595111531 0 0.3603074848216346 0.15401470087110539 0 0.38103425680679859 0.2047839516297037 0 0.33080167595110582 0.18179111300269291 0 0.60000000000138687 1 0 0.5931441817276254 0.95886012268751675 0 0.63753756910470316 0.95578163339252209 0 0 0.60000000000138687 0 0.041139877312483641 0.59314418172763017 0 0.04421836660747535 0.63753756910470205 0 1 0.3999999999989749 0 0.95886012268748921 0.4068558182724159 0 0.95581270756939096 0.36248656652865863 0 0.3999999999989749 0 0 0.40685581827241191 0.041139877312511682 0 0.36246243089534252 0.044218366607477223 0 0.6519524273377173 0.64249931920594539 0 0.61233489393901674 0.60846740003560018 0 0.65501639383771026 0.594528181397324 0 0.6424993192059415 0.3480475726622802 0 0.60122390529523662 0.39097801071820221 0 0.59596170682035776 0.34609402305862419 0 0.56566515596461675 0.63670464971409091 0 0.60879112811253555 0.66592422311595834 0 0.57051182622447827 0.69668652018496713 0 0.35984320557492089 0.56698606271778873 0 0.33231497408081678 0.60779218732873663 0 0.30429740679959738 0.56913905146460098 0 0.640156794425081 0.43301393728221721 0 0.66346942254826746 0.391530810754116 0 0.69595787604187809 0.43071000156707989 0 0.43301393728221038 0.35984320557492139 0 0.39120887188745579 0.33407577688404289 0 0.43059486795334201 0.30395973419063538 0 0.59999999999894682 0 0 0.63635157668793507 0.033457646040912177 0 0.6048537357103756 0.060530514380187868 0 1 0.59999999999894682 0 0.96654491682122368 0.6363613838740827 0 0.93946948561981514 0.60485373571037115 0 0 0.40000000000166441 0 0.033457646040922301 0.36364842331228431 0 0.06053051438015096 0.39514626428972788 0 0.40000000000166441 1 0 0.36363861612613613 0.96654491682121313 0 0.39514626428973221 0.93946948561985189 0 0.50000000000002642 0.7803135888501761 0 0.49073113440598592 0.73759004618730417 0 0.54465502325161819 0.74717983044080061 0 0.2196864111498267 0.50000000000003153 0 0.262418491288269 0.49071922292154141 0 0.25287139441262568 0.54458355434492378 0 0.78031358885017377 0.49999999999997569 0 0.73815142352639962 0.50697050072007344 0 0.74730218607442667 0.45539100053644521 0 0.49999999999997108 0.21968641114982909 0 0.50732841191799194 0.2613117081243182 0 0.45533136021725079 0.2525687312087147 0 0.39507969989512881 0.74417394063201048 0 0.43306783640023289 0.78031198216144404 0 0.38703015239361932 0.80283068154761972 0 0.25582605936799319 0.39507969989513358 0 0.21968801783855879 0.43306783640023788 0 0.197169318452384 0.38703015239362498 0 0.74417394063200648 0.6049203001048884 0 0.78031198216143516 0.56693216359979737 0 0.8028306815476034 0.61296984760642026 0 0.60492030010488373 0.25582605936799729 0 0.56683314878414581 0.21944955250104689 0 0.61296984760641449 0.19716931845240021 0 0.77998481823117694 0.71397317153691997 0 0.74917861927654894 0.74229989257760443 0 0.73984939806388494 0.70740600291923139 0 0.28602682846308641 0.77998481823117594 0 0.25770010742238642 0.74917861927655205 0 0.2925512105451914 0.73997990291173188 0 0.71397317153692708 0.22001518176882201 0 0.74229989257762263 0.250821380723454 0 0.70740600291923772 0.26015060193611528 0 0.22001518176882229 0.28602682846307981 0 0.25082138072344978 0.25770010742236849 0 0.26014443552207939 0.29262390443653519 0 0.49189101320880302 0.59024331187324797 0 0.53087311892591971 0.55299263141448529 0 0.53542397956703913 0.60119875982347493 0 0.41009598069569558 0.49083935749285379 0 0.46152714345798918 0.47344359412352599 0 0.45293656999117771 0.51494832297079129 0 0.66820316019503978 0.77769800602796979 0 0.66919832404887702 0.81820888699730587 0 0.61896574319320252 0.795216048370321 0 0.22230199397202771 0.66820316019503168 0 0.1817911130026923 0.66919832404888702 0 0.2047839516296828 0.61896574319320252 0 0.77769800602796679 0.33179683980497482 0 0.8182088869973061 0.33080167595111531 0 0.79521604837030013 0.38103425680679831 0 0.33179683980498331 0.2223019939720311 0 0.33080167595110582 0.18179111300269291 0 0.38103425680679859 0.2047839516297037 0 0.83199780613337848 0.1690131600686714 0 0.87355793346388477 0.18922011052113649 0 0.84534053180161173 0.2262639405833009 0 0.16901316006868169 0.16800219386663079 0 0.18922011052115781 0.12644206653611201 0 0.22626394058331961 0.15465946819838111 0 0.58981073711177334 0.48140931020849848 0 0.62619054498681193 0.46482944251856079 0 0.64455163611866495 0.50369301794551069 0 0.59621567360238914 0.5184866806641607 0 0.58981073711177334 0.48140931020849848 0 0.64455163611866495 0.50369301794551069 0 0.53432142347292233 0.88563193847251998 0 0.54047998161173716 0.84333512669480526 0 0.58267137064684116 0.87013301365640838 0 0.56759263990989184 0.81794319034601648 0 0.58267137064684116 0.87013301365640838 0 0.54047998161173716 0.84333512669480526 0 0.1143680615274819 0.53432142347292733 0 0.1566648733051971 0.54047998161174216 0 0.12986698634359389 0.58267137064684615 0 0.18205680965398621 0.56759263990989739 0 0.12986698634359389 0.58267137064684615 0 0.1566648733051971 0.54047998161174216 0 0.88561059063756964 0.46572761956237563 0 0.84333218736938698 0.4595365182652234 0 0.87012666750595846 0.41743873185103042 0 0.81794319034597418 0.43240736009009317 0 0.87012666750595846 0.41743873185103042 0 0.84333218736938698 0.4595365182652234 0 0.46567857652706018 0.1143680615275231 0 0.45952001838826873 0.15666487330524251 0 0.41732862935313042 0.12986698634362279 0 0.43240736009008851 0.18205680965402779 0 0.41732862935313042 0.12986698634362279 0 0.45952001838826873 0.15666487330524251 0 0.70085728320704077 0.84350379029875056 0 0.70475631558365914 0.90098127745102974 0 0.66923299355723143 0.8804077449518628 0 0.1564962097012354 0.70085728320703999 0 0.099018722548963364 0.70475631558365193 0 0.1195922550481313 0.66923299355722787 0 0.84350379029877964 0.29914271679296989 0 0.89886191075654698 0.29506339503703172 0 0.88040774495187946 0.33076700644278889 0 0.29914271679297122 0.15649620970120659 0 0.29506339503703888 0.1011380892434444 0 0.33076700644279272 0.1195922550481146 0 0.839908789927305 0.77106070975262608 0 0.78651189793386345 0.75664155808652755 0 0.8312019486901514 0.72745002167959472 0 0.22893929024737289 0.83990878992727813 0 0.24335844191347281 0.78651189793387466 0 0.27254997832041528 0.8312019486901443 0 0.77216325087772952 0.15899695163319821 0 0.7582555232258138 0.2115548431873896 0 0.72767516840721058 0.16853767177393791 0 0.15899695163321451 0.22783674912227669 0 0.2115548431873881 0.2417444767741872 0 0.1685376717739448 0.27232483159280108 0 0.89586000931544074 0.25714619498770419 0 0.85389826602741015 0.26318949769600392 0 0.84534053180161173 0.2262639405833009 0 0.25714619498771307 0.1041399906845497 0 0.26318949769601319 0.14610173397257309 0 0.22626394058331961 0.15465946819838111 0 0.49771727055908782 0.83998685797641781 0 0.45353891581270822 0.85551523377818905 0 0.46593838964869061 0.80781872835503554 0 0.16001314202358469 0.49771727055909287 0 0.1444847662218138 0.45353891581271188 0 0.19218127164496679 0.46593838964869538 0 0.83998574657308889 0.50228528270184081 0 0.85551478316835361 0.54646211938695222 0 0.80781854240107975 0.53406203754901738 0 0.50228272944093777 0.16001314202359701 0 0.54646108418729233 0.1444847662218687 0 0.53404982287327418 0.19215288291432539 0 0.51484304721220842 0.69707233951836334 0 0.47818752133962877 0.66454462905280853 0 0.51172471858873747 0.64015771271794875 0 0.30292766048163949 0.51484304721221474 0 0.33436424489304489 0.47849603121740791 0 0.35815651743779398 0.51113440447909086 0 0.6027107599280892 0.83436006790502326 0 0.63969251517836323 0.84598529912890386 0 0.62483828039315681 0.8780818733396436 0 0.1656399320949789 0.60271075992809464 0 0.1540147008710982 0.63969251517836956 0 0.1219181266603569 0.62483828039315903 0 0.83436006790498052 0.39728924007189959 0 0.84598529912889664 0.36030748482164038 0 0.87815187193233801 0.37523526017134418 0 0.3972892400718947 0.16563993209502181 0 0.3603074848216346 0.15401470087110539 0 0.37516171960683908 0.121918126660369 0 0.70015119067225129 0.48481914991727459 0 0.64455163611866495 0.50369301794551069 0 0.66329969176266512 0.46626046872004567 0 0.57387636360620708 0.54318431390135336 0 0.53087311892591971 0.55299263141448529 0 0.554170140907293 0.50922353359177785 0 0.50333998054938722 0.50119715791968966 0 0.50753758205811061 0.4506562873613274 0 0.54783891860069212 0.46640164214823893 0 0.58267137064684116 0.87013301365640838 0 0.6027107599280892 0.83436006790502326 0 0.62483828039315681 0.8780818733396436 0 0.12986698634359389 0.58267137064684615 0 0.1656399320949789 0.60271075992809464 0 0.1219181266603569 0.62483828039315903 0 0.87012666750595846 0.41743873185103042 0 0.83436006790498052 0.39728924007189959 0 0.87815187193233801 0.37523526017134418 0 0.41732862935313042 0.12986698634362279 0 0.3972892400718947 0.16563993209502181 0 0.37516171960683908 0.121918126660369 0 0.35984320557492089 0.56698606271778873 0 0.35815651743779398 0.51113440447909086 0 0.39982789553993509 0.53462762214740622 0 0.43087117257049001 0.8215422551712771 0 0.46593838964869061 0.80781872835503554 0 0.45353891581270822 0.85551523377818905 0 0.17845774482872559 0.43087117257049429 0 0.19218127164496679 0.46593838964869538 0 0.1444847662218138 0.45353891581271188 0 0.8215422551712277 0.56912882742954496 0 0.80781854240107975 0.53406203754901738 0 0.85551478316835361 0.54646211938695222 0 0.56912882742954041 0.17845774482877461 0 0.53404982287327418 0.19215288291432539 0 0.54646108418729233 0.1444847662218687 0 0.89586000931544074 0.25714619498770419 0 0.89556054516486661 0.21720615046483649 0 0.94465622530468663 0.23167460333446291 0 0.91838802593870927 0.18172590289757809 0 0.94465622530468663 0.23167460333446291 0 0.89556054516486661 0.21720615046483649 0 0.25714619498771307 0.1041399906845497 0 0.21720615046484709 0.1044394548351292 0 0.23167460333446299 0.05534377469531044 0 0.18172590289758209 0.08161197406129285 0 0.23167460333446299 0.05534377469531044 0 0.21720615046484709 0.1044394548351292 0 0.50333998054938722 0.50119715791968966 0 0.54783891860069212 0.46640164214823893 0 0.554170140907293 0.50922353359177785 0 0.16901316006868169 0.16800219386663079 0 0.12587517708284679 0.1889683322666954 0 0.12294765968567151 0.14825146416195439 0 0.83199780613337848 0.1690131600686714 0 0.8110316677333288 0.125875177082863 0 0.8517485358380722 0.12294765968568611 0 0.74198804864688339 0.90892718720327403 0 0.74154628962857594 0.86274820500026039 0 0.78020430794084783 0.88768307197553598 0 0.78284912262770068 0.83746308049763585 0 0.78020430794084783 0.88768307197553598 0 0.74154628962857594 0.86274820500026039 0 0.091072812796719582 0.74198804864687795 0 0.13725179499972981 0.74154628962856628 0 0.11231692802445629 0.78020430794084028 0 0.16253691950235041 0.78284912262768558 0 0.11231692802445629 0.78020430794084028 0 0.13725179499972981 0.74154628962856628 0 0.82118136511706341 0.082875076569723011 0 0.77925951159456153 0.09969477121230251 0 0.76543419162344684 0.056452228708420968 0 0.08287507656968085 0.1788186348829835 0 0.099694771212264055 0.22074048840547039 0 0.056452228708379938 0.23456580837661581 0 0.91838802593884228 0.81827409710237209 0 0.9041449437197947 0.7786886066890556 0 0.9442075111696665 0.76777356182390766 0 0.1817259028976386 0.91838802593888857 0 0.22131139331094829 0.9041449437198319 0 0.23222643817617661 0.94420751116970569 0 0.73688246401832591 0.11047754041323141 0 0.76543419162344684 0.056452228708420968 0 0.77925951159456153 0.09969477121230251 0 0.1104775404132264 0.2631175359816938 0 0.056452228708379938 0.23456580837661581 0 0.099694771212264055 0.22074048840547039 0 0.88949062093135778 0.73694585442531257 0 0.9442075111696665 0.76777356182390766 0 0.9041449437197947 0.7786886066890556 0 0.26305414557470391 0.88949062093136155 0 0.23222643817617661 0.94420751116970569 0 0.22131139331094829 0.9041449437198319 0 0.73984939806388494 0.70740600291923139 0 0.71159714897733284 0.75039044679290845 0 0.70252050881959183 0.70358884261915833 0 0.74917861927654894 0.74229989257760443 0 0.71159714897733284 0.75039044679290845 0 0.73984939806388494 0.70740600291923139 0 0.2925512105451914 0.73997990291173188 0 0.249609553207091 0.71159714897732929 0 0.29641115738084339 0.70252050881958938 0 0.25770010742238642 0.74917861927655205 0 0.249609553207091 0.71159714897732929 0 0.2925512105451914 0.73997990291173188 0 0.70740600291923772 0.26015060193611528 0 0.75039044679291111 0.28840285102267788 0 0.70358884261915744 0.29747949118041561 0 0.74229989257762263 0.250821380723454 0 0.75039044679291111 0.28840285102267788 0 0.70740600291923772 0.26015060193611528 0 0.26014443552207939 0.29262390443653519 0 0.28840285102268098 0.24960955320708811 0 0.29747949118041711 0.2964111573808435 0 0.25082138072344978 0.25770010742236849 0 0.28840285102268098 0.24960955320708811 0 0.26014443552207939 0.29262390443653519 0 0.88949062093135778 0.73694585442531257 0 0.85607519768343354 0.69380468830529196 0 0.90051880305432697 0.69261863673346957 0 0.26305414557470391 0.88949062093136155 0 0.30619531169472608 0.85607519768342955 0 0.30738136326657722 0.90051880305435028 0 0.73688246401832591 0.11047754041323141 0 0.69379929796456197 0.14392209494791061 0 0.69253601466723103 0.09949211948105087 0 0.1104775404132264 0.2631175359816938 0 0.14392209494791439 0.30620070203545702 0 0.099492119481027347 0.30746398533281638 0 0.58981073711177334 0.48140931020849848 0 0.54783891860069212 0.46640164214823893 0 0.59313386551587477 0.43977047843653239 0 0.640156794425081 0.43301393728221721 0 0.69595787604187809 0.43071000156707989 0 0.66329969176266512 0.46626046872004567 0 0.70015119067225129 0.48481914991727459 0 0.66329969176266512 0.46626046872004567 0 0.69595787604187809 0.43071000156707989 0 0.8289812646369813 0.82898126463698818 0 0.81306033001437827 0.8677384967307622 0 0.78284912262770068 0.83746308049763585 0 0.17101873536300011 0.82898126463696109 0 0.1322615032692282 0.8130603300143705 0 0.16253691950235041 0.78284912262768558 0 0.84534053180161173 0.2262639405833009 0 0.87355793346388477 0.18922011052113649 0 0.89556054516486661 0.21720615046483649 0 0.22626394058331961 0.15465946819838111 0 0.18922011052115781 0.12644206653611201 0 0.21720615046484709 0.1044394548351292 0 0.90082758526900886 0.098076845682916511 0 0.86148619541339633 0.089689702191568438 0 0.86589314360155567 0.054872692726639853 0 0.098076845682915317 0.099172414730993488 0 0.089689702191541126 0.13851380458662241 0 0.054872692726595548 0.13410685639845171 0 0.84598529912884157 0.63969251517827153 0 0.89064679688610338 0.6216080907827598 0 0.88396545633132484 0.6625197322180193 0 0.63969251517826664 0.15401470087115929 0 0.62160809078275991 0.1093532031139005 0 0.66251865414987876 0.1160340021949529 0 0.36030748482174152 0.84598529912882459 0 0.37839190921727062 0.89064679688614412 0 0.33748026778199908 0.88396545633134682 0 0.15401470087117619 0.36030748482174652 0 0.10935320311385981 0.37839190921727089 0 0.11603400219493119 0.33748134585014028 0 0.82118136511706341 0.082875076569723011 0 0.8517485358380722 0.12294765968568611 0 0.8110316677333288 0.125875177082863 0 0.08287507656968085 0.1788186348829835 0 0.12294765968567151 0.14825146416195439 0 0.12587517708284679 0.1889683322666954 0 0.75000000000034661 1 0 0.7000000000006934 1 0 0.71789175274016548 0.95136708251202151 0 0 0.75000000000034661 0 0 0.7000000000006934 0 0.04863291748797445 0.71789175274016204 0 1 0.24999999999941211 0 1 0.29999999999926641 0 0.94915666091748963 0.28320804985299752 0 0.24999999999941211 0 0 0.29999999999926641 0 0 0.28320804985300141 0.050843339082505573 0 0.55000000000173355 1 0 0.51507566941747085 0.9626786017237855 0 0.55307204985744796 0.94819812235491685 0 0 0.55000000000173355 0 0.037321398276215258 0.51507566941747263 0 0.051801877645083663 0.55307204985745195 0 1 0.44999999999882923 0 0.96266688603193029 0.48495124540067203 0 0.94812782820415209 0.44708943904932719 0 0.44999999999882923 0 0 0.48492433058289169 0.037321398276272413 0 0.44692795014265252 0.051801877645060238 0 0.49854341599767982 0.37075914768127122 0 0.51491507395299929 0.3326740076510219 0 0.54715635490880632 0.37829016026862072 0 0.91838802593884228 0.81827409710237209 0 0.88962265630811221 0.85311725681459705 0 0.87660297360393757 0.8104127896505644 0 0.1817259028976386 0.91838802593888857 0 0.14688274318541941 0.88962265630811932 0 0.18958721034944021 0.87660297360394568 0 0.50333998054938722 0.50119715791968966 0 0.554170140907293 0.50922353359177785 0 0.53087311892591971 0.55299263141448529 0 0.91890123454466932 0.39094742729597309 0 0.95886012268748921 0.4068558182724159 0 0.90991454156957952 0.4312731559748802 0 0.94812782820415209 0.44708943904932719 0 0.90991454156957952 0.4312731559748802 0 0.95886012268748921 0.4068558182724159 0 0.84999999999965292 1 0 0.82675923981951416 0.95611053755456221 0 0.86696410734367158 0.94753096683315619 0 0 0.84999999999965292 0 0.043889462445437968 0.82675923981951283 0 0.052469033166843738 0.86696410734366991 0 0.1817259028976386 0.91838802593888857 0 0.18045991219397989 0.960710939969875 0 0.13834721989462789 0.94095916274077984 0 0.91838802593884228 0.81827409710237209 0 0.96071093996985157 0.81954008780615684 0 0.94095916274074942 0.86165278010542579 0 0.08287507656968085 0.1788186348829835 0 0.038839999600931263 0.17949825993190149 0 0.054872692726595548 0.13410685639845171 0 0.82118136511706341 0.082875076569723011 0 0.82050174006822896 0.038839999600956771 0 0.86589314360155567 0.054872692726639853 0 0.15000000000062411 1 0 0.13834721989462789 0.94095916274077984 0 0.18045991219397989 0.960710939969875 0 1 0.84999999999960507 0 0.94095916274074942 0.86165278010542579 0 0.96071093996985157 0.81954008780615684 0 0 0.15000000000062411 0 0.054872692726595548 0.13410685639845171 0 0.038839999600931263 0.17949825993190149 0 0.84999999999960507 0 0 0.86589314360155567 0.054872692726639853 0 0.82050174006822896 0.038839999600956771 0 1 0.14999999999970359 0 0.96080966346491015 0.18035159017841959 0 0.94100406608115506 0.1383574446607955 0 0.14999999999970359 0 0 0.18035159017842109 0.039190336535090492 0 0.1383574446607988 0.058995933918849157 0 0.91838802593870927 0.18172590289757809 0 0.94100406608115506 0.1383574446607955 0 0.96080966346491015 0.18035159017841959 0 0.18172590289758209 0.08161197406129285 0 0.1383574446607988 0.058995933918849157 0 0.18035159017842109 0.039190336535090492 0 0.40653508887824003 0.61580573377480397 0 0.45030222762303879 0.58443295115431027 0 0.45517457031814612 0.62743100079604397 0 0.50333998054938722 0.50119715791968966 0 0.53087311892591971 0.55299263141448529 0 0.47974773860103892 0.54872726831320284 0 0.33382663527330159 0.44130125047503482 0 0.30597655500381687 0.3934681685211931 0 0.35481422397128459 0.40312981465069342 0 0.34804757266227387 0.35750068079406011 0 0.35481422397128459 0.40312981465069342 0 0.30597655500381687 0.3934681685211931 0 0.39419886675318527 0.41912225240070788 0 0.39222057657781068 0.38067796690227418 0 0.42930823106401639 0.40626685012722968 0 0.5586987495249669 0.33382663527330653 0 0.54715635490880632 0.37829016026862072 0 0.51491507395299929 0.3326740076510219 0 0.84598529912884157 0.63969251517827153 0 0.88396545633132484 0.6625197322180193 0 0.85607519768343354 0.69380468830529196 0 0.63969251517826664 0.15401470087115929 0 0.66251865414987876 0.1160340021949529 0 0.69379929796456197 0.14392209494791061 0 0.36030748482174152 0.84598529912882459 0 0.33748026778199908 0.88396545633134682 0 0.30619531169472608 0.85607519768342955 0 0.15401470087117619 0.36030748482174652 0 0.11603400219493119 0.33748134585014028 0 0.14392209494791439 0.30620070203545702 0 0.41009598069569558 0.49083935749285379 0 0.39982789553993509 0.53462762214740622 0 0.35815651743779398 0.51113440447909086 0 0.43087117257049001 0.8215422551712771 0 0.38703015239361932 0.80283068154761972 0 0.43306783640023289 0.78031198216144404 0 0.8215422551712277 0.56912882742954496 0 0.8028306815476034 0.61296984760642026 0 0.78031198216143516 0.56693216359979737 0 0.17845774482872559 0.43087117257049429 0 0.197169318452384 0.38703015239362498 0 0.21968801783855879 0.43306783640023788 0 0.56912882742954041 0.17845774482877461 0 0.61296984760641449 0.19716931845240021 0 0.56683314878414581 0.21944955250104689 0 0.86696410734367158 0.94753096683315619 0 0.82675923981951416 0.95611053755456221 0 0.85382799508926477 0.91295829388058414 0 0.052469033166843738 0.86696410734366991 0 0.043889462445437968 0.82675923981951283 0 0.087041706119416085 0.85382799508926188 0 0.81709574086843206 0.91318696080656769 0 0.85382799508926477 0.91295829388058414 0 0.82675923981951416 0.95611053755456221 0 0.086813039193431391 0.81709574086842884 0 0.087041706119416085 0.85382799508926188 0 0.043889462445437968 0.82675923981951283 0 0.77998481823117694 0.71397317153691997 0 0.8312019486901514 0.72745002167959472 0 0.78651189793386345 0.75664155808652755 0 0.28602682846308641 0.77998481823117594 0 0.27254997832041528 0.8312019486901443 0 0.24335844191347281 0.78651189793387466 0 0.71397317153692708 0.22001518176882201 0 0.72767516840721058 0.16853767177393791 0 0.7582555232258138 0.2115548431873896 0 0.22001518176882229 0.28602682846307981 0 0.1685376717739448 0.27232483159280108 0 0.2115548431873881 0.2417444767741872 0 0.54901591374940373 0.42306523525165751 0 0.50753758205811061 0.4506562873613274 0 0.5047849391802508 0.40719950955717021 0 0.54901591374940373 0.42306523525165751 0 0.59313386551587477 0.43977047843653239 0 0.54783891860069212 0.46640164214823893 0 0.81709574086843206 0.91318696080656769 0 0.81306033001437827 0.8677384967307622 0 0.85174853583809862 0.87705234031428159 0 0.086813039193431391 0.81709574086842884 0 0.1322615032692282 0.8130603300143705 0 0.1229476596857173 0.85174853583809695 0 0.839908789927305 0.77106070975262608 0 0.79422489417873421 0.79640925234634441 0 0.78651189793386345 0.75664155808652755 0 0.22893929024737289 0.83990878992727813 0 0.20359074765364421 0.79422489417871855 0 0.24335844191347281 0.78651189793387466 0 0.77216325087772952 0.15899695163319821 0 0.80027482104603809 0.20596721135052129 0 0.7582555232258138 0.2115548431873896 0 0.15899695163321451 0.22783674912227669 0 0.20596721135052939 0.19972517895396219 0 0.2115548431873881 0.2417444767741872 0 0.70087539567735502 0.57165914616526226 0 0.65501639383771026 0.594528181397324 0 0.66548584431530877 0.55616712808283064 0 0.69288637798153729 0.61204665218001397 0 0.65501639383771026 0.594528181397324 0 0.70087539567735502 0.57165914616526226 0 0.57188338999077359 0.29874123486230147 0 0.59596170682035776 0.34609402305862419 0 0.5586987495249669 0.33382663527330653 0 0.61204665218000809 0.30711362201846659 0 0.59596170682035776 0.34609402305862419 0 0.57188338999077359 0.29874123486230147 0 0.55307204985744796 0.94819812235491685 0 0.56877264426066887 0.91182300080710277 0 0.5931441817276254 0.95886012268751675 0 0.60938371359314658 0.91847489683800321 0 0.5931441817276254 0.95886012268751675 0 0.56877264426066887 0.91182300080710277 0 0.051801877645083663 0.55307204985745195 0 0.088176999192898689 0.56877264426067353 0 0.041139877312483641 0.59314418172763017 0 0.081525103161997597 0.6093837135931508 0 0.041139877312483641 0.59314418172763017 0 0.088176999192898689 0.56877264426067353 0 0.44692795014265252 0.051801877645060238 0 0.43122735573933979 0.088176999192917438 0 0.40685581827241191 0.041139877312511682 0 0.39061628640684498 0.081525103161991672 0 0.40685581827241191 0.041139877312511682 0 0.43122735573933979 0.088176999192917438 0 0.56566515596461675 0.63670464971409091 0 0.54058719659441246 0.66889411379075558 0 0.51172471858873747 0.64015771271794875 0 0.35984320557492089 0.56698606271778873 0 0.331306197573488 0.54052564146842386 0 0.35815651743779398 0.51113440447909086 0 0.51484304721220842 0.69707233951836334 0 0.51172471858873747 0.64015771271794875 0 0.54058719659441246 0.66889411379075558 0 0.30292766048163949 0.51484304721221474 0 0.35815651743779398 0.51113440447909086 0 0.331306197573488 0.54052564146842386 0 0.90045039720880915 0.9020090423547924 0 0.86696410734367158 0.94753096683315619 0 0.85382799508926477 0.91295829388058414 0 0.097990957645208238 0.90045039720880915 0 0.052469033166843738 0.86696410734366991 0 0.087041706119416085 0.85382799508926188 0 0.82118136511706341 0.082875076569723011 0 0.86589314360155567 0.054872692726639853 0 0.86148619541339633 0.089689702191568438 0 0.08287507656968085 0.1788186348829835 0 0.054872692726595548 0.13410685639845171 0 0.089689702191541126 0.13851380458662241 0 0.67757268808231397 0.93106206656183088 0 0.70475631558365914 0.90098127745102974 0 0.71789175274016548 0.95136708251202151 0 0.068937933438162791 0.67757268808231053 0 0.099018722548963364 0.70475631558365193 0 0.04863291748797445 0.71789175274016204 0 0.93106206656185309 0.32242731191769503 0 0.89886191075654698 0.29506339503703172 0 0.94915666091748963 0.28320804985299752 0 0.32242731191769902 0.068937933438140794 0 0.29506339503703888 0.1011380892434444 0 0.28320804985300141 0.050843339082505573 0 0.59819537371016407 0.74380966024143391 0 0.57578062281532438 0.77751665353176347 0 0.54465502325161819 0.74717983044080061 0 0.25619033975856881 0.59819537371016862 0 0.2224870800581388 0.57577541371134155 0 0.25287139441262568 0.54458355434492378 0 0.74380966024142703 0.40180462628984132 0 0.77752557158083724 0.42422273168818408 0 0.74730218607442667 0.45539100053644521 0 0.40180462628983732 0.2561903397585753 0 0.42421838472613971 0.22246502005787769 0 0.45533136021725079 0.2525687312087147 0 0.56566515596461675 0.63670464971409091 0 0.53542397956703913 0.60119875982347493 0 0.57484409313590223 0.58437321637184114 0 0.59819537371016407 0.74380966024143391 0 0.57051182622447827 0.69668652018496713 0 0.6083790122881827 0.70496300707145865 0 0.25619033975856881 0.59819537371016862 0 0.30429740679959738 0.56913905146460098 0 0.29503699292854352 0.60837901228818936 0 0.74380966024142703 0.40180462628984132 0 0.69595787604187809 0.43071000156707989 0 0.70496300707145554 0.39162098771181952 0 0.40180462628983732 0.2561903397585753 0 0.43059486795334201 0.30395973419063538 0 0.39162098771181342 0.29503699292854563 0 0.50000000000002642 0.7803135888501761 0 0.54465502325161819 0.74717983044080061 0 0.53770425635794761 0.80104587463999666 0 0.2196864111498267 0.50000000000003153 0 0.25287139441262568 0.54458355434492378 0 0.1989632851005598 0.53769147668950479 0 0.78031358885017377 0.49999999999997569 0 0.74730218607442667 0.45539100053644521 0 0.80106707846564795 0.46230714888029367 0 0.49999999999997108 0.21968641114982909 0 0.45533136021725079 0.2525687312087147 0 0.46229330881044273 0.19890916456654811 0 0.51484304721220842 0.69707233951836334 0 0.54058719659441246 0.66889411379075558 0 0.57051182622447827 0.69668652018496713 0 0.30292766048163949 0.51484304721221474 0 0.331306197573488 0.54052564146842386 0 0.30429740679959738 0.56913905146460098 0 0.56566515596461675 0.63670464971409091 0 0.57051182622447827 0.69668652018496713 0 0.54058719659441246 0.66889411379075558 0 0.35984320557492089 0.56698606271778873 0 0.30429740679959738 0.56913905146460098 0 0.331306197573488 0.54052564146842386 0 0.60938371359314658 0.91847489683800321 0 0.58267137064684116 0.87013301365640838 0 0.62483828039315681 0.8780818733396436 0 0.081525103161997597 0.6093837135931508 0 0.12986698634359389 0.58267137064684615 0 0.1219181266603569 0.62483828039315903 0 0.91890123454466932 0.39094742729597309 0 0.87012666750595846 0.41743873185103042 0 0.87815187193233801 0.37523526017134418 0 0.39061628640684498 0.081525103161991672 0 0.41732862935313042 0.12986698634362279 0 0.37516171960683908 0.121918126660369 0 0.5133022293955174 0.064893331803591428 0 0.52499999999875446 0.029444907164469181 0 0.55993888817186677 0.043612803661174412 0 0.064893331803534807 0.48669777060454478 0 0.029444907164209121 0.47500000000196552 0 0.043612803661092707 0.44006111182840391 0 0.93510666819640953 0.51330222939551939 0 0.97055509283553232 0.52499999999875435 0 0.95638719633882641 0.5599388881718611 0 0.48669777060454272 0.93510666819646593 0 0.47500000000196563 0.970555092835793 0 0.44006111182840962 0.9563871963389079 0 0.56759263990989184 0.81794319034601648 0 0.54047998161173716 0.84333512669480526 0 0.53770425635794761 0.80104587463999666 0 0.18205680965398621 0.56759263990989739 0 0.1566648733051971 0.54047998161174216 0 0.1989632851005598 0.53769147668950479 0 0.81794319034597418 0.43240736009009317 0 0.84333218736938698 0.4595365182652234 0 0.80106707846564795 0.46230714888029367 0 0.43240736009008851 0.18205680965402779 0 0.45952001838826873 0.15666487330524251 0 0.46229330881044273 0.19890916456654811 0 0.50333998054938722 0.50119715791968966 0 0.47974773860103892 0.54872726831320284 0 0.45293656999117771 0.51494832297079129 0 0.73982803480991577 0.79629608696991705 0 0.69892030930712212 0.7971997999085858 0 0.71159714897733284 0.75039044679290845 0 0.20370391303007401 0.73982803480989479 0 0.2028002000914135 0.69892030930711557 0 0.249609553207091 0.71159714897732929 0 0.79629608696994103 0.26017196519011448 0 0.7971997999085878 0.3010796906928917 0 0.75039044679291111 0.28840285102267788 0 0.26017196519013502 0.20370391303005 0 0.30107969069289831 0.20280020009141189 0 0.28840285102268098 0.24960955320708811 0 0.43087117257049001 0.8215422551712771 0 0.40481452396081791 0.85130421228141606 0 0.38703015239361932 0.80283068154761972 0 0.36030748482174152 0.84598529912882459 0 0.38703015239361932 0.80283068154761972 0 0.40481452396081791 0.85130421228141606 0 0.17845774482872559 0.43087117257049429 0 0.14869578771858949 0.40481452396082068 0 0.197169318452384 0.38703015239362498 0 0.8215422551712277 0.56912882742954496 0 0.85130417396420255 0.59518556406638579 0 0.8028306815476034 0.61296984760642026 0 0.84598529912884157 0.63969251517827153 0 0.8028306815476034 0.61296984760642026 0 0.85130417396420255 0.59518556406638579 0 0.15401470087117619 0.36030748482174652 0 0.197169318452384 0.38703015239362498 0 0.14869578771858949 0.40481452396082068 0 0.56912882742954041 0.17845774482877461 0 0.59518547603920147 0.14869578771864489 0 0.61296984760641449 0.19716931845240021 0 0.63969251517826664 0.15401470087115929 0 0.61296984760641449 0.19716931845240021 0 0.59518547603920147 0.14869578771864489 0 0.6519524273377173 0.64249931920594539 0 0.65501639383771026 0.594528181397324 0 0.69288637798153729 0.61204665218001397 0 0.6424993192059415 0.3480475726622802 0 0.59596170682035776 0.34609402305862419 0 0.61204665218000809 0.30711362201846659 0 0.35944937237716967 0.65164789808436319 0 0.40564717507982689 0.65626423320524974 0 0.38642358467307758 0.69286258923597266 0 0.90045039720880915 0.9020090423547924 0 0.85174853583809862 0.87705234031428159 0 0.88962265630811221 0.85311725681459705 0 0.097990957645208238 0.90045039720880915 0 0.1229476596857173 0.85174853583809695 0 0.14688274318541941 0.88962265630811932 0 0.90082758526900886 0.098076845682916511 0 0.88777909259956078 0.1484760565886154 0 0.8517485358380722 0.12294765968568611 0 0.098076845682915317 0.099172414730993488 0 0.1484760565886207 0.1122209074004519 0 0.12294765968567151 0.14825146416195439 0 0.35815651743779398 0.51113440447909086 0 0.33436424489304489 0.47849603121740791 0 0.37702386074717259 0.45819417564476811 0 0.92670321183853355 0.65773042910151081 0 0.94635952848698612 0.71209247961721311 0 0.90051880305432697 0.69261863673346957 0 0.65773042910151891 0.073296788161472337 0 0.71174922810186925 0.053730171687687178 0 0.69253601466723103 0.09949211948105087 0 0.3422695708985129 0.92670321183858773 0 0.28790752038294382 0.94635952848702642 0 0.30738136326657722 0.90051880305435028 0 0.073296788161418117 0.34226957089850552 0 0.053730171687646627 0.28825077189828552 0 0.099492119481027347 0.30746398533281638 0 0.43565339604028508 0.55159384357101338 0 0.45293656999117771 0.51494832297079129 0 0.47974773860103892 0.54872726831320284 0 0.33382663527330159 0.44130125047503482 0 0.2963043386970643 0.4298320229681446 0 0.30597655500381687 0.3934681685211931 0 1 0.69999999999921003 0 0.94635952848698612 0.71209247961721311 0 0.96779701826738695 0.67105375815842694 0 0.69999999999921003 0 0 0.71174922810186925 0.053730171687687178 0 0.67098510785536181 0.032220921767549461 0 0.30000000000124832 1 0 0.28790752038294382 0.94635952848702642 0 0.32894624184180998 0.96779701826738929 0 0 0.30000000000124832 0 0.053730171687646627 0.28825077189828552 0 0.032220921767546963 0.32901489214487523 0 0.56759263990989184 0.81794319034601648 0 0.57578062281532438 0.77751665353176347 0 0.61896574319320252 0.795216048370321 0 0.59819537371016407 0.74380966024143391 0 0.61896574319320252 0.795216048370321 0 0.57578062281532438 0.77751665353176347 0 0.25619033975856881 0.59819537371016862 0 0.2047839516296828 0.61896574319320252 0 0.2224870800581388 0.57577541371134155 0 0.18205680965398621 0.56759263990989739 0 0.2224870800581388 0.57577541371134155 0 0.2047839516296828 0.61896574319320252 0 0.74380966024142703 0.40180462628984132 0 0.79521604837030013 0.38103425680679831 0 0.77752557158083724 0.42422273168818408 0 0.81794319034597418 0.43240736009009317 0 0.77752557158083724 0.42422273168818408 0 0.79521604837030013 0.38103425680679831 0 0.40180462628983732 0.2561903397585753 0 0.38103425680679859 0.2047839516297037 0 0.42421838472613971 0.22246502005787769 0 0.43240736009008851 0.18205680965402779 0 0.42421838472613971 0.22246502005787769 0 0.38103425680679859 0.2047839516297037 0 0.63969251517836323 0.84598529912890386 0 0.6027107599280892 0.83436006790502326 0 0.61896574319320252 0.795216048370321 0 0.1540147008710982 0.63969251517836956 0 0.1656399320949789 0.60271075992809464 0 0.2047839516296828 0.61896574319320252 0 0.84598529912889664 0.36030748482164038 0 0.83436006790498052 0.39728924007189959 0 0.79521604837030013 0.38103425680679831 0 0.3603074848216346 0.15401470087110539 0 0.3972892400718947 0.16563993209502181 0 0.38103425680679859 0.2047839516297037 0 0.53432142347292233 0.88563193847251998 0 0.58267137064684116 0.87013301365640838 0 0.56877264426066887 0.91182300080710277 0 0.1143680615274819 0.53432142347292733 0 0.12986698634359389 0.58267137064684615 0 0.088176999192898689 0.56877264426067353 0 0.91890123454466932 0.39094742729597309 0 0.90991454156957952 0.4312731559748802 0 0.87012666750595846 0.41743873185103042 0 0.46567857652706018 0.1143680615275231 0 0.41732862935313042 0.12986698634362279 0 0.43122735573933979 0.088176999192917438 0 0.60938371359314658 0.91847489683800321 0 0.56877264426066887 0.91182300080710277 0 0.58267137064684116 0.87013301365640838 0 0.081525103161997597 0.6093837135931508 0 0.088176999192898689 0.56877264426067353 0 0.12986698634359389 0.58267137064684615 0 0.88561059063756964 0.46572761956237563 0 0.87012666750595846 0.41743873185103042 0 0.90991454156957952 0.4312731559748802 0 0.39061628640684498 0.081525103161991672 0 0.43122735573933979 0.088176999192917438 0 0.41732862935313042 0.12986698634362279 0 0.56759263990989184 0.81794319034601648 0 0.6027107599280892 0.83436006790502326 0 0.58267137064684116 0.87013301365640838 0 0.18205680965398621 0.56759263990989739 0 0.1656399320949789 0.60271075992809464 0 0.12986698634359389 0.58267137064684615 0 0.81794319034597418 0.43240736009009317 0 0.83436006790498052 0.39728924007189959 0 0.87012666750595846 0.41743873185103042 0 0.43240736009008851 0.18205680965402779 0 0.3972892400718947 0.16563993209502181 0 0.41732862935313042 0.12986698634362279 0 0.77998481823117694 0.71397317153691997 0 0.78651189793386345 0.75664155808652755 0 0.74917861927654894 0.74229989257760443 0 0.28602682846308641 0.77998481823117594 0 0.24335844191347281 0.78651189793387466 0 0.25770010742238642 0.74917861927655205 0 0.71397317153692708 0.22001518176882201 0 0.7582555232258138 0.2115548431873896 0 0.74229989257762263 0.250821380723454 0 0.22001518176882229 0.28602682846307981 0 0.2115548431873881 0.2417444767741872 0 0.25082138072344978 0.25770010742236849 0 0.8215422551712277 0.56912882742954496 0 0.78031198216143516 0.56693216359979737 0 0.80781854240107975 0.53406203754901738 0 0.43087117257049001 0.8215422551712771 0 0.43306783640023289 0.78031198216144404 0 0.46593838964869061 0.80781872835503554 0 0.56912882742954041 0.17845774482877461 0 0.56683314878414581 0.21944955250104689 0 0.53404982287327418 0.19215288291432539 0 0.17845774482872559 0.43087117257049429 0 0.21968801783855879 0.43306783640023788 0 0.19218127164496679 0.46593838964869538 0 0.92670321183853355 0.65773042910151081 0 0.96779701826738695 0.67105375815842694 0 0.94635952848698612 0.71209247961721311 0 0.65773042910151891 0.073296788161472337 0 0.67098510785536181 0.032220921767549461 0 0.71174922810186925 0.053730171687687178 0 0.3422695708985129 0.92670321183858773 0 0.32894624184180998 0.96779701826738929 0 0.28790752038294382 0.94635952848702642 0 0.073296788161418117 0.34226957089850552 0 0.032220921767546963 0.32901489214487523 0 0.053730171687646627 0.28825077189828552 0 0.51484304721220842 0.69707233951836334 0 0.46736891737654429 0.70015537930374983 0 0.47818752133962877 0.66454462905280853 0 0.30292766048163949 0.51484304721221474 0 0.29988655052531688 0.46700727827593119 0 0.33436424489304489 0.47849603121740791 0 0.53432142347292233 0.88563193847251998 0 0.52425337578225772 0.9223731761594427 0 0.48758069708049379 0.89080072540186539 0 0.1143680615274819 0.53432142347292733 0 0.07762682384055844 0.52425337578226128 0 0.1091992745981364 0.48758069708049778 0 0.88561059063756964 0.46572761956237563 0 0.92203742772043751 0.47579485578641628 0 0.89079805168298443 0.51242544533572376 0 0.46567857652706018 0.1143680615275231 0 0.47574662421782782 0.077626823840590969 0 0.51241930291950477 0.1091992745981813 0 0.49189101320880302 0.59024331187324797 0 0.47974773860103892 0.54872726831320284 0 0.53087311892591971 0.55299263141448529 0 0.81709574086843206 0.91318696080656769 0 0.78020430794084783 0.88768307197553598 0 0.81306033001437827 0.8677384967307622 0 0.086813039193431391 0.81709574086842884 0 0.11231692802445629 0.78020430794084028 0 0.1322615032692282 0.8130603300143705 0 0.90045039720880915 0.9020090423547924 0 0.85382799508926477 0.91295829388058414 0 0.85174853583809862 0.87705234031428159 0 0.097990957645208238 0.90045039720880915 0 0.087041706119416085 0.85382799508926188 0 0.1229476596857173 0.85174853583809695 0 0.82118136511706341 0.082875076569723011 0 0.86148619541339633 0.089689702191568438 0 0.8517485358380722 0.12294765968568611 0 0.08287507656968085 0.1788186348829835 0 0.089689702191541126 0.13851380458662241 0 0.12294765968567151 0.14825146416195439 0 0.56759263990989184 0.81794319034601648 0 0.61896574319320252 0.795216048370321 0 0.6027107599280892 0.83436006790502326 0 0.18205680965398621 0.56759263990989739 0 0.2047839516296828 0.61896574319320252 0 0.1656399320949789 0.60271075992809464 0 0.81794319034597418 0.43240736009009317 0 0.79521604837030013 0.38103425680679831 0 0.83436006790498052 0.39728924007189959 0 0.43240736009008851 0.18205680965402779 0 0.38103425680679859 0.2047839516297037 0 0.3972892400718947 0.16563993209502181 0 0.91838802593870927 0.18172590289757809 0 0.87355793346388477 0.18922011052113649 0 0.88777909259956078 0.1484760565886154 0 0.18172590289758209 0.08161197406129285 0 0.18922011052115781 0.12644206653611201 0 0.1484760565886207 0.1122209074004519 0 0.50333998054938722 0.50119715791968966 0 0.46152714345798918 0.47344359412352599 0 0.50753758205811061 0.4506562873613274 0 0.46102425708533701 0.43254199134332588 0 0.50753758205811061 0.4506562873613274 0 0.46152714345798918 0.47344359412352599 0 0.70252050881959183 0.70358884261915833 0 0.67626275269587088 0.72713741921009012 0 0.6768914574865772 0.67861120078714243 0 0.29641115738084339 0.70252050881958938 0 0.27349656744860212 0.67581741996408695 0 0.32259853082073792 0.67670072609835186 0 0.70358884261915744 0.29747949118041561 0 0.72713741921008324 0.32373724730413678 0 0.6786112007871401 0.32310854251343019 0 0.29747949118041711 0.2964111573808435 0 0.32373692627050221 0.27286413781593999 0 0.3231032570156932 0.32141443408924047 0 0.43301393728221038 0.35984320557492139 0 0.39222057657781068 0.38067796690227418 0 0.39120887188745579 0.33407577688404289 0 0.48669777060454272 0.93510666819646593 0 0.48758069708049379 0.89080072540186539 0 0.52425337578225772 0.9223731761594427 0 0.064893331803534807 0.48669777060454478 0 0.1091992745981364 0.48758069708049778 0 0.07762682384055844 0.52425337578226128 0 0.93510666819640953 0.51330222939551939 0 0.89079805168298443 0.51242544533572376 0 0.92203742772043751 0.47579485578641628 0 0.5133022293955174 0.064893331803591428 0 0.51241930291950477 0.1091992745981813 0 0.47574662421782782 0.077626823840590969 0 0.4434591735942961 0.66641640622551224 0 0.42715538333808079 0.70077759375307946 0 0.40564717507982689 0.65626423320524974 0 0.38642358467307758 0.69286258923597266 0 0.40564717507982689 0.65626423320524974 0 0.42715538333808079 0.70077759375307946 0 0.57387636360620708 0.54318431390135336 0 0.554170140907293 0.50922353359177785 0 0.59621567360238914 0.5184866806641607 0 0.84999999999965292 1 0 0.79999999999999982 1 0 0.82675923981951416 0.95611053755456221 0 0 0.84999999999965292 0 0 0.79999999999999982 0 0.043889462445437968 0.82675923981951283 0 1 0.14999999999970359 0 1 0.19999999999955789 0 0.96080966346491015 0.18035159017841959 0 0.14999999999970359 0 0 0.19999999999955789 0 0 0.18035159017842109 0.039190336535090492 0 1 0.79999999999947335 0 1 0.84999999999960507 0 0.96071093996985157 0.81954008780615684 0 0.79999999999947335 0 0 0.84999999999960507 0 0 0.82050174006822896 0.038839999600956771 0 0.20000000000083221 1 0 0.15000000000062411 1 0 0.18045991219397989 0.960710939969875 0 0 0.20000000000083221 0 0 0.15000000000062411 0 0.038839999600931263 0.17949825993190149 0 0.64518564541690571 0.69601563325001548 0 0.6768914574865772 0.67861120078714243 0 0.67626275269587088 0.72713741921009012 0 0.30421635384321521 0.64514939193436716 0 0.32259853082073792 0.67670072609835186 0 0.27349656744860212 0.67581741996408695 0 0.69601563325001248 0.35481435458309712 0 0.6786112007871401 0.32310854251343019 0 0.72713741921008324 0.32373724730413678 0 0.35481435458309307 0.30398436674998969 0 0.3231032570156932 0.32141443408924047 0 0.32373692627050221 0.27286413781593999 0 0.49771727055908782 0.83998685797641781 0 0.48758069708049379 0.89080072540186539 0 0.45353891581270822 0.85551523377818905 0 0.16001314202358469 0.49771727055909287 0 0.1091992745981364 0.48758069708049778 0 0.1444847662218138 0.45353891581271188 0 0.83998574657308889 0.50228528270184081 0 0.89079805168298443 0.51242544533572376 0 0.85551478316835361 0.54646211938695222 0 0.50228272944093777 0.16001314202359701 0 0.51241930291950477 0.1091992745981813 0 0.54646108418729233 0.1444847662218687 0 0.70252050881959183 0.70358884261915833 0 0.6768914574865772 0.67861120078714243 0 0.71518943060973483 0.65679402931717101 0 0.29641115738084339 0.70252050881958938 0 0.32259853082073792 0.67670072609835186 0 0.34270280102445921 0.71672416762035873 0 0.70358884261915744 0.29747949118041561 0 0.6786112007871401 0.32310854251343019 0 0.65679402931716913 0.28481056939027388 0 0.29747949118041711 0.2964111573808435 0 0.3231032570156932 0.32141443408924047 0 0.28473805236128291 0.34355768118673757 0 0.92670321183853355 0.65773042910151081 0 0.96654491682122368 0.6363613838740827 0 0.96779701826738695 0.67105375815842694 0 0.65773042910151891 0.073296788161472337 0 0.63635157668793507 0.033457646040912177 0 0.67098510785536181 0.032220921767549461 0 0.073296788161418117 0.34226957089850552 0 0.033457646040922301 0.36364842331228431 0 0.032220921767546963 0.32901489214487523 0 0.3422695708985129 0.92670321183858773 0 0.36363861612613613 0.96654491682121313 0 0.32894624184180998 0.96779701826738929 0 1 0.64999999999907843 0 1 0.69999999999921003 0 0.96779701826738695 0.67105375815842694 0 0.64999999999907843 0 0 0.69999999999921003 0 0 0.67098510785536181 0.032220921767549461 0 0.35000000000145642 1 0 0.30000000000124832 1 0 0.32894624184180998 0.96779701826738929 0 0 0.35000000000145642 0 0 0.30000000000124832 0 0.032220921767546963 0.32901489214487523 0 0 0.40000000000166441 0 0 0.35000000000145642 0 0.033457646040922301 0.36364842331228431 0 0.40000000000166441 1 0 0.35000000000145642 1 0 0.36363861612613613 0.96654491682121313 0 0.59999999999894682 0 0 0.64999999999907843 0 0 0.63635157668793507 0.033457646040912177 0 1 0.59999999999894682 0 1 0.64999999999907843 0 0.96654491682122368 0.6363613838740827 0 0.81709574086843206 0.91318696080656769 0 0.85174853583809862 0.87705234031428159 0 0.85382799508926477 0.91295829388058414 0 0.086813039193431391 0.81709574086842884 0 0.1229476596857173 0.85174853583809695 0 0.087041706119416085 0.85382799508926188 0 0.90082758526900886 0.098076845682916511 0 0.8517485358380722 0.12294765968568611 0 0.86148619541339633 0.089689702191568438 0 0.098076845682915317 0.099172414730993488 0 0.12294765968567151 0.14825146416195439 0 0.089689702191541126 0.13851380458662241 0 0.59819537371016407 0.74380966024143391 0 0.6083790122881827 0.70496300707145865 0 0.64203711532612107 0.74316477213290444 0 0.64518564541690571 0.69601563325001548 0 0.64203711532612107 0.74316477213290444 0 0.6083790122881827 0.70496300707145865 0 0.25619033975856881 0.59819537371016862 0 0.29503699292854352 0.60837901228818936 0 0.25684529255773247 0.64203554247963057 0 0.30421635384321521 0.64514939193436716 0 0.25684529255773247 0.64203554247963057 0 0.29503699292854352 0.60837901228818936 0 0.74380966024142703 0.40180462628984132 0 0.70496300707145554 0.39162098771181952 0 0.74316477213289889 0.35796288467388632 0 0.69601563325001248 0.35481435458309712 0 0.74316477213289889 0.35796288467388632 0 0.70496300707145554 0.39162098771181952 0 0.40180462628983732 0.2561903397585753 0 0.39162098771181342 0.29503699292854563 0 0.3579628846738841 0.25683522786710378 0 0.35481435458309307 0.30398436674998969 0 0.3579628846738841 0.25683522786710378 0 0.39162098771181342 0.29503699292854563 0 0.8289812646369813 0.82898126463698818 0 0.85174853583809862 0.87705234031428159 0 0.81306033001437827 0.8677384967307622 0 0.17101873536300011 0.82898126463696109 0 0.1229476596857173 0.85174853583809695 0 0.1322615032692282 0.8130603300143705 0 0.8215422551712277 0.56912882742954496 0 0.85551478316835361 0.54646211938695222 0 0.85130417396420255 0.59518556406638579 0 0.43087117257049001 0.8215422551712771 0 0.45353891581270822 0.85551523377818905 0 0.40481452396081791 0.85130421228141606 0 0.56912882742954041 0.17845774482877461 0 0.54646108418729233 0.1444847662218687 0 0.59518547603920147 0.14869578771864489 0 0.17845774482872559 0.43087117257049429 0 0.1444847662218138 0.45353891581271188 0 0.14869578771858949 0.40481452396082068 0 0.49854341599767982 0.37075914768127122 0 0.46543211128216788 0.38788423543681888 0 0.47253211736503098 0.34081710830804929 0 0.43301393728221038 0.35984320557492139 0 0.47253211736503098 0.34081710830804929 0 0.46543211128216788 0.38788423543681888 0 0.36030748482174152 0.84598529912882459 0 0.40481452396081791 0.85130421228141606 0 0.37839190921727062 0.89064679688614412 0 0.84598529912884157 0.63969251517827153 0 0.85130417396420255 0.59518556406638579 0 0.89064679688610338 0.6216080907827598 0 0.15401470087117619 0.36030748482174652 0 0.14869578771858949 0.40481452396082068 0 0.10935320311385981 0.37839190921727089 0 0.63969251517826664 0.15401470087115929 0 0.59518547603920147 0.14869578771864489 0 0.62160809078275991 0.1093532031139005 0 0.64455163611866495 0.50369301794551069 0 0.61866949026800744 0.55492322767366287 0 0.59621567360238914 0.5184866806641607 0 0.64518564541690571 0.69601563325001548 0 0.6083790122881827 0.70496300707145865 0 0.60879112811253555 0.66592422311595834 0 0.30421635384321521 0.64514939193436716 0 0.29503699292854352 0.60837901228818936 0 0.33231497408081678 0.60779218732873663 0 0.69601563325001248 0.35481435458309712 0 0.70496300707145554 0.39162098771181952 0 0.66346942254826746 0.391530810754116 0 0.35481435458309307 0.30398436674998969 0 0.39162098771181342 0.29503699292854563 0 0.39120887188745579 0.33407577688404289 0 0.39507969989512881 0.74417394063201048 0 0.38703015239361932 0.80283068154761972 0 0.35837423432538362 0.77730446904312345 0 0.74417394063200648 0.6049203001048884 0 0.8028306815476034 0.61296984760642026 0 0.77730446904309636 0.64162576567462737 0 0.25582605936799319 0.39507969989513358 0 0.197169318452384 0.38703015239362498 0 0.22269553095687891 0.35837423432538801 0 0.60492030010488373 0.25582605936799729 0 0.61296984760641449 0.19716931845240021 0 0.64162576567462404 0.22269553095690481 0 0.46102425708533701 0.43254199134332588 0 0.46152714345798918 0.47344359412352599 0 0.42340342337193693 0.44762131874855388 0 0.5586987495249669 0.33382663527330653 0 0.52929435216580312 0.29671213472503383 0 0.57188338999077359 0.29874123486230147 0 0.58981073711177334 0.48140931020849848 0 0.554170140907293 0.50922353359177785 0 0.54783891860069212 0.46640164214823893 0 0.35944937237716967 0.65164789808436319 0 0.33231497408081678 0.60779218732873663 0 0.37104651296145419 0.60545170748311072 0 0.58981073711177334 0.48140931020849848 0 0.59621567360238914 0.5184866806641607 0 0.554170140907293 0.50922353359177785 0 0.55000000000173355 1 0 0.50000000000205869 1 0 0.51507566941747085 0.9626786017237855 0 0 0.55000000000173355 0 0 0.50000000000205869 0 0.037321398276215258 0.51507566941747263 0 1 0.44999999999882923 0 1 0.49999999999869432 0 0.96266688603193029 0.48495124540067203 0 0.44999999999882923 0 0 0.49999999999869432 0 0 0.48492433058289169 0.037321398276272413 0 0.78031198216143516 0.56693216359979737 0 0.76797069865873757 0.53315993670164308 0 0.80781854240107975 0.53406203754901738 0 0.43306783640023289 0.78031198216144404 0 0.46634612187967051 0.76767585524061377 0 0.46593838964869061 0.80781872835503554 0 0.56683314878414581 0.21944955250104689 0 0.53265327255359129 0.23135454206919101 0 0.53404982287327418 0.19215288291432539 0 0.21968801783855879 0.43306783640023788 0 0.23232476702437141 0.46634525369567709 0 0.19218127164496679 0.46593838964869538 0 0.5586987495249669 0.33382663527330653 0 0.51491507395299929 0.3326740076510219 0 0.52929435216580312 0.29671213472503383 0 0.43565339604028508 0.55159384357101338 0 0.47974773860103892 0.54872726831320284 0 0.45030222762303879 0.58443295115431027 0 0.50333998054938722 0.50119715791968966 0 0.45293656999117771 0.51494832297079129 0 0.46152714345798918 0.47344359412352599 0 0 0 0 0.032369857048753323 0.032369857048862027 0 0 0.050000000000207989 0 1 0 0 0.96763014295114425 0.032369857048773903 0 0.94999999999986839 0 0 1 0 0 1 0.049999999999899652 0 0.96763014295114425 0.032369857048773903 0 0 0 0 0.049999999999899652 0 0 0.032369857048753323 0.032369857048862027 0 1 1 0 0.94999999999979179 1 0 0.96763014295120153 0.96763014295122851 0 1 1 0 0.96763014295120153 0.96763014295122851 0 1 0.94999999999986839 0 0 1 0 0.030452409610489669 0.96954759038951022 0 0.050000000000207989 1 0 0 1 0 0 0.94999999999979179 0 0.030452409610489669 0.96954759038951022 0 0.35984320557492089 0.56698606271778873 0 0.39982789553993509 0.53462762214740622 0 0.40468198875170619 0.57637931869191572 0 0.41009598069569558 0.49083935749285379 0 0.37702386074717259 0.45819417564476811 0 0.42340342337193693 0.44762131874855388 0 0.39419886675318527 0.41912225240070788 0 0.42340342337193693 0.44762131874855388 0 0.37702386074717259 0.45819417564476811 0 0.60938371359314658 0.91847489683800321 0 0.63753756910470316 0.95578163339252209 0 0.5931441817276254 0.95886012268751675 0 0.081525103161997597 0.6093837135931508 0 0.04421836660747535 0.63753756910470205 0 0.041139877312483641 0.59314418172763017 0 0.91890123454466932 0.39094742729597309 0 0.95581270756939096 0.36248656652865863 0 0.95886012268748921 0.4068558182724159 0 0.39061628640684498 0.081525103161991672 0 0.36246243089534252 0.044218366607477223 0 0.40685581827241191 0.041139877312511682 0 0.66820316019503978 0.77769800602796979 0 0.67626275269587088 0.72713741921009012 0 0.71159714897733284 0.75039044679290845 0 0.22230199397202771 0.66820316019503168 0 0.27349656744860212 0.67581741996408695 0 0.249609553207091 0.71159714897732929 0 0.77769800602796679 0.33179683980497482 0 0.72713741921008324 0.32373724730413678 0 0.75039044679291111 0.28840285102267788 0 0.33179683980498331 0.2223019939720311 0 0.32373692627050221 0.27286413781593999 0 0.28840285102268098 0.24960955320708811 0 0.54901591374940373 0.42306523525165751 0 0.54783891860069212 0.46640164214823893 0 0.50753758205811061 0.4506562873613274 0 0.34804757266227387 0.35750068079406011 0 0.39120887188745579 0.33407577688404289 0 0.39222057657781068 0.38067796690227418 0 0.7000000000006934 1 0 0.6766004019857832 0.9676421564932749 0 0.71789175274016548 0.95136708251202151 0 0 0.7000000000006934 0 0.032357843506722522 0.67660040198578164 0 0.04863291748797445 0.71789175274016204 0 0.67757268808231397 0.93106206656183088 0 0.71789175274016548 0.95136708251202151 0 0.6766004019857832 0.9676421564932749 0 0.068937933438162791 0.67757268808231053 0 0.04863291748797445 0.71789175274016204 0 0.032357843506722522 0.67660040198578164 0 1 0.29999999999926641 0 0.96720628700974665 0.32362438565954771 0 0.94915666091748963 0.28320804985299752 0 0.29999999999926641 0 0 0.32361955853288599 0.032799927825624707 0 0.28320804985300141 0.050843339082505573 0 0.93106206656185309 0.32242731191769503 0 0.94915666091748963 0.28320804985299752 0 0.96720628700974665 0.32362438565954771 0 0.32242731191769902 0.068937933438140794 0 0.28320804985300141 0.050843339082505573 0 0.32361955853288599 0.032799927825624707 0 0.91838802593884228 0.81827409710237209 0 0.87660297360393757 0.8104127896505644 0 0.9041449437197947 0.7786886066890556 0 0.1817259028976386 0.91838802593888857 0 0.18958721034944021 0.87660297360394568 0 0.22131139331094829 0.9041449437198319 0 0.76395804595204597 0.67808171673060369 0 0.77730446904309636 0.64162576567462737 0 0.80847852346122429 0.67208120229789559 0 0.32191828326940508 0.76395804595204586 0 0.35837423432538362 0.77730446904312345 0 0.32791879770213411 0.80847852346120164 0 0.67808171673060202 0.23604195404795861 0 0.64162576567462404 0.22269553095690481 0 0.67208120229787616 0.1915214765387884 0 0.2360419540479583 0.32191828326940741 0 0.22269553095687891 0.35837423432538801 0 0.19152147653881049 0.32791879770215432 0 0.82118136511706341 0.082875076569723011 0 0.8110316677333288 0.125875177082863 0 0.77925951159456153 0.09969477121230251 0 0.08287507656968085 0.1788186348829835 0 0.12587517708284679 0.1889683322666954 0 0.099694771212264055 0.22074048840547039 0 0.43301393728221038 0.35984320557492139 0 0.46543211128216788 0.38788423543681888 0 0.42930823106401639 0.40626685012722968 0 0.43590673999053309 0.90289902042279657 0 0.45353891581270822 0.85551523377818905 0 0.48758069708049379 0.89080072540186539 0 0.097100979577207341 0.43590673999053198 0 0.1444847662218138 0.45353891581271188 0 0.1091992745981364 0.48758069708049778 0 0.90289902042272274 0.56409326000946114 0 0.85551478316835361 0.54646211938695222 0 0.89079805168298443 0.51242544533572376 0 0.56409326000946236 0.097100979577281268 0 0.54646108418729233 0.1444847662218687 0 0.51241930291950477 0.1091992745981813 0 0.51484304721220842 0.69707233951836334 0 0.49073113440598592 0.73759004618730417 0 0.46736891737654429 0.70015537930374983 0 0.44764943295894188 0.73752415265401661 0 0.46736891737654429 0.70015537930374983 0 0.49073113440598592 0.73759004618730417 0 0.30292766048163949 0.51484304721221474 0 0.262418491288269 0.49071922292154141 0 0.29988655052531688 0.46700727827593119 0 0.26247584734598628 0.44764943295894732 0 0.29988655052531688 0.46700727827593119 0 0.262418491288269 0.49071922292154141 0 0.70015119067225129 0.48481914991727459 0 0.73815142352639962 0.50697050072007344 0 0.69798396601998558 0.5289734597937793 0 0.73752415265401194 0.55235056704108476 0 0.69798396601998558 0.5289734597937793 0 0.73815142352639962 0.50697050072007344 0 0.67757268808231397 0.93106206656183088 0 0.6441774148058701 0.91458123574274031 0 0.66923299355723143 0.8804077449518628 0 0.068937933438162791 0.67757268808231053 0 0.085418764257258195 0.64417741480586865 0 0.1195922550481313 0.66923299355722787 0 0.93106206656185309 0.32242731191769503 0 0.91286712511202617 0.35637271447129198 0 0.88040774495187946 0.33076700644278889 0 0.32242731191769902 0.068937933438140794 0 0.35582258519414178 0.085418764257258431 0 0.33076700644279272 0.1195922550481146 0 0.63969251517836323 0.84598529912890386 0 0.66923299355723143 0.8804077449518628 0 0.62483828039315681 0.8780818733396436 0 0.1540147008710982 0.63969251517836956 0 0.1195922550481313 0.66923299355722787 0 0.1219181266603569 0.62483828039315903 0 0.84598529912889664 0.36030748482164038 0 0.88040774495187946 0.33076700644278889 0 0.87815187193233801 0.37523526017134418 0 0.3603074848216346 0.15401470087110539 0 0.33076700644279272 0.1195922550481146 0 0.37516171960683908 0.121918126660369 0 0.46102425708533701 0.43254199134332588 0 0.5047849391802508 0.40719950955717021 0 0.50753758205811061 0.4506562873613274 0 0.85607519768343354 0.69380468830529196 0 0.88396545633132484 0.6625197322180193 0 0.90051880305432697 0.69261863673346957 0 0.30619531169472608 0.85607519768342955 0 0.33748026778199908 0.88396545633134682 0 0.30738136326657722 0.90051880305435028 0 0.69379929796456197 0.14392209494791061 0 0.66251865414987876 0.1160340021949529 0 0.69253601466723103 0.09949211948105087 0 0.14392209494791439 0.30620070203545702 0 0.11603400219493119 0.33748134585014028 0 0.099492119481027347 0.30746398533281638 0 0.78284912262770068 0.83746308049763585 0 0.81306033001437827 0.8677384967307622 0 0.78020430794084783 0.88768307197553598 0 0.16253691950235041 0.78284912262768558 0 0.1322615032692282 0.8130603300143705 0 0.11231692802445629 0.78020430794084028 0 0.66820316019503978 0.77769800602796979 0 0.64203711532612107 0.74316477213290444 0 0.67626275269587088 0.72713741921009012 0 0.22230199397202771 0.66820316019503168 0 0.25684529255773247 0.64203554247963057 0 0.27349656744860212 0.67581741996408695 0 0.77769800602796679 0.33179683980497482 0 0.74316477213289889 0.35796288467388632 0 0.72713741921008324 0.32373724730413678 0 0.33179683980498331 0.2223019939720311 0 0.3579628846738841 0.25683522786710378 0 0.32373692627050221 0.27286413781593999 0 0.4434591735942961 0.66641640622551224 0 0.45517457031814612 0.62743100079604397 0 0.47818752133962877 0.66454462905280853 0 0.7000000000006934 1 0 0.65000000000104008 1 0 0.6766004019857832 0.9676421564932749 0 0 0.7000000000006934 0 0 0.65000000000104008 0 0.032357843506722522 0.67660040198578164 0 1 0.29999999999926641 0 1 0.34999999999912063 0 0.96720628700974665 0.32362438565954771 0 0.29999999999926641 0 0 0.34999999999912063 0 0 0.32361955853288599 0.032799927825624707 0 0.49854341599767982 0.37075914768127122 0 0.47253211736503098 0.34081710830804929 0 0.51491507395299929 0.3326740076510219 0 0.50000000000205869 1 0 0.45000000000187229 1 0 0.47500000000196563 0.970555092835793 0 0 0.50000000000205869 0 0 0.45000000000187229 0 0.029444907164209121 0.47500000000196552 0 1 0.49999999999869432 0 1 0.5499999999988151 0 0.97055509283553232 0.52499999999875435 0 0.49999999999869432 0 0 0.5499999999988151 0 0 0.52499999999875446 0.029444907164469181 0 0.91838802593870927 0.18172590289757809 0 0.89556054516486661 0.21720615046483649 0 0.87355793346388477 0.18922011052113649 0 0.18172590289758209 0.08161197406129285 0 0.21720615046484709 0.1044394548351292 0 0.18922011052115781 0.12644206653611201 0 0.48378871228000903 0.29745177826977359 0 0.51491507395299929 0.3326740076510219 0 0.47253211736503098 0.34081710830804929 0 0.58981073711177334 0.48140931020849848 0 0.59313386551587477 0.43977047843653239 0 0.62619054498681193 0.46482944251856079 0 0.640156794425081 0.43301393728221721 0 0.62619054498681193 0.46482944251856079 0 0.59313386551587477 0.43977047843653239 0 0 0.45000000000187229 0 0.043612803661092707 0.44006111182840391 0 0.029444907164209121 0.47500000000196552 0 0.45000000000187229 1 0 0.44006111182840962 0.9563871963389079 0 0.47500000000196563 0.970555092835793 0 0.5499999999988151 0 0 0.55993888817186677 0.043612803661174412 0 0.52499999999875446 0.029444907164469181 0 1 0.5499999999988151 0 0.95638719633882641 0.5599388881718611 0 0.97055509283553232 0.52499999999875435 0 0.57051182622447827 0.69668652018496713 0 0.60879112811253555 0.66592422311595834 0 0.6083790122881827 0.70496300707145865 0 0.30429740679959738 0.56913905146460098 0 0.33231497408081678 0.60779218732873663 0 0.29503699292854352 0.60837901228818936 0 0.69595787604187809 0.43071000156707989 0 0.66346942254826746 0.391530810754116 0 0.70496300707145554 0.39162098771181952 0 0.43059486795334201 0.30395973419063538 0 0.39120887188745579 0.33407577688404289 0 0.39162098771181342 0.29503699292854563 0 0.35984320557492089 0.56698606271778873 0 0.37104651296145419 0.60545170748311072 0 0.33231497408081678 0.60779218732873663 0 0.43565339604028508 0.55159384357101338 0 0.40468198875170619 0.57637931869191572 0 0.39982789553993509 0.53462762214740622 0 0.66820316019503978 0.77769800602796979 0 0.71159714897733284 0.75039044679290845 0 0.69892030930712212 0.7971997999085858 0 0.22230199397202771 0.66820316019503168 0 0.249609553207091 0.71159714897732929 0 0.2028002000914135 0.69892030930711557 0 0.77769800602796679 0.33179683980497482 0 0.75039044679291111 0.28840285102267788 0 0.7971997999085878 0.3010796906928917 0 0.33179683980498331 0.2223019939720311 0 0.28840285102268098 0.24960955320708811 0 0.30107969069289831 0.20280020009141189 0 0.34804757266227387 0.35750068079406011 0 0.39222057657781068 0.38067796690227418 0 0.35481422397128459 0.40312981465069342 0 0.67757268808231397 0.93106206656183088 0 0.66923299355723143 0.8804077449518628 0 0.70475631558365914 0.90098127745102974 0 0.068937933438162791 0.67757268808231053 0 0.1195922550481313 0.66923299355722787 0 0.099018722548963364 0.70475631558365193 0 0.93106206656185309 0.32242731191769503 0 0.88040774495187946 0.33076700644278889 0 0.89886191075654698 0.29506339503703172 0 0.32242731191769902 0.068937933438140794 0 0.33076700644279272 0.1195922550481146 0 0.29506339503703888 0.1011380892434444 0 0.53432142347292233 0.88563193847251998 0 0.56877264426066887 0.91182300080710277 0 0.52425337578225772 0.9223731761594427 0 0.1143680615274819 0.53432142347292733 0 0.088176999192898689 0.56877264426067353 0 0.07762682384055844 0.52425337578226128 0 0.46567857652706018 0.1143680615275231 0 0.43122735573933979 0.088176999192917438 0 0.47574662421782782 0.077626823840590969 0 0.39419886675318527 0.41912225240070788 0 0.35481422397128459 0.40312981465069342 0 0.39222057657781068 0.38067796690227418 0 1 0.49999999999869432 0 0.97055509283553232 0.52499999999875435 0 0.96266688603193029 0.48495124540067203 0 0.49999999999869432 0 0 0.52499999999875446 0.029444907164469181 0 0.48492433058289169 0.037321398276272413 0 0.93510666819640953 0.51330222939551939 0 0.96266688603193029 0.48495124540067203 0 0.97055509283553232 0.52499999999875435 0 0.5133022293955174 0.064893331803591428 0 0.48492433058289169 0.037321398276272413 0 0.52499999999875446 0.029444907164469181 0 0 0.50000000000205869 0 0.029444907164209121 0.47500000000196552 0 0.037321398276215258 0.51507566941747263 0 0.50000000000205869 1 0 0.47500000000196563 0.970555092835793 0 0.51507566941747085 0.9626786017237855 0 0.48669777060454272 0.93510666819646593 0 0.51507566941747085 0.9626786017237855 0 0.47500000000196563 0.970555092835793 0 0.064893331803534807 0.48669777060454478 0 0.037321398276215258 0.51507566941747263 0 0.029444907164209121 0.47500000000196552 0 0.55307204985744796 0.94819812235491685 0 0.52425337578225772 0.9223731761594427 0 0.56877264426066887 0.91182300080710277 0 0.051801877645083663 0.55307204985745195 0 0.07762682384055844 0.52425337578226128 0 0.088176999192898689 0.56877264426067353 0 0.44692795014265252 0.051801877645060238 0 0.47574662421782782 0.077626823840590969 0 0.43122735573933979 0.088176999192917438 0 0.70085728320704077 0.84350379029875056 0 0.66919832404887702 0.81820888699730587 0 0.69892030930712212 0.7971997999085858 0 0.1564962097012354 0.70085728320703999 0 0.1817911130026923 0.66919832404888702 0 0.2028002000914135 0.69892030930711557 0 0.84350379029877964 0.29914271679296989 0 0.8182088869973061 0.33080167595111531 0 0.7971997999085878 0.3010796906928917 0 0.29914271679297122 0.15649620970120659 0 0.33080167595110582 0.18179111300269291 0 0.30107969069289831 0.20280020009141189 0 0.33382663527330159 0.44130125047503482 0 0.37702386074717259 0.45819417564476811 0 0.33436424489304489 0.47849603121740791 0 0.44764943295894188 0.73752415265401661 0 0.46634612187967051 0.76767585524061377 0 0.43306783640023289 0.78031198216144404 0 0.73752415265401194 0.55235056704108476 0 0.76797069865873757 0.53315993670164308 0 0.78031198216143516 0.56693216359979737 0 0.26247584734598628 0.44764943295894732 0 0.23232476702437141 0.46634525369567709 0 0.21968801783855879 0.43306783640023788 0 0.55175647814720108 0.26104505532086641 0 0.53265327255359129 0.23135454206919101 0 0.56683314878414581 0.21944955250104689 0 0.65000000000104008 1 0 0.63753756910470316 0.95578163339252209 0 0.6766004019857832 0.9676421564932749 0 0 0.65000000000104008 0 0.04421836660747535 0.63753756910470205 0 0.032357843506722522 0.67660040198578164 0 1 0.34999999999912063 0 0.95581270756939096 0.36248656652865863 0 0.96720628700974665 0.32362438565954771 0 0.34999999999912063 0 0 0.36246243089534252 0.044218366607477223 0 0.32361955853288599 0.032799927825624707 0 0.67757268808231397 0.93106206656183088 0 0.6766004019857832 0.9676421564932749 0 0.63753756910470316 0.95578163339252209 0 0.068937933438162791 0.67757268808231053 0 0.032357843506722522 0.67660040198578164 0 0.04421836660747535 0.63753756910470205 0 0.93106206656185309 0.32242731191769503 0 0.96720628700974665 0.32362438565954771 0 0.95581270756939096 0.36248656652865863 0 0.32242731191769902 0.068937933438140794 0 0.32361955853288599 0.032799927825624707 0 0.36246243089534252 0.044218366607477223 0 0.94812782820415209 0.44708943904932719 0 0.92203742772043751 0.47579485578641628 0 0.90991454156957952 0.4312731559748802 0 0.88561059063756964 0.46572761956237563 0 0.90991454156957952 0.4312731559748802 0 0.92203742772043751 0.47579485578641628 0 0.49189101320880302 0.59024331187324797 0 0.45517457031814612 0.62743100079604397 0 0.45030222762303879 0.58443295115431027 0 0.54465502325161819 0.74717983044080061 0 0.57578062281532438 0.77751665353176347 0 0.53770425635794761 0.80104587463999666 0 0.25287139441262568 0.54458355434492378 0 0.2224870800581388 0.57577541371134155 0 0.1989632851005598 0.53769147668950479 0 0.74730218607442667 0.45539100053644521 0 0.77752557158083724 0.42422273168818408 0 0.80106707846564795 0.46230714888029367 0 0.45533136021725079 0.2525687312087147 0 0.42421838472613971 0.22246502005787769 0 0.46229330881044273 0.19890916456654811 0 0.57387636360620708 0.54318431390135336 0 0.59621567360238914 0.5184866806641607 0 0.61866949026800744 0.55492322767366287 0 0.66923299355723143 0.8804077449518628 0 0.6441774148058701 0.91458123574274031 0 0.62483828039315681 0.8780818733396436 0 0.1195922550481313 0.66923299355722787 0 0.085418764257258195 0.64417741480586865 0 0.1219181266603569 0.62483828039315903 0 0.88040774495187946 0.33076700644278889 0 0.91286712511202617 0.35637271447129198 0 0.87815187193233801 0.37523526017134418 0 0.33076700644279272 0.1195922550481146 0 0.35582258519414178 0.085418764257258431 0 0.37516171960683908 0.121918126660369 0 0.49189101320880302 0.59024331187324797 0 0.45030222762303879 0.58443295115431027 0 0.47974773860103892 0.54872726831320284 0 0.92670321183853355 0.65773042910151081 0 0.90051880305432697 0.69261863673346957 0 0.88396545633132484 0.6625197322180193 0 0.65773042910151891 0.073296788161472337 0 0.69253601466723103 0.09949211948105087 0 0.66251865414987876 0.1160340021949529 0 0.3422695708985129 0.92670321183858773 0 0.30738136326657722 0.90051880305435028 0 0.33748026778199908 0.88396545633134682 0 0.073296788161418117 0.34226957089850552 0 0.099492119481027347 0.30746398533281638 0 0.11603400219493119 0.33748134585014028 0 0.60938371359314658 0.91847489683800321 0 0.6441774148058701 0.91458123574274031 0 0.63753756910470316 0.95578163339252209 0 0.081525103161997597 0.6093837135931508 0 0.085418764257258195 0.64417741480586865 0 0.04421836660747535 0.63753756910470205 0 0.91890123454466932 0.39094742729597309 0 0.91286712511202617 0.35637271447129198 0 0.95581270756939096 0.36248656652865863 0 0.39061628640684498 0.081525103161991672 0 0.35582258519414178 0.085418764257258431 0 0.36246243089534252 0.044218366607477223 0 0.67757268808231397 0.93106206656183088 0 0.63753756910470316 0.95578163339252209 0 0.6441774148058701 0.91458123574274031 0 0.068937933438162791 0.67757268808231053 0 0.04421836660747535 0.63753756910470205 0 0.085418764257258195 0.64417741480586865 0 0.93106206656185309 0.32242731191769503 0 0.95581270756939096 0.36248656652865863 0 0.91286712511202617 0.35637271447129198 0 0.32242731191769902 0.068937933438140794 0 0.36246243089534252 0.044218366607477223 0 0.35582258519414178 0.085418764257258431 0 0.56759263990989184 0.81794319034601648 0 0.53770425635794761 0.80104587463999666 0 0.57578062281532438 0.77751665353176347 0 0.18205680965398621 0.56759263990989739 0 0.1989632851005598 0.53769147668950479 0 0.2224870800581388 0.57577541371134155 0 0.81794319034597418 0.43240736009009317 0 0.80106707846564795 0.46230714888029367 0 0.77752557158083724 0.42422273168818408 0 0.43240736009008851 0.18205680965402779 0 0.46229330881044273 0.19890916456654811 0 0.42421838472613971 0.22246502005787769 0 0.4434591735942961 0.66641640622551224 0 0.46736891737654429 0.70015537930374983 0 0.42715538333808079 0.70077759375307946 0 0.44764943295894188 0.73752415265401661 0 0.42715538333808079 0.70077759375307946 0 0.46736891737654429 0.70015537930374983 0 0.66548584431530877 0.55616712808283064 0 0.69798396601998558 0.5289734597937793 0 0.70087539567735502 0.57165914616526226 0 0.33382663527330159 0.44130125047503482 0 0.29988655052531688 0.46700727827593119 0 0.2963043386970643 0.4298320229681446 0 0.73752415265401194 0.55235056704108476 0 0.70087539567735502 0.57165914616526226 0 0.69798396601998558 0.5289734597937793 0 0.26247584734598628 0.44764943295894732 0 0.2963043386970643 0.4298320229681446 0 0.29988655052531688 0.46700727827593119 0 0.46102425708533701 0.43254199134332588 0 0.46543211128216788 0.38788423543681888 0 0.5047849391802508 0.40719950955717021 0 0.49854341599767982 0.37075914768127122 0 0.5047849391802508 0.40719950955717021 0 0.46543211128216788 0.38788423543681888 0 0.55175647814720108 0.26104505532086641 0 0.57188338999077359 0.29874123486230147 0 0.52929435216580312 0.29671213472503383 0 0.48378871228000903 0.29745177826977359 0 0.52929435216580312 0.29671213472503383 0 0.51491507395299929 0.3326740076510219 0 0.46102425708533701 0.43254199134332588 0 0.42340342337193693 0.44762131874855388 0 0.42930823106401639 0.40626685012722968 0 0.39419886675318527 0.41912225240070788 0 0.42930823106401639 0.40626685012722968 0 0.42340342337193693 0.44762131874855388 0 0.94812782820415209 0.44708943904932719 0 0.96266688603193029 0.48495124540067203 0 0.92203742772043751 0.47579485578641628 0 0.44692795014265252 0.051801877645060238 0 0.48492433058289169 0.037321398276272413 0 0.47574662421782782 0.077626823840590969 0 0.93510666819640953 0.51330222939551939 0 0.92203742772043751 0.47579485578641628 0 0.96266688603193029 0.48495124540067203 0 0.5133022293955174 0.064893331803591428 0 0.47574662421782782 0.077626823840590969 0 0.48492433058289169 0.037321398276272413 0 0.55307204985744796 0.94819812235491685 0 0.51507566941747085 0.9626786017237855 0 0.52425337578225772 0.9223731761594427 0 0.051801877645083663 0.55307204985745195 0 0.037321398276215258 0.51507566941747263 0 0.07762682384055844 0.52425337578226128 0 0.48669777060454272 0.93510666819646593 0 0.52425337578225772 0.9223731761594427 0 0.51507566941747085 0.9626786017237855 0 0.064893331803534807 0.48669777060454478 0 0.07762682384055844 0.52425337578226128 0 0.037321398276215258 0.51507566941747263 0 0.70252050881959183 0.70358884261915833 0 0.71159714897733284 0.75039044679290845 0 0.67626275269587088 0.72713741921009012 0 0.29641115738084339 0.70252050881958938 0 0.249609553207091 0.71159714897732929 0 0.27349656744860212 0.67581741996408695 0 0.70358884261915744 0.29747949118041561 0 0.75039044679291111 0.28840285102267788 0 0.72713741921008324 0.32373724730413678 0 0.29747949118041711 0.2964111573808435 0 0.28840285102268098 0.24960955320708811 0 0.32373692627050221 0.27286413781593999 0 0.48378871228000903 0.29745177826977359 0 0.50732841191799194 0.2613117081243182 0 0.52929435216580312 0.29671213472503383 0 0.50000000000002642 0.7803135888501761 0 0.46634612187967051 0.76767585524061377 0 0.49073113440598592 0.73759004618730417 0 0.44764943295894188 0.73752415265401661 0 0.49073113440598592 0.73759004618730417 0 0.46634612187967051 0.76767585524061377 0 0.73752415265401194 0.55235056704108476 0 0.73815142352639962 0.50697050072007344 0 0.76797069865873757 0.53315993670164308 0 0.78031358885017377 0.49999999999997569 0 0.76797069865873757 0.53315993670164308 0 0.73815142352639962 0.50697050072007344 0 0.2196864111498267 0.50000000000003153 0 0.23232476702437141 0.46634525369567709 0 0.262418491288269 0.49071922292154141 0 0.26247584734598628 0.44764943295894732 0 0.262418491288269 0.49071922292154141 0 0.23232476702437141 0.46634525369567709 0 0.55175647814720108 0.26104505532086641 0 0.50732841191799194 0.2613117081243182 0 0.53265327255359129 0.23135454206919101 0 0.49999999999997108 0.21968641114982909 0 0.53265327255359129 0.23135454206919101 0 0.50732841191799194 0.2613117081243182 0 0.64455163611866495 0.50369301794551069 0 0.62619054498681193 0.46482944251856079 0 0.66329969176266512 0.46626046872004567 0 0.50000000000002642 0.7803135888501761 0 0.46593838964869061 0.80781872835503554 0 0.46634612187967051 0.76767585524061377 0 0.2196864111498267 0.50000000000003153 0 0.19218127164496679 0.46593838964869538 0 0.23232476702437141 0.46634525369567709 0 0.78031358885017377 0.49999999999997569 0 0.80781854240107975 0.53406203754901738 0 0.76797069865873757 0.53315993670164308 0 0.49999999999997108 0.21968641114982909 0 0.53404982287327418 0.19215288291432539 0 0.53265327255359129 0.23135454206919101 0 0.55175647814720108 0.26104505532086641 0 0.52929435216580312 0.29671213472503383 0 0.50732841191799194 0.2613117081243182 0 0.64518564541690571 0.69601563325001548 0 0.67626275269587088 0.72713741921009012 0 0.64203711532612107 0.74316477213290444 0 0.30421635384321521 0.64514939193436716 0 0.27349656744860212 0.67581741996408695 0 0.25684529255773247 0.64203554247963057 0 0.69601563325001248 0.35481435458309712 0 0.72713741921008324 0.32373724730413678 0 0.74316477213289889 0.35796288467388632 0 0.35481435458309307 0.30398436674998969 0 0.32373692627050221 0.27286413781593999 0 0.3579628846738841 0.25683522786710378 0 0.640156794425081 0.43301393728221721 0 0.66329969176266512 0.46626046872004567 0 0.62619054498681193 0.46482944251856079 0 1 0.64999999999907843 0 0.96779701826738695 0.67105375815842694 0 0.96654491682122368 0.6363613838740827 0 0.64999999999907843 0 0 0.67098510785536181 0.032220921767549461 0 0.63635157668793507 0.033457646040912177 0 0.35000000000145642 1 0 0.32894624184180998 0.96779701826738929 0 0.36363861612613613 0.96654491682121313 0 0 0.35000000000145642 0 0.032220921767546963 0.32901489214487523 0 0.033457646040922301 0.36364842331228431 0 0.66820316019503978 0.77769800602796979 0 0.69892030930712212 0.7971997999085858 0 0.66919832404887702 0.81820888699730587 0 0.22230199397202771 0.66820316019503168 0 0.2028002000914135 0.69892030930711557 0 0.1817911130026923 0.66919832404888702 0 0.77769800602796679 0.33179683980497482 0 0.7971997999085878 0.3010796906928917 0 0.8182088869973061 0.33080167595111531 0 0.33179683980498331 0.2223019939720311 0 0.30107969069289831 0.20280020009141189 0 0.33080167595110582 0.18179111300269291 0 0.4434591735942961 0.66641640622551224 0 0.47818752133962877 0.66454462905280853 0 0.46736891737654429 0.70015537930374983 0 0.33382663527330159 0.44130125047503482 0 0.33436424489304489 0.47849603121740791 0 0.29988655052531688 0.46700727827593119 0 0.46102425708533701 0.43254199134332588 0 0.42930823106401639 0.40626685012722968 0 0.46543211128216788 0.38788423543681888 0 0.35984320557492089 0.56698606271778873 0 0.40468198875170619 0.57637931869191572 0 0.37104651296145419 0.60545170748311072 0 0.60938371359314658 0.91847489683800321 0 0.62483828039315681 0.8780818733396436 0 0.6441774148058701 0.91458123574274031 0 0.081525103161997597 0.6093837135931508 0 0.1219181266603569 0.62483828039315903 0 0.085418764257258195 0.64417741480586865 0 0.91890123454466932 0.39094742729597309 0 0.87815187193233801 0.37523526017134418 0 0.91286712511202617 0.35637271447129198 0 0.39061628640684498 0.081525103161991672 0 0.37516171960683908 0.121918126660369 0 0.35582258519414178 0.085418764257258431 0 0.40653508887824003 0.61580573377480397 0 0.37104651296145419 0.60545170748311072 0 0.40468198875170619 0.57637931869191572 0 
</DataArray>
</Points>
<Cells>
<DataArray type="UInt32" Name="connectivity" format="ascii">
0 1 2 3 4 5 6 7 8 9 10 11 12 13 14 15 16 17 18 19 20 21 22 23 24 25 26 27 28 29 30 31 32 33 34 35 36 37 38 39 40 41 42 43 44 45 46 47 48 49 50 51 52 53 54 55 56 57 58 59 60 61 62 63 64 65 66 67 68 69 70 71 72 73 74 75 76 77 78 79 80 81 82 83 84 85 86 87 88 89 90 91 92 93 94 95 96 97 98 99 100 101 102 103 104 105 106 107 108 109 110 111 112 113 114 115 116 117 118 119 120 121 122 123 124 125 126 127 128 129 130 131 132 133 134 135 136 137 138 139 140 141 142 143 144 145 146 147 148 149 150 151 152 153 154 155 156 157 158 159 160 161 162 163 164 165 166 167 168 169 170 171 172 173 174 175 176 177 178 179 180 181 182 183 184 185 186 187 188 189 190 191 192 193 194 195 196 197 198 199 200 201 202 203 204 205 206 207 208 209 210 211 212 213 214 215 216 217 218 219 220 221 222 223 224 225 226 227 228 229 230 231 232 233 234 235 236 237 238 239 240 241 242 243 244 245 246 247 248 249 250 251 252 253 254 255 256 257 258 259 260 261 262 263 264 265 266 267 268 269 270 271 272 273 274 275 276 277 278 279 280 281 282 283 284 285 286 287 288 289 290 291 292 293 294 295 296 297 298 299 300 301 302 303 304 305 306 307 308 309 310 311 312 313 314 315 316 317 318 319 320 321 322 323 324 325 326 327 328 329 330 331 332 333 334 335 336 337 338 339 340 341 342 343 344 345 346 347 348 349 350 351 352 353 354 355 356 357 358 359 360 361 362 363 364 365 366 367 368 369 370 371 372 373 374 375 376 377 378 379 380 381 382 383 384 385 386 387 388 389 390 391 392 393 394 395 396 397 398 399 400 401 402 403 404 405 406 407 408 409 410 411 412 413 414 415 416 417 418 419 420 421 422 423 424 425 426 427 428 429 430 431 432 433 434 435 436 437 438 439 440 441 442 443 444 445 446 447 448 449 450 451 452 453 454 455 456 457 458 459 460 461 462 463 464 465 466 467 468 469 470 471 472 473 474 475 476 477 478 479 480 481 482 483 484 485 486 487 488 489 490 491 492 493 494 495 496 497 498 499 500 501 502 503 504 505 506 507 508 509 510 511 512 513 514 515 516 517 518 519 520 521 522 523 524 525 526 527 528 529 530 531 532 533 534 535 536 537 538 539 540 541 542 543 544 545 546 547 548 549 550 551 552 553 554 555 556 557 558 559 560 561 562 563 564 565 566 567 568 569 570 571 572 573 574 575 576 577 578 579 580 581 582 583 584 585 586 587 588 589 590 591 592 593 594 595 596 597 598 599 600 601 602 603 604 605 606 607 608 609 610 611 612 613 614 615 616 617 618 619 620 621 622 623 624 625 626 627 628 629 630 631 632 633 634 635 636 637 638 639 640 641 642 643 644 645 646 647 648 649 650 651 652 653 654 655 656 657 658 659 660 661 662 663 664 665 666 667 668 669 670 671 672 673 674 675 676 677 678 679 680 681 682 683 684 685 686 687 688 689 690 691 692 693 694 695 696 697 698 699 700 701 702 703 704 705 706 707 708 709 710 711 712 713 714 715 716 717 718 719 720 721 722 723 724 725 726 727 728 729 730 731 732 733 734 735 736 737 738 739 740 741 742 743 744 745 746 747 748 749 750 751 752 753 754 755 756 757 758 759 760 761 762 763 764 765 766 767 768 769 770 771 772 773 774 775 776 777 778 779 780 781 782 783 784 785 786 787 788 789 790 791 792 793 794 795 796 797 798 799 800 801 802 803 804 805 806 807 808 809 810 811 812 813 814 815 816 817 818 819 820 821 822 823 824 825 826 827 828 829 830 831 832 833 834 835 836 837 838 839 840 841 842 843 844 845 846 847 848 849 850 851 852 853 854 855 856 857 858 859 860 861 862 863 864 865 866 867 868 869 870 871 872 873 874 875 876 877 878 879 880 881 882 883 884 885 886 887 888 889 890 891 892 893 894 895 896 897 898 899 900 901 902 903 904 905 906 907 908 909 910 911 912 913 914 915 916 917 918 919 920 921 922 923 924 925 926 927 928 929 930 931 932 933 934 935 936 937 938 939 940 941 942 943 944 945 946 947 948 949 950 951 952 953 954 955 956 957 958 959 960 961 962 963 964 965 966 967 968 969 970 971 972 973 974 975 976 977 978 979 980 981 982 983 984 985 986 987 988 989 990 991 992 993 994 995 996 997 998 999 1000 1001 1002 1003 1004 1005 1006 1007 1008 1009 1010 1011 1012 1013 1014 1015 1016 1017 1018 1019 1020 1021 1022 1023 1024 1025 1026 1027 1028 1029 1030 1031 1032 1033 1034 1035 1036 1037 1038 1039 1040 1041 1042 1043 1044 1045 1046 1047 1048 1049 1050 1051 1052 1053 1054 1055 1056 1057 1058 1059 1060 1061 1062 1063 1064 1065 1066 1067 1068 1069 1070 1071 1072 1073 1074 1075 1076 1077 1078 1079 1080 1081 1082 1083 1084 1085 1086 1087 1088 1089 1090 1091 1092 1093 1094 1095 1096 1097 1098 1099 1100 1101 1102 1103 1104 1105 1106 1107 1108 1109 1110 1111 1112 1113 1114 1115 1116 1117 1118 1119 1120 1121 1122 1123 1124 1125 1126 1127 1128 1129 1130 1131 1132 1133 1134 1135 1136 1137 1138 1139 1140 1141 1142 1143 1144 1145 1146 1147 1148 1149 1150 1151 1152 1153 1154 1155 1156 1157 1158 1159 1160 1161 1162 1163 1164 1165 1166 1167 1168 1169 1170 1171 1172 1173 1174 1175 1176 1177 1178 1179 1180 1181 1182 1183 1184 1185 1186 1187 1188 1189 1190 1191 1192 1193 1194 1195 1196 1197 1198 1199 1200 1201 1202 1203 1204 1205 1206 1207 1208 1209 1210 1211 1212 1213 1214 1215 1216 1217 1218 1219 1220 1221 1222 1223 1224 1225 1226 1227 1228 1229 1230 1231 1232 1233 1234 1235 1236 1237 1238 1239 1240 1241 1242 1243 1244 1245 1246 1247 1248 1249 1250 1251 1252 1253 1254 1255 1256 1257 1258 1259 1260 1261 1262 1263 1264 1265 1266 1267 1268 1269 1270 1271 1272 1273 1274 1275 1276 1277 1278 1279 1280 1281 1282 1283 1284 1285 1286 1287 1288 1289 1290 1291 1292 1293 1294 1295 1296 1297 1298 1299 1300 1301 1302 1303 1304 1305 1306 1307 1308 1309 1310 1311 1312 1313 1314 1315 1316 1317 1318 1319 1320 1321 1322 1323 1324 1325 1326 1327 1328 1329 1330 1331 1332 1333 1334 1335 1336 1337 1338 1339 1340 1341 1342 1343 1344 1345 1346 1347 1348 1349 1350 1351 1352 1353 1354 1355 1356 1357 1358 1359 1360 1361 1362 1363 1364 1365 1366 1367 1368 1369 1370 1371 1372 1373 1374 1375 1376 1377 1378 1379 1380 1381 1382 1383 1384 1385 1386 1387 1388 1389 1390 1391 1392 1393 1394 1395 1396 1397 1398 1399 1400 1401 1402 1403 1404 1405 1406 1407 1408 1409 1410 1411 1412 1413 1414 1415 1416 1417 1418 1419 1420 1421 1422 1423 1424 1425 1426 1427 1428 1429 1430 1431 1432 1433 1434 1435 1436 1437 1438 1439 1440 1441 1442 1443 1444 1445 1446 1447 1448 1449 1450 1451 1452 1453 1454 1455 1456 1457 1458 1459 1460 1461 1462 1463 1464 1465 1466 1467 1468 1469 1470 1471 1472 1473 1474 1475 1476 1477 1478 1479 1480 1481 1482 1483 1484 1485 1486 1487 1488 1489 1490 1491 1492 1493 1494 1495 1496 1497 1498 1499 1500 1501 1502 1503 1504 1505 1506 1507 1508 1509 1510 1511 1512 1513 1514 1515 1516 1517 1518 1519 1520 1521 1522 1523 1524 1525 1526 1527 1528 1529 1530 1531 1532 1533 1534 1535 1536 1537 1538 1539 1540 1541 1542 1543 1544 1545 1546 1547 1548 1549 1550 1551 1552 1553 1554 1555 1556 1557 1558 1559 1560 1561 1562 1563 1564 1565 1566 1567 1568 1569 1570 1571 1572 1573 1574 1575 1576 1577 1578 1579 1580 1581 1582 1583 1584 1585 1586 1587 1588 1589 1590 1591 1592 1593 1594 1595 1596 1597 1598 1599 1600 1601 1602 1603 1604 1605 1606 1607 1608 1609 1610 1611 1612 1613 1614 1615 1616 1617 1618 1619 1620 1621 1622 1623 1624 1625 1626 1627 1628 1629 1630 1631 1632 1633 1634 1635 1636 1637 1638 1639 1640 1641 1642 1643 1644 1645 1646 1647 1648 1649 1650 1651 1652 1653 1654 1655 1656 1657 1658 1659 1660 1661 1662 1663 1664 1665 1666 1667 1668 1669 1670 1671 1672 1673 1674 1675 1676 1677 1678 1679 1680 1681 1682 1683 1684 1685 1686 1687 1688 1689 1690 1691 1692 1693 1694 1695 1696 1697 1698 1699 1700 1701 1702 1703 1704 1705 1706 1707 1708 1709 1710 1711 1712 1713 1714 1715 1716 1717 1718 1719 1720 1721 1722 1723 1724 1725 1726 1727 1728 1729 1730 1731 1732 1733 1734 1735 1736 1737 1738 1739 1740 1741 1742 1743 1744 1745 1746 1747 1748 1749 1750 1751 1752 1753 1754 1755 1756 1757 1758 1759 1760 1761 1762 1763 1764 1765 1766 1767 1768 1769 1770 1771 1772 1773 1774 1775 1776 1777 1778 1779 1780 1781 1782 1783 1784 1785 1786 1787 1788 1789 1790 1791 1792 1793 1794 1795 1796 1797 1798 1799 1800 1801 1802 1803 1804 1805 1806 1807 1808 1809 1810 1811 1812 1813 1814 1815 1816 1817 1818 1819 1820 1821 1822 1823 1824 1825 1826 1827 1828 1829 1830 1831 1832 1833 1834 1835 1836 1837 1838 1839 1840 1841 1842 1843 1844 1845 1846 1847 1848 1849 1850 1851 1852 1853 1854 1855 1856 1857 1858 1859 1860 1861 1862 1863 1864 1865 1866 1867 1868 1869 1870 1871 1872 1873 1874 1875 1876 1877 1878 1879 1880 1881 1882 1883 1884 1885 1886 1887 1888 1889 1890 1891 1892 1893 1894 1895 1896 1897 1898 1899 1900 1901 1902 1903 1904 1905 1906 1907 1908 1909 1910 1911 1912 1913 1914 1915 1916 1917 1918 1919 1920 1921 1922 1923 1924 1925 1926 1927 1928 1929 1930 1931 1932 1933 1934 1935 1936 1937 1938 1939 1940 1941 1942 1943 1944 1945 1946 1947 1948 1949 1950 1951 1952 1953 1954 1955 1956 1957 1958 1959 1960 1961 1962 1963 1964 1965 1966 1967 1968 1969 1970 1971 1972 1973 1974 1975 1976 1977 1978 1979 1980 1981 1982 1983 1984 1985 1986 1987 1988 1989 1990 1991 1992 1993 1994 1995 1996 1997 1998 1999 2000 2001 2002 2003 2004 2005 2006 2007 2008 2009 2010 2011 2012 2013 2014 2015 2016 2017 2018 2019 2020 2021 2022 2023 2024 2025 2026 2027 2028 2029 2030 2031 2032 2033 2034 2035 2036 2037 2038 2039 2040 2041 2042 2043 2044 2045 2046 2047 2048 2049 2050 2051 2052 2053 2054 2055 2056 2057 2058 2059 2060 2061 2062 2063 2064 2065 2066 2067 2068 2069 2070 2071 2072 2073 2074 2075 2076 2077 2078 2079 2080 2081 2082 2083 2084 2085 2086 2087 2088 2089 2090 2091 2092 2093 2094 2095 2096 2097 2098 2099 2100 2101 2102 2103 2104 2105 2106 2107 2108 2109 2110 2111 2112 2113 2114 2115 2116 2117 2118 2119 2120 2121 2122 2123 2124 2125 2126 2127 2128 2129 2130 2131 2132 2133 2134 2135 2136 2137 2138 2139 2140 2141 2142 2143 2144 2145 2146 2147 2148 2149 2150 2151 2152 2153 2154 2155 2156 2157 2158 2159 2160 2161 2162 2163 2164 2165 2166 2167 2168 2169 2170 2171 2172 2173 2174 2175 2176 2177 2178 2179 2180 2181 2182 2183 2184 2185 2186 2187 2188 2189 2190 2191 2192 2193 2194 2195 2196 2197 2198 2199 2200 2201 2202 2203 2204 2205 2206 2207 2208 2209 2210 2211 2212 2213 2214 2215 2216 2217 2218 2219 2220 2221 2222 2223 2224 2225 2226 2227 2228 2229 2230 2231 2232 2233 2234 2235 2236 2237 2238 2239 2240 2241 2242 2243 2244 2245 2246 2247 2248 2249 2250 2251 2252 2253 2254 2255 2256 2257 2258 2259 2260 2261 2262 2263 2264 2265 2266 2267 2268 2269 2270 2271 2272 2273 2274 2275 2276 2277 2278 2279 2280 2281 2282 2283 2284 2285 2286 2287 2288 2289 2290 2291 2292 2293 2294 2295 2296 2297 2298 2299 2300 2301 2302 2303 2304 2305 2306 2307 2308 2309 2310 2311 2312 2313 2314 2315 2316 2317 2318 2319 2320 2321 2322 2323 2324 2325 2326 2327 2328 2329 2330 2331 2332 2333 2334 2335 2336 2337 2338 2339 2340 2341 2342 2343 2344 2345 2346 2347 2348 2349 2350 2351 2352 2353 2354 2355 2356 2357 2358 2359 2360 2361 2362 2363 2364 2365 2366 2367 2368 2369 2370 2371 2372 2373 2374 2375 2376 2377 2378 2379 2380 2381 2382 2383 2384 2385 2386 2387 2388 2389 2390 2391 2392 2393 2394 2395 2396 2397 2398 2399 2400 2401 2402 2403 2404 2405 2406 2407 2408 2409 2410 2411 2412 2413 2414 2415 2416 2417 2418 2419 2420 2421 2422 2423 2424 2425 2426 2427 2428 2429 2430 2431 2432 2433 2434 2435 2436 2437 2438 2439 2440 2441 2442 2443 2444 2445 2446 2447 2448 2449 2450 2451 2452 2453 2454 2455 2456 2457 2458 2459 2460 2461 2462 2463 2464 2465 2466 2467 2468 2469 2470 2471 2472 2473 2474 2475 2476 2477 2478 2479 2480 2481 2482 2483 2484 2485 2486 2487 2488 2489 2490 2491 2492 2493 2494 2495 2496 2497 2498 2499 2500 2501 2502 2503 2504 2505 2506 2507 2508 2509 2510 2511 2512 2513 2514 2515 2516 2517 2518 2519 2520 2521 2522 2523 2524 2525 2526 2527 2528 2529 2530 2531 2532 2533 2534 2535 2536 2537 2538 2539 2540 2541 2542 2543 2544 2545 2546 2547 2548 2549 2550 2551 2552 2553 2554 2555 2556 2557 2558 2559 2560 2561 2562 2563 2564 2565 2566 2567 2568 2569 2570 2571 2572 2573 2574 2575 2576 2577 2578 2579 2580 2581 2582 2583 2584 2585 2586 2587 2588 2589 2590 2591 2592 2593 2594 2595 2596 2597 2598 2599 2600 2601 2602 2603 2604 2605 2606 2607 2608 2609 2610 2611 2612 2613 2614 2615 2616 2617 2618 2619 2620 2621 2622 2623 2624 2625 2626 2627 2628 2629 2630 2631 2632 2633 2634 2635 2636 2637 2638 2639 2640 2641 2642 2643 2644 2645 2646 2647 2648 2649 2650 2651 2652 2653 2654 2655 2656 2657 2658 2659 2660 2661 2662 2663 2664 2665 2666 2667 2668 2669 2670 2671 2672 2673 2674 2675 2676 2677 2678 2679 2680 2681 2682 2683 2684 2685 2686 2687 2688 2689 2690 2691 2692 2693 2694 2695 2696 2697 2698 2699 2700 2701 2702 2703 2704 2705 2706 2707 2708 2709 2710 2711 2712 2713 2714 2715 2716 2717 2718 2719 2720 2721 2722 2723 2724 2725 2726 2727 2728 2729 2730 2731 2732 2733 2734 2735 2736 2737 2738 2739 2740 2741 2742 2743 2744 2745 2746 2747 2748 2749 2750 2751 2752 2753 2754 2755 2756 2757 2758 2759 2760 2761 2762 2763 2764 2765 2766 2767 2768 2769 2770 2771 2772 2773 2774 2775 2776 2777 2778 2779 2780 2781 2782 2783 2784 2785 2786 2787 2788 2789 2790 2791 2792 2793 2794 2795 2796 2797 2798 2799 2800 2801 2802 2803 2804 2805 2806 2807 2808 2809 2810 2811 2812 2813 2814 2815 2816 2817 2818 2819 2820 2821 2822 2823 2824 2825 2826 2827 2828 2829 2830 2831 2832 2833 2834 2835 2836 2837 2838 2839 2840 2841 2842 2843 2844 2845 2846 2847 2848 2849 2850 2851 2852 2853 2854 2855 2856 2857 2858 2859 2860 2861 2862 2863 2864 2865 2866 2867 2868 2869 2870 2871 2872 2873 2874 2875 2876 2877 2878 2879 2880 2881 2882 2883 2884 2885 2886 2887 2888 2889 2890 2891 2892 2893 2894 2895 2896 2897 2898 2899 2900 2901 2902 2903 2904 2905 2906 2907 2908 2909 2910 2911 2912 2913 2914 2915 2916 2917 2918 2919 2920 2921 2922 2923 2924 2925 2926 2927 2928 2929 2930 2931 2932 2933 2934 2935 2936 2937 2938 2939 2940 2941 2942 2943 2944 2945 2946 2947 2948 2949 2950 2951 2952 2953 2954 2955 2956 2957 2958 2959 2960 2961 2962 2963 2964 2965 2966 2967 2968 2969 2970 2971 2972 2973 2974 2975 2976 2977 2978 2979 2980 2981 2982 2983 2984 2985 2986 2987 2988 2989 2990 2991 2992 2993 2994 2995 2996 2997 2998 2999 3000 3001 3002 3003 3004 3005 3006 3007 3008 3009 3010 3011 3012 3013 3014 3015 3016 3017 3018 3019 3020 3021 3022 3023 3024 3025 3026 3027 3028 3029 3030 3031 3032 3033 3034 3035 3036 3037 3038 3039 3040 3041 3042 3043 3044 3045 3046 3047 3048 3049 3050 3051 3052 3053 3054 3055 3056 3057 3058 3059 3060 3061 3062 3063 3064 3065 3066 3067 3068 3069 3070 3071 3072 3073 3074 3075 3076 3077 3078 3079 3080 3081 3082 3083 3084 3085 3086 3087 3088 3089 3090 3091 3092 3093 3094 3095 3096 3097 3098 3099 3100 3101 3102 3103 3104 3105 3106 3107 3108 3109 3110 3111 3112 3113 3114 3115 3116 3117 3118 3119 3120 3121 3122 3123 3124 3125 3126 3127 3128 3129 3130 3131 3132 3133 3134 3135 3136 3137 3138 3139 3140 3141 3142 3143 3144 3145 3146 3147 3148 3149 3150 3151 3152 3153 3154 3155 3156 3157 3158 3159 3160 3161 
</DataArray>
<DataArray type="UInt32" Name="offsets" format="ascii">
3 6 9 12 15 18 21 24 27 30 33 36 39 42 45 48 51 54 57 60 63 66 69 72 75 78 81 84 87 90 93 96 99 102 105 108 111 114 117 120 123 126 129 132 135 138 141 144 147 150 153 156 159 162 165 168 171 174 177 180 183 186 189 192 195 198 201 204 207 210 213 216 219 222 225 228 231 234 237 240 243 246 249 252 255 258 261 264 267 270 273 276 279 282 285 288 291 294 297 300 303 306 309 312 315 318 321 324 327 330 333 336 339 342 345 348 351 354 357 360 363 366 369 372 375 378 381 384 387 390 393 396 399 402 405 408 411 414 417 420 423 426 429 432 435 438 441 444 447 450 453 456 459 462 465 468 471 474 477 480 483 486 489 492 495 498 501 504 507 510 513 516 519 522 525 528 531 534 537 540 543 546 549 552 555 558 561 564 567 570 573 576 579 582 585 588 591 594 597 600 603 606 609 612 615 618 621 624 627 630 633 636 639 642 645 648 651 654 657 660 663 666 669 672 675 678 681 684 687 690 693 696 699 702 705 708 711 714 717 720 723 726 729 732 735 738 741 744 747 750 753 756 759 762 765 768 771 774 777 780 783 786 789 792 795 798 801 804 807 810 813 816 819 822 825 828 831 834 837 840 843 846 849 852 855 858 861 864 867 870 873 876 879 882 885 888 891 894 897 900 903 906 909 912 915 918 921 924 927 930 933 936 939 942 945 948 951 954 957 960 963 966 969 972 975 978 981 984 987 990 993 996 999 1002 1005 1008 1011 1014 1017 1020 1023 1026 1029 1032 1035 1038 1041 1044 1047 1050 1053 1056 1059 1062 1065 1068 1071 1074 1077 1080 1083 1086 1089 1092 1095 1098 1101 1104 1107 1110 1113 1116 1119 1122 1125 1128 1131 1134 1137 1140 1143 1146 1149 1152 1155 1158 1161 1164 1167 1170 1173 1176 1179 1182 1185 1188 1191 1194 1197 1200 1203 1206 1209 1212 1215 1218 1221 1224 1227 1230 1233 1236 1239 1242 1245 1248 1251 1254 1257 1260 1263 1266 1269 1272 1275 1278 1281 1284 1287 1290 1293 1296 1299 1302 1305 1308 1311 1314 1317 1320 1323 1326 1329 1332 1335 1338 1341 1344 1347 1350 1353 1356 1359 1362 1365 1368 1371 1374 1377 1380 1383 1386 1389 1392 1395 1398 1401 1404 1407 1410 1413 1416 1419 1422 1425 1428 1431 1434 1437 1440 1443 1446 1449 1452 1455 1458 1461 1464 1467 1470 1473 1476 1479 1482 1485 1488 1491 1494 1497 1500 1503 1506 1509 1512 1515 1518 1521 1524 1527 1530 1533 1536 1539 1542 1545 1548 1551 1554 1557 1560 1563 1566 1569 1572 1575 1578 1581 1584 1587 1590 1593 1596 1599 1602 1605 1608 1611 1614 1617 1620 1623 1626 1629 1632 1635 1638 1641 1644 1647 1650 1653 1656 1659 1662 1665 1668 1671 1674 1677 1680 1683 1686 1689 1692 1695 1698 1701 1704 1707 1710 1713 1716 1719 1722 1725 1728 1731 1734 1737 1740 1743 1746 1749 1752 1755 1758 1761 1764 1767 1770 1773 1776 1779 1782 1785 1788 1791 1794 1797 1800 1803 1806 1809 1812 1815 1818 1821 1824 1827 1830 1833 1836 1839 1842 1845 1848 1851 1854 1857 1860 1863 1866 1869 1872 1875 1878 1881 1884 1887 1890 1893 1896 1899 1902 1905 1908 1911 1914 1917 1920 1923 1926 1929 1932 1935 1938 1941 1944 1947 1950 1953 1956 1959 1962 1965 1968 1971 1974 1977 1980 1983 1986 1989 1992 1995 1998 2001 2004 2007 2010 2013 2016 2019 2022 2025 2028 2031 2034 2037 2040 2043 2046 2049 2052 2055 2058 2061 2064 2067 2070 2073 2076 2079 2082 2085 2088 2091 2094 2097 2100 2103 2106 2109 2112 2115 2118 2121 2124 2127 2130 2133 2136 2139 2142 2145 2148 2151 2154 2157 2160 2163 2166 2169 2172 2175 2178 2181 2184 2187 2190 2193 2196 2199 2202 2205 2208 2211 2214 2217 2220 2223 2226 2229 2232 2235 2238 2241 2244 2247 2250 2253 2256 2259 2262 2265 2268 2271 2274 2277 2280 2283 2286 2289 2292 2295 2298 2301 2304 2307 2310 2313 2316 2319 2322 2325 2328 2331 2334 2337 2340 2343 2346 2349 2352 2355 2358 2361 2364 2367 2370 2373 2376 2379 2382 2385 2388 2391 2394 2397 2400 2403 2406 2409 2412 2415 2418 2421 2424 2427 2430 2433 2436 2439 2442 2445 2448 2451 2454 2457 2460 2463 2466 2469 2472 2475 2478 2481 2484 2487 2490 2493 2496 2499 2502 2505 2508 2511 2514 2517 2520 2523 2526 2529 2532 2535 2538 2541 2544 2547 2550 2553 2556 2559 2562 2565 2568 2571 2574 2577 2580 2583 2586 2589 2592 2595 2598 2601 2604 2607 2610 2613 2616 2619 2622 2625 2628 2631 2634 2637 2640 2643 2646 2649 2652 2655 2658 2661 2664 2667 2670 2673 2676 2679 2682 2685 2688 2691 2694 2697 2700 2703 2706 2709 2712 2715 2718 2721 2724 2727 2730 2733 2736 2739 2742 2745 2748 2751 2754 2757 2760 2763 2766 2769 2772 2775 2778 2781 2784 2787 2790 2793 2796 2799 2802 2805 2808 2811 2814 2817 2820 2823 2826 2829 2832 2835 2838 2841 2844 2847 2850 2853 2856 2859 2862 2865 2868 2871 2874 2877 2880 2883 2886 2889 2892 2895 2898 2901 2904 2907 2910 2913 2916 2919 2922 2925 2928 2931 2934 2937 2940 2943 2946 2949 2952 2955 2958 2961 2964 2967 2970 2973 2976 2979 2982 2985 2988 2991 2994 2997 3000 3003 3006 3009 3012 3015 3018 3021 3024 3027 3030 3033 3036 3039 3042 3045 3048 3051 3054 3057 3060 3063 3066 3069 3072 3075 3078 3081 3084 3087 3090 3093 3096 3099 3102 3105 3108 3111 3114 3117 3120 3123 3126 3129 3132 3135 3138 3141 3144 3147 3150 3153 3156 3159 3162 
</DataArray>
<DataArray type="UInt32" Name="types" format="ascii">
5 5 5 5 5 5 5 5 5 5 5 5 5 5 5 5 5 5 5 5 5 5 5 5 5 5 5 5 5 5 5 5 5 5 5 5 5 5 5 5 5 5 5 5 5 5 5 5 5 5 5 5 5 5 5 5 5 5 5 5 5 5 5 5 5 5 5 5 5 5 5 5 5 5 5 5 5 5 5 5 5 5 5 5 5 5 5 5 5 5 5 5 5 5 5 5 5 5 5 5 5 5 5 5 5 5 5 5 5 5 5 5 5 5 5 5 5 5 5 5 5 5 5 5 5 5 5 5 5 5 5 5 5 5 5 5 5 5 5 5 5 5 5 5 5 5 5 5 5 5 5 5 5 5 5 5 5 5 5 5 5 5 5 5 5 5 5 5 5 5 5 5 5 5 5 5 5 5 5 5 5 5 5 5 5 5 5 5 5 5 5 5 5 5 5 5 5 5 5 5 5 5 5 5 5 5 5 5 5 5 5 5 5 5 5 5 5 5 5 5 5 5 5 5 5 5 5 5 5 5 5 5 5 5 5 5 5 5 5 5 5 5 5 5 5 5 5 5 5 5 5 5 5 5 5 5 5 5 5 5 5 5 5 5 5 5 5 5 5 5 5 5 5 5 5 5 5 5 5 5 5 5 5 5 5 5 5 5 5 5 5 5 5 5 5 5 5 5 5 5 5 5 5 5 5 5 5 5 5 5 5 5 5 5 5 5 5 5 5 5 5 5 5 5 5 5 5 5 5 5 5 5 5 5 5 5 5 5 5 5 5 5 5 5 5 5 5 5 5 5 5 5 5 5 5 5 5 5 5 5 5 5 5 5 5 5 5 5 5 5 5 5 5 5 5 5 5 5 5 5 5 5 5 5 5 5 5 5 5 5 5 5 5 5 5 5 5 5 5 5 5 5 5 5 5 5 5 5 5 5 5 5 5 5 5 5 5 5 5 5 5 5 5 5 5 5 5 5 5 5 5 5 5 5 5 5 5 5 5 5 5 5 5 5 5 5 5 5 5 5 5 5 5 5 5 5 5 5 5 5 5 5 5 5 5 5 5 5 5 5 5 5 5 5 5 5 5 5 5 5 5 5 5 5 5 5 5 5 5 5 5 5 5 5 5 5 5 5 5 5 5 5 5 5 5 5 5 5 5 5 5 5 5 5 5 5 5 5 5 5 5 5 5 5 5 5 5 5 5 5 5 5 5 5 5 5 5 5 5 5 5 5 5 5 5 5 5 5 5 5 5 5 5 5 5 5 5 5 5 5 5 5 5 5 5 5 5 5 5 5 5 5 5 5 5 5 5 5 5 5 5 5 5 5 5 5 5 5 5 5 5 5 5 5 5 5 5 5 5 5 5 5 5 5 5 5 5 5 5 5 5 5 5 5 5 5 5 5 5 5 5 5 5 5 5 5 5 5 5 5 5 5 5 5 5 5 5 5 5 5 5 5 5 5 5 5 5 5 5 5 5 5 5 5 5 5 5 5 5 5 5 5 5 5 5 5 5 5 5 5 5 5 5 5 5 5 5 5 5 5 5 5 5 5 5 5 5 5 5 5 5 5 5 5 5 5 5 5 5 5 5 5 5 5 5 5 5 5 5 5 5 5 5 5 5 5 5 5 5 5 5 5 5 5 5 5 5 5 5 5 5 5 5 5 5 5 5 5 5 5 5 5 5 5 5 5 5 5 5 5 5 5 5 5 5 5 5 5 5 5 5 5 5 5 5 5 5 5 5 5 5 5 5 5 5 5 5 5 5 5 5 5 5 5 5 5 5 5 5 5 5 5 5 5 5 5 5 5 5 5 5 5 5 5 5 5 5 5 5 5 5 5 5 5 5 5 5 5 5 5 5 5 5 5 5 5 5 5 5 5 5 5 5 5 5 5 5 5 5 5 5 5 5 5 5 5 5 5 5 5 5 5 5 5 5 5 5 5 5 5 5 5 5 5 5 5 5 5 5 5 5 5 5 5 5 5 5 5 5 5 5 5 5 5 5 5 5 5 5 5 5 5 5 5 5 5 5 5 5 5 5 5 5 5 5 5 5 5 5 5 5 5 5 5 5 5 5 5 5 5 5 5 5 5 5 5 5 5 5 5 5 5 5 5 5 5 5 5 5 5 5 5 5 5 5 5 5 5 5 5 5 5 5 5 5 5 5 5 5 5 5 5 5 5 5 5 5 5 5 5 5 5 5 5 5 5 5 5 5 5 5 5 5 5 5 5 5 5 5 5 5 5 5 5 5 5 5 5 5 5 5 5 5 5 5 5 5 5 5 5 5 5 5 5 5 5 5 5 5 5 5 5 5 5 5 5 5 5 5 5 5 5 5 5 5 5 5 5 5 5 5 5 5 5 5 5 5 5 5 5 5 5 5 5 
</DataArray>
</Cells>
<PointData Scalars="" Vectors="displacement," Tensors="">
<DataArray type="Float64" Name="displacement" NumberOfComponents="3" format="ascii">
-0.0002479044786785739 -0.0023709787147485344 0 -0.00017246640854264109 -0.0022133409754903168 0 -0.00012411885576173862 -0.0023445553024501616 0 0.00056180823127220106 -0.0018984022640926956 0 0.00046258459817169348 -0.0017707044118026667 0 0.00054147342567385087 -0.0017129216096395529 0 -0.0005127563321615029 -0.0011686498081714713 0 -0.00044056934750519793 -0.0012738528381395335 0 -0.00051904376564247191 -0.0013481145847094264 0 0.00017371187825155018 -0.00066236698387641475 0 0.0001305119820998887 -0.00079758529156371682 0 8.6343291150666371e-05 -0.00067507044600584201 0 0.00015471073639137682 -0.0019822146351503337 0 0.00026295649277865665 -0.0018853481083882331 0 0.00025624084813691115 -0.0020909465784572129 0 0.00035583058308110864 -0.0020123917085811075 0 0.00025624084813691115 -0.0020909465784572129 0 0.00026295649277865665 -0.0018853481083882331 0 0.00030468910076660423 -0.0012667940273555221 0 0.0002119639259945118 -0.0011126051131756245 0 0.00034242219917018788 -0.0011281842111678126 0 0.00028338695537876433 -0.00097353293386115175 0 0.00034242219917018788 -0.0011281842111678126 0 0.0002119639259945118 -0.0011126051131756245 0 0.00055421549951210555 -0.0029587271577574659 0 0.00062713732221581484 -0.003089877386870667 0 0.0004988023002595515 -0.0031073473878293154 0 -0.00090564374265860012 -0.0023956601301156886 0 -0.00097699395634841691 -0.0025133835596863842 0 -0.00098500749294261076 -0.0023203624754405375 0 0.00069055223142329869 -0.00080485737096228148 0 0.00074215788523201087 -0.00078027309505794367 0 0.00081953322283130267 -0.00094661801027557464 0 -0.00019513849013540378 -0.00024083984812609585 0 -0.00011979004166152128 -0.00012126393821464902 0 -8.766349654812051e-05 -0.00010679767819739457 0 0.00087061759732035948 -0.0032572147822738356 0 0.00077332011273640591 -0.0032642585714632707 0 0.00088732693473224139 -0.0031224259851662804 0 -0.0010662750430887522 -0.0029155999750441002 0 -0.0010703089921112921 -0.0027524296649716674 0 -0.00099470148241874402 -0.0029367338265109139 0 -0.00043821955377509495 -0.00034658220947100549 0 -0.00067482899985199876 -0.00062441747194437415 0 -0.00052912649156062975 -0.00046053511196960333 0 -0.00088773075100099868 -0.003122407631339624 0 -0.00077361142194608951 -0.0032643117446360765 0 -0.00087096696331383466 -0.0032572243805263144 0 0.00014961788057348625 -9.6761021246382262e-05 0 2.5449679813620412e-08 -1.0712327261037138e-07 0 6.0330509300487921e-08 -1.4107390525311924e-07 0 0.00099450043412593805 -0.0029367183642364505 0 0.0010701823839357292 -0.0027525395383915336 0 0.001066048542930865 -0.0029155977453431225 0 0.00052971194980356076 -0.00046019338521385692 0 0.00067613734966410718 -0.00062355824771034006 0 0.00043886817842268578 -0.00034634652476743196 0 -6.0318987906994004e-08 -1.4245835844087045e-07 0 -2.5298612665005262e-08 -1.057455444641739e-07 0 -0.00014980934500867445 -9.7257707395927961e-05 0 0.00077963328575177181 -0.00076959063165540486 0 0.00074215788523201087 -0.00078027309505794367 0 0.00067615011526108804 -0.00064299911665745518 0 -3.6270618461195264e-08 -1.2085444276226093e-07 0 -0.00011979004166152128 -0.00012126393821464902 0 -0.00010319304866969543 -8.8426328485099103e-05 0 0.00067116786126335997 -0.0032702001030457178 0 0.00062713732221581484 -0.003089877386870667 0 0.00073079861944014713 -0.0031175188682534185 0 -0.0010716933265674223 -0.0025894118285010917 0 -0.00097699395634841691 -0.0025133835596863842 0 -0.00099227663852906605 -0.0026772290840625648 0 0.0010715411177772433 -0.0025896793178043992 0 0.0010006526383331787 -0.0026536429507367635 0 0.00097163099583034117 -0.0024834440115067413 0 3.5657329460994633e-08 -1.2089934809885443e-07 0 0.00010242939081439958 -8.8228735930585362e-05 0 0.00012165552838816237 -0.00012324666383665766 0 -0.00067163111038712794 -0.0032701221019693183 0 -0.00071577555496018261 -0.0031339142250308436 0 -0.00060837108892819523 -0.003080342640574212 0 -0.00077990937282139048 -0.00076970488729753771 0 -0.00067463230594729765 -0.00064028284265399394 0 -0.00074554251875888532 -0.00078783941426925381 0 -1.0786098998901747e-07 -0.0024977033859799025 0 8.900385615298793e-05 -0.0025725090548799033 0 -5.5253324492241755e-06 -0.0027120272280701258 0 -0.00062458401457774198 -0.0015459369504894529 0 -0.00067580556916123022 -0.0016831891830339206 0 -0.00074785263498616697 -0.0015633638184508335 0 0.00062429202437789839 -0.0015459776078792485 0 0.00065741693066820783 -0.001425704011592909 0 0.00074875972146642175 -0.0015789619660197063 0 -1.3454590310254055e-07 -0.00054594288046636691 0 -5.0788077278138216e-05 -0.00048518323548474404 0 3.222798048338061e-06 -0.00037335808453775214 0 0.00067116786126335997 -0.0032702001030457178 0 0.00056533772251557673 -0.003274914253554979 0 0.00062713732221581484 -0.003089877386870667 0 -0.0010716933265674223 -0.0025894118285010917 0 -0.001072252169234204 -0.0024266415676567903 0 -0.00097699395634841691 -0.0025133835596863842 0 0.00077963328575177181 -0.00076959063165540486 0 0.00085970741270372669 -0.00091376774297895116 0 0.00074215788523201087 -0.00078027309505794367 0 -3.6270618461195264e-08 -1.2085444276226093e-07 0 -2.0149374557346032e-08 -1.1413142016399376e-07 0 -0.00011979004166152128 -0.00012126393821464902 0 0.0010720861685742957 -0.0024267283993766112 0 0.0010715411177772433 -0.0025896793178043992 0 0.00097163099583034117 -0.0024834440115067413 0 2.1573826550744643e-08 -1.1276980984386952e-07 0 3.5657329460994633e-08 -1.2089934809885443e-07 0 0.00012165552838816237 -0.00012324666383665766 0 -0.00056554584312688437 -0.003274924076015154 0 -0.00067163111038712794 -0.0032701221019693183 0 -0.00060837108892819523 -0.003080342640574212 0 -0.00086043886594157403 -0.00091371251272954698 0 -0.00077990937282139048 -0.00076970488729753771 0 -0.00074554251875888532 -0.00078783941426925381 0 0.0010720861685742957 -0.0024267283993766112 0 0.00097163099583034117 -0.0024834440115067413 0 0.00097541356765513205 -0.0023008756121836332 0 2.1573826550744643e-08 -1.1276980984386952e-07 0 0.00012165552838816237 -0.00012324666383665766 0 9.1121765247457006e-05 -0.00011314742468214043 0 -0.00056554584312688437 -0.003274924076015154 0 -0.00060837108892819523 -0.0030803426405742124 0 -0.00048675046050595708 -0.003090115683142687 0 -0.00086043886594157403 -0.00091371251272954698 0 -0.00074554251875888532 -0.00078783941426925381 0 -0.0008205157443316798 -0.00095894977851484489 0 0.00074382499730205509 -0.0026836580576817073 0 0.00084088045693589528 -0.002621714905471439 0 0.00086482730525424363 -0.0027658595225818982 0 -0.00074412856850487419 -0.002683559542826168 0 -0.00070298925435600046 -0.0028463559866493825 0 -0.00079018891611565235 -0.0028897356687312549 0 -0.0002479044786785739 -0.0023709787147485344 0 -0.00012411885576173862 -0.0023445553024501616 0 -0.00015838615352807559 -0.0024988667512405569 0 0.00056180823127220106 -0.0018984022640926956 0 0.00054147342567385087 -0.0017129216096395529 0 0.00063632607515762968 -0.0017767794662964353 0 -0.0005127563321615029 -0.0011686498081714713 0 -0.00051904376564247191 -0.0013481145847094264 0 -0.00060414141187447776 -0.0013157571202466554 0 0.00017371187825155018 -0.00066236698387641475 0 8.6343291150666357e-05 -0.0006750704460058419 0 9.8519951313987407e-05 -0.00054605247601412134 0 0.00088732693473224139 -0.0031224259851662804 0 0.00077332011273640591 -0.0032642585714632707 0 0.00081295386409849192 -0.0030850129802230909 0 -0.00099470148241874402 -0.0029367338265109139 0 -0.0010703089921112921 -0.0027524296649716674 0 -0.00097424891275844309 -0.0028100444007309482 0 -0.00053045299819238795 -0.00045799707899862857 0 -0.00067482899985199876 -0.00062441747194437415 0 -0.00043821955377509495 -0.00034658220947100549 0 -0.00080337683729426079 -0.0030632373077077095 0 -0.00077361142194608951 -0.0032643117446360765 0 -0.00088773075100099868 -0.003122407631339624 0 0.00017018614359243586 -0.0001357980505358212 0 2.5449679813620098e-08 -1.0712327261037078e-07 0 0.00014961788057348625 -9.6761021246382262e-05 0 0.00096248416115633567 -0.0027928838462976655 0 0.0010701823839357292 -0.0027525395383915336 0 0.00099450043412593805 -0.0029367183642364505 0 0.00043886817842268578 -0.00034634652476743196 0 0.00067613734966410718 -0.00062355824771034016 0 0.000535827680949725 -0.00046555264041329113 0 -0.00014980934500867445 -9.7257707395927961e-05 0 -2.5298612665000203e-08 -1.0574554446417061e-07 0 -0.0001813315029652873 -0.00014536175017727752 0 -0.00068739023232773937 -0.00081761665693183333 0 -0.00064198662603698006 -0.00068806915561976211 0 -0.00054732017968438468 -0.00065924439022332947 0 0.00020105752702990711 -0.00025486911177077104 0 0.00021953171950835141 -0.00023917886844137081 0 0.00032509442189684363 -0.00040346730196435382 0 0.00086841453441719905 -0.0023768784171919076 0 0.00089524844541255771 -0.0025170238633167733 0 0.00076835666340450168 -0.0024871657596987448 0 -0.00054465205268162638 -0.0028910360956846304 0 -0.00063400474242183643 -0.0029416016616090786 0 -0.00062125421461419351 -0.0027191966637379324 0 0.00055421549951210555 -0.0029587271577574659 0 0.0004988023002595515 -0.0031073473878293154 0 0.00047236726222655315 -0.0029310879674516979 0 -0.00090564374265860012 -0.0023956601301156886 0 -0.00098500749294261076 -0.0023203624754405375 0 -0.00089051615435608363 -0.0022715213360301138 0 0.00069055223142329869 -0.00080485737096228148 0 0.00081953322283130267 -0.00094661801027557464 0 0.00074196829404469384 -0.00093174022791593029 0 -0.00019513849013540378 -0.00024083984812609585 0 -8.766349654812051e-05 -0.00010679767819739457 0 -0.00015924873034782087 -0.00022865739989616705 0 9.0069719981212515e-05 -0.00015640947313010924 0 9.9459160590454615e-05 -0.00024401162475796122 0 4.8856487530550945e-05 -0.00012630543600840395 0 0.00093757097397157438 -0.0021206995371952828 0 0.00086668481353935117 -0.0019942747041888872 0 0.00095698374354762626 -0.0019513913343476119 0 -0.00083777889461422684 -0.0011093757747826258 0 -0.00079649919799520833 -0.0011973380761382364 0 -0.00089603672388802484 -0.0012861635357120317 0 -0.00036558954333402305 -0.0030220101076462 0 -0.00028403848922518588 -0.0028942249262956447 0 -0.00024391236147656501 -0.0030676153442726587 0 -5.5253324492241755e-06 -0.0027120272280701258 0 8.900385615298793e-05 -0.0025725090548799033 0 9.5199162783852784e-05 -0.0027242139891205637 0 -0.00074785263498616697 -0.0015633638184508335 0 -0.00067580556916123022 -0.0016831891830339206 0 -0.00076292745883312009 -0.0017085098827939725 0 0.00074875972146642175 -0.0015789619660197063 0 0.00065741693066820772 -0.0014257040115929088 0 0.00074234972817300887 -0.0014371609050326942 0 3.222798048338061e-06 -0.00037335808453775214 0 -5.0788077278138223e-05 -0.0004851832354847441 0 -4.4117818287938465e-05 -0.00036679259426657118 0 0.00074382499730205509 -0.0026836580576817073 0 0.00086482730525424374 -0.0027658595225818982 0 0.00078821212409423374 -0.0028469481146762466 0 -0.00074412856850487419 -0.002683559542826168 0 -0.00079018891611565235 -0.0028897356687312549 0 -0.00084046673010320619 -0.0027610964422798319 0 0.00042991836783071863 -0.00046213309956648964 0 0.00035207625461974802 -0.00032796468045385839 0 0.00047150170689862594 -0.00043322146067341474 0 -0.00042689499941092379 -0.00045830200560615573 0 -0.00045255541571823083 -0.00042371991778326998 0 -0.00032724322395254885 -0.00029592749801565538 0 -0.00054732017968438468 -0.00065924439022332947 0 -0.00064198662603698006 -0.00068806915561976211 0 -0.00053789264154021081 -0.00055659222651428374 0 0.00032509442189684363 -0.00040346730196435382 0 0.00021953171950835141 -0.00023917886844137081 0 0.00030751153580321582 -0.00032017277921373002 0 0.00042991836783071863 -0.00046213309956648964 0 0.00047150170689862594 -0.00043322146067341474 0 0.00053689310830676957 -0.00055633722075463762 0 -0.00042689499941092379 -0.00045830200560615573 0 -0.00032724322395254885 -0.00029592749801565538 0 -0.00030859104067471776 -0.00032222482209803529 0 -0.00041678905757268326 -0.002447145917973105 0 -0.000369550795427801 -0.0022774792104249919 0 -0.00033291496771208203 -0.0024918753689591598 0 0.00060790813874228046 -0.0021577051874732338 0 0.00050000905713618613 -0.002073815073752836 0 0.0006359440675259314 -0.0020337656176733715 0 -0.00050762810764036124 -0.00092843160745479834 0 -0.00042674682879515814 -0.00098022978010089512 0 -0.00055956798381192544 -0.0010584884330920577 0 0.00028142142517937203 -0.00061507174282576381 0 0.0002800317738380599 -0.0007658727444728716 0 0.00021215322872505203 -0.00056501637606875242 0 -0.00054465205268162638 -0.0028910360956846304 0 -0.00048675046050595708 -0.003090115683142687 0 -0.00060837108892819523 -0.003080342640574212 0 -0.00068739023232773937 -0.00081761665693183333 0 -0.0008205157443316798 -0.00095894977851484478 0 -0.00074554251875888532 -0.00078783941426925381 0 0.00086841453441719905 -0.0023768784171919076 0 0.00097541356765513205 -0.0023008756121836332 0 0.00097163099583034117 -0.0024834440115067413 0 0.00020105752702990711 -0.00025486911177077104 0 9.1121765247457006e-05 -0.00011314742468214043 0 0.00012165552838816237 -0.00012324666383665766 0 -0.00062125421461419351 -0.0027191966637379324 0 -0.00063400474242183643 -0.0029416016616090786 0 -0.00070298925435600046 -0.0028463559866493829 0 0.00076835666340450168 -0.0024871657596987448 0 0.00089524844541255771 -0.0025170238633167733 0 0.00084088045693589528 -0.002621714905471439 0 -0.00033291496771208203 -0.0024918753689591598 0 -0.000369550795427801 -0.0022774792104249919 0 -0.0002479044786785739 -0.0023709787147485344 0 0.0006359440675259314 -0.0020337656176733715 0 0.00050000905713618613 -0.002073815073752836 0 0.00056180823127220106 -0.0018984022640926956 0 -0.00055956798381192544 -0.0010584884330920577 0 -0.00042674682879515814 -0.00098022978010089512 0 -0.0005127563321615029 -0.0011686498081714713 0 0.00021215322872505203 -0.00056501637606875242 0 0.0002800317738380599 -0.0007658727444728716 0 0.00017371187825155018 -0.00066236698387641475 0 0.00017477099408150714 -0.0017947916224267291 0 8.3032949018807753e-05 -0.0018527598321055085 0 7.1498674830011084e-05 -0.0016789139154196582 0 0.001062856139237958 -0.0019478487551134631 0 0.00095698374354762626 -0.0019513913343476119 0 0.00098100322247503128 -0.0018120718723682008 0 1.1906656316701837e-08 -1.1482208184370794e-07 0 4.8856487530550945e-05 -0.00012630543600840395 0 2.0980391455549798e-05 -8.760172171362169e-05 0 -0.00023117220769429777 -0.0032824935570381544 0 -0.00024391236147656501 -0.0030676153442726587 0 -0.00013962512193605537 -0.0031279292020757114 0 -0.0010009210840509612 -0.0013407901389926686 0 -0.00089603672388802484 -0.0012861635357120317 0 -0.0009478517845807671 -0.0014359340178384248 0 -0.00015021573561735345 -0.0029373973410900481 0 -3.1278378218808839e-05 -0.0030522003843418319 0 -0.00013962512193605537 -0.0031279292020757114 0 -0.00085030213172493613 -0.0013920298098805232 0 -0.00092724328913797985 -0.0015714535990377931 0 -0.0009478517845807671 -0.0014359340178384248 0 0.00088398822484963191 -0.0018086601911551574 0 0.00093400729291139776 -0.0016562789340670275 0 0.00098100322247503128 -0.0018120718723682008 0 4.6830657963164574e-05 -0.00021036620990540328 0 6.642179206950935e-06 -0.00013382782966030811 0 2.0980391455549798e-05 -8.760172171362169e-05 0 0.00017052959804438858 -0.0016470506558008157 0 0.00017477099408150714 -0.0017947916224267291 0 7.1498674830011084e-05 -0.0016789139154196582 0 0.0010702967906231122 -0.0022649702686890817 0 0.0010720861685742957 -0.0024267283993766112 0 0.00097541356765513205 -0.0023008756121836332 0 1.3246110395739143e-08 -1.2061103969544942e-07 0 2.1573826550744643e-08 -1.1276980984386952e-07 0 9.1121765247457006e-05 -0.00011314742468214043 0 -0.00045619262996695242 -0.0032781427832357097 0 -0.00056554584312688437 -0.003274924076015154 0 -0.00048675046050595708 -0.003090115683142687 0 -0.00091916719627713108 -0.0010563800554009358 0 -0.00086043886594157403 -0.00091371251272954698 0 -0.0008205157443316798 -0.00095894977851484489 0 0.00088398822484963191 -0.0018086601911551574 0 0.00078670454277511039 -0.0018948230401092043 0 0.00078879892176014473 -0.0017335348692528692 0 -0.00015021573561735345 -0.0029373973410900481 0 -0.00022360812234884864 -0.0027536997501805402 0 -0.00010947758756390695 -0.0027678823395685735 0 4.6830657963164574e-05 -0.00021036620990540328 0 0.00010030458513356841 -0.00034540912868010864 0 4.9127698214899003e-05 -0.000331897715191598 0 -0.00085030213172493613 -0.0013920298098805232 0 -0.0007358012154781347 -0.0012582375847731669 0 -0.00076543121414675373 -0.0014229550380670851 0 0.00088398822484963191 -0.0018086601911551574 0 0.00086668481353935117 -0.0019942747041888872 0 0.00078670454277511039 -0.0018948230401092043 0 4.6830657963164574e-05 -0.00021036620990540328 0 9.9459160590454615e-05 -0.00024401162475796119 0 0.00010030458513356841 -0.00034540912868010864 0 -0.00015021573561735345 -0.0029373973410900481 0 -0.00028403848922518588 -0.0028942249262956447 0 -0.00022360812234884864 -0.0027536997501805402 0 -0.00085030213172493613 -0.0013920298098805232 0 -0.00079649919799520833 -0.0011973380761382364 0 -0.0007358012154781347 -0.0012582375847731669 0 0.00056180823127220106 -0.0018984022640926956 0 0.0004477283585339619 -0.0019115450981424548 0 0.00046258459817169348 -0.001770704411802667 0 -0.0002479044786785739 -0.0023709787147485344 0 -0.00026786699716641201 -0.002188063967309218 0 -0.00017246640854264109 -0.0022133409754903168 0 0.00017371187825155018 -0.00066236698387641475 0 0.00020750007222753195 -0.00083095966880457827 0 0.0001305119820998887 -0.00079758529156371682 0 -0.0005127563321615029 -0.0011686498081714713 0 -0.000407545771819639 -0.0011442679635552634 0 -0.00044056934750519793 -0.0012738528381395335 0 3.5085164116114958e-05 -0.0021978978525820886 0 0.00016671293093172124 -0.0021983966826054939 0 0.00010561221666783933 -0.0023790340254178518 0 -0.00044696615241197326 -0.0015695708861925384 0 -0.00045106538844511695 -0.0017605840882747347 0 -0.00056182438799519667 -0.001688606743671259 0 0.00044786376688566766 -0.0014646449728841235 0 0.00042438462093483044 -0.0012739618128575284 0 0.0005421337030934928 -0.0013784132411825474 0 -3.0134354078538828e-05 -0.00079032278641801284 0 -0.00012804383018331689 -0.00081431745761876477 0 -7.2907031180242116e-05 -0.00064771490645145857 0 0.000602207486640461 -0.000580833707931213 0 0.00067615011526108804 -0.00064299911665745518 0 0.00074215788523201087 -0.00078027309505794367 0 -0.00021147819347357115 -0.00019490610925588871 0 -0.00010319304866969543 -8.8426328485099103e-05 0 -0.00011979004166152128 -0.00012126393821464902 0 0.00071431125007103097 -0.0029713246627147485 0 0.00073079861944014713 -0.0031175188682534185 0 0.00062713732221581484 -0.003089877386870667 0 -0.00091243881391830516 -0.0026454535352062767 0 -0.00099227663852906605 -0.0026772290840625648 0 -0.00097699395634841691 -0.0025133835596863842 0 0.00092202472766695948 -0.0026494497168995084 0 0.00097163099583034117 -0.0024834440115067413 0 0.0010006526383331787 -0.0026536429507367635 0 0.00021988744944481827 -0.00019848412699678363 0 0.00012165552838816237 -0.00012324666383665766 0 0.00010242939081439958 -8.8228735930585362e-05 0 -0.00071668045230168897 -0.0029891847814204659 0 -0.00060837108892819523 -0.003080342640574212 0 -0.00071577555496018261 -0.0031339142250308436 0 -0.00059340189138488183 -0.00056847479314846305 0 -0.00074554251875888532 -0.00078783941426925381 0 -0.00067463230594729765 -0.00064028284265399394 0 0.00023180886115268612 -0.0023691958965674485 0 0.00010561221666783933 -0.0023790340254178518 0 0.00016671293093172124 -0.0021983966826054939 0 -0.0005602747617053296 -0.0018749951771058352 0 -0.00056182438799519667 -0.001688606743671259 0 -0.00045106538844511695 -0.0017605840882747347 0 0.00051480322688294677 -0.0011917948117708703 0 0.0005421337030934928 -0.0013784132411825474 0 0.00042438462093483044 -0.0012739618128575284 0 -0.00016343874763437391 -0.00066451986009798581 0 -7.2907031180242116e-05 -0.00064771490645145857 0 -0.00012804383018331689 -0.00081431745761876477 0 0.00075096252586001047 -0.0023379895868338692 0 0.00064295630290055108 -0.0022845650642980297 0 0.00070331543015590529 -0.0021450185996524812 0 -0.00052610299163779626 -0.0026871981475048092 0 -0.00049761585843734245 -0.0025065505806392287 0 -0.00040224292262265522 -0.0026042817632966216 0 0.00028021827900483317 -0.00042048448323056797 0 0.0003233991414052859 -0.00057374664086668229 0 0.00023008147298832747 -0.00047626383044220051 0 -0.00059002914700724833 -0.00080035754061416001 0 -0.00050736598099081849 -0.00081563613729888191 0 -0.00060023875185841972 -0.00097231879899773463 0 0.00080167288187301701 -0.0022277671791604298 0 0.00075096252586001047 -0.0023379895868338692 0 0.00070331543015590529 -0.0021450185996524812 0 0.00020489612699280685 -0.00034179677670023479 0 0.00028021827900483317 -0.00042048448323056797 0 0.00023008147298832747 -0.00047626383044220051 0 -0.00045006376952523369 -0.002773126442805366 0 -0.00052610299163779626 -0.0026871981475048092 0 -0.00040224292262265522 -0.0026042817632966216 0 -0.00067267770146905558 -0.00093247202231702513 0 -0.00059002914700724833 -0.00080035754061416001 0 -0.00060023875185841972 -0.00097231879899773463 0 0.00035583058308110864 -0.0020123917085811075 0 0.0004477283585339619 -0.0019115450981424548 0 0.00050000905713618613 -0.002073815073752836 0 -0.00033005084703334545 -0.0020435173740402071 0 -0.00026786699716641201 -0.002188063967309218 0 -0.000369550795427801 -0.0022774792104249919 0 0.00028338695537876433 -0.00097353293386115175 0 0.00020750007222753195 -0.00083095966880457827 0 0.0002800317738380599 -0.0007658727444728716 0 -0.00030598347987567469 -0.0010085067724947725 0 -0.000407545771819639 -0.0011442679635552634 0 -0.00042674682879515814 -0.00098022978010089512 0 0.00039514519156886685 -0.0026386324952919486 0 0.00039326951672439425 -0.002858510258533376 0 0.00032674239640009036 -0.0027358628217112185 0 0.00046615865046413166 -0.0027292872956132625 0 0.0003932695167243943 -0.002858510258533376 0 0.00039514519156886685 -0.0026386324952919486 0 -0.00072352142102430849 -0.002137145467231824 0 -0.00084950747028640389 -0.0021498655371274991 0 -0.00077947996741965016 -0.0020432651348428932 0 -0.00077652361189004839 -0.0022492965967218516 0 -0.00084950747028640389 -0.0021498655371274991 0 -0.00072352142102430849 -0.002137145467231824 0 0.00062145303946706948 -0.00098829884230718502 0 0.00074175129834073278 -0.0010331565077656073 0 0.00069789577480728823 -0.0011064706961691822 0 0.00064157735710512298 -0.00089980298429020447 0 0.00074175129834073278 -0.0010331565077656075 0 0.00062145303946706948 -0.00098829884230718502 0 -0.00021726293952233896 -0.00044861097625809433 0 -0.00015099557163643449 -0.0002739700123975492 0 -0.00015398201756179836 -0.0003637632085101638 0 -0.0002292740711584594 -0.0003796270993045919 0 -0.00015099557163643449 -0.0002739700123975492 0 -0.00021726293952233896 -0.00044861097625809433 0 -1.9132101217615004e-05 -0.0018125166389691991 0 2.7555541601239415e-05 -0.0019924853362546613 0 -0.00010581089095128313 -0.0019476045306743039 0 0.00010597910312252497 -0.0012178497293608692 0 1.0323091644357024e-05 -0.0011606833015586164 0 9.7133535822474748e-05 -0.001062391700201801 0 -0.00015021573561735345 -0.0029373973410900481 0 -2.930782109560069e-05 -0.0028939625922343366 0 -3.1278378218808839e-05 -0.0030522003843418319 0 -0.00085030213172493613 -0.0013920298098805232 0 -0.00084491965270449925 -0.0015534546781702597 0 -0.00092724328913797985 -0.0015714535990377931 0 0.00088398822484963191 -0.0018086601911551574 0 0.00085095318198624248 -0.0016352013219456554 0 0.00093400729291139776 -0.0016562789340670275 0 4.6830657963164574e-05 -0.00021036620990540328 0 1.0463548615246729e-05 -0.00024053725485268941 0 6.642179206950935e-06 -0.00013382782966030811 0 -1.9132101217615004e-05 -0.0018125166389691991 0 8.3032949018807753e-05 -0.0018527598321055085 0 2.7555541601239415e-05 -0.0019924853362546613 0 0.00015471073639137682 -0.0019822146351503337 0 2.7555541601239415e-05 -0.0019924853362546613 0 8.3032949018807753e-05 -0.0018527598321055085 0 9.0069719981212515e-05 -0.00015640947313010924 0 0.00014217374938582243 -0.00026429084500556414 0 9.9459160590454615e-05 -0.00024401162475796122 0 0.00093757097397157438 -0.0021206995371952828 0 0.00085583837633753203 -0.002128595142961156 0 0.00086668481353935117 -0.0019942747041888872 0 -0.00036558954333402305 -0.0030220101076462 0 -0.00037807580378162813 -0.0028708814149828459 0 -0.00028403848922518588 -0.0028942249262956447 0 -0.00083777889461422684 -0.0011093757747826258 0 -0.00075341525071357524 -0.0010583191481675239 0 -0.00079649919799520833 -0.0011973380761382364 0 0.00074382499730205509 -0.0026836580576817073 0 0.00067211524198093489 -0.0025700305370881206 0 0.00076835666340450168 -0.0024871657596987448 0 -0.00074412856850487419 -0.002683559542826168 0 -0.0006770493901885722 -0.0025628661345629407 0 -0.00062125421461419351 -0.0027191966637379324 0 0.00042991836783071863 -0.00046213309956648964 0 0.00044240305162513918 -0.0005630896794897736 0 0.00032509442189684363 -0.00040346730196435382 0 -0.00042689499941092379 -0.00045830200560615573 0 -0.00042269338719677185 -0.00054006855075611183 0 -0.00054732017968438468 -0.00065924439022332947 0 0.00077922477227631703 -0.0020432837354079914 0 0.00070331543015590529 -0.0021450185996524812 0 0.00068843705911159287 -0.0019415933333924486 0 -0.00032700767464957246 -0.0027359144744965652 0 -0.00040224292262265522 -0.0026042817632966216 0 -0.00026596371140694429 -0.0025812255344375124 0 0.00015401925971998288 -0.00036467347058051323 0 0.00023008147298832747 -0.00047626383044220051 0 0.00015423974061447852 -0.00048499559600007557 0 -0.00069821035653206906 -0.001105877354396769 0 -0.00060023875185841972 -0.00097231879899773463 0 -0.00062940345974110614 -0.0011695598486467112 0 0.00026295649277865665 -0.0018853481083882331 0 0.00027449667151828352 -0.0016945605683739895 0 0.00036059197862870114 -0.0018420313509803765 0 0.00055421549951210555 -0.0029587271577574659 0 0.00063809553735680649 -0.0028846864036607134 0 0.00062713732221581484 -0.003089877386870667 0 -0.00090564374265860012 -0.0023956601301156886 0 -0.00086389459819730466 -0.002521205685295869 0 -0.00097699395634841691 -0.0025133835596863842 0 0.00071431125007103097 -0.0029713246627147485 0 0.00062713732221581484 -0.003089877386870667 0 0.00063809553735680649 -0.0028846864036607134 0 -0.00091243881391830516 -0.0026454535352062767 0 -0.00097699395634841691 -0.0025133835596863842 0 -0.00086389459819730466 -0.002521205685295869 0 0.0005547413475024594 -0.0025658242578141129 0 0.00067211524198093489 -0.0025700305370881206 0 0.00064652770062345729 -0.002711001087637378 0 0.00074382499730205509 -0.0026836580576817073 0 0.00064652770062345729 -0.002711001087637378 0 0.00067211524198093489 -0.0025700305370881206 0 -0.00067854319330367535 -0.0023757570227874204 0 -0.0006770493901885722 -0.0025628661345629407 0 -0.00076329661567338283 -0.0025268669544327733 0 -0.00074412856850487419 -0.002683559542826168 0 -0.00076329661567338283 -0.0025268669544327733 0 -0.0006770493901885722 -0.0025628661345629407 0 0.0005099678281405705 -0.00073733925252949758 0 0.00044240305162513913 -0.0005630896794897736 0 0.00055155131248870403 -0.00065759175401492571 0 0.00042991836783071863 -0.00046213309956648964 0 0.00055155131248870403 -0.00065759175401492571 0 0.00044240305162513913 -0.0005630896794897736 0 -0.00034367382092962827 -0.00052831276800034178 0 -0.00042269338719677185 -0.00054006855075611183 0 -0.00031866296557224211 -0.00038971431504801197 0 -0.00042689499941092379 -0.00045830200560615573 0 -0.00031866296557224211 -0.00038971431504801197 0 -0.00042269338719677185 -0.00054006855075611183 0 0.00088314268861317902 -0.0029291591647167227 0 0.0009575368448962821 -0.003057199378947354 0 0.00088732693473224139 -0.0031224259851662804 0 0.00034997063103885963 -0.00027472379843922152 0 0.00025888296319208619 -0.00017512601147074615 0 0.00043886817842268578 -0.00034634652476743196 0 0.00034997063103885963 -0.00027472379843922152 0 0.00014961788057348623 -9.6761021246382235e-05 0 0.00025888296319208619 -0.00017512601147074615 0 -0.00088649743333679937 -0.0029235793549806303 0 -0.0009579273838278905 -0.0030571184763385447 0 -0.00099470148241874402 -0.0029367338265109139 0 0.00088314268861317902 -0.0029291591647167227 0 0.00099450043412593805 -0.0029367183642364505 0 0.0009575368448962821 -0.003057199378947354 0 -0.0003535153021894378 -0.00027896914086284125 0 -0.00025826546341050667 -0.00017455825558993385 0 -0.00014980934500867445 -9.7257707395927961e-05 0 -0.0003535153021894378 -0.00027896914086284125 0 -0.00043821955377509495 -0.00034658220947100549 0 -0.00025826546341050673 -0.00017455825558993383 0 -0.00088649743333679937 -0.0029235793549806303 0 -0.00088773075100099868 -0.003122407631339624 0 -0.0009579273838278905 -0.0030571184763385447 0 0.00088398822484963191 -0.0018086601911551574 0 0.00095698374354762626 -0.0019513913343476119 0 0.00086668481353935117 -0.0019942747041888872 0 -0.00015021573561735345 -0.0029373973410900481 0 -0.00024391236147656501 -0.0030676153442726587 0 -0.00028403848922518588 -0.0028942249262956447 0 4.6830657963164574e-05 -0.00021036620990540328 0 4.8856487530550945e-05 -0.00012630543600840395 0 9.9459160590454615e-05 -0.00024401162475796122 0 -0.00085030213172493613 -0.0013920298098805232 0 -0.00089603672388802484 -0.0012861635357120317 0 -0.00079649919799520833 -0.0011973380761382364 0 0.00035583058308110864 -0.0020123917085811075 0 0.00034107823052491646 -0.0022024633674542636 0 0.00025624084813691115 -0.0020909465784572129 0 -0.00033005084703334545 -0.0020435173740402071 0 -0.00045610603300844278 -0.0020290306473031319 0 -0.00039069476720155204 -0.0018917337459355638 0 0.00028338695537876433 -0.00097353293386115175 0 0.00039357228901189473 -0.001012074508212 0 0.00034242219917018788 -0.0011281842111678126 0 -0.00030598347987567469 -0.0010085067724947725 0 -0.0002678450298365408 -0.00082704448024968548 0 -0.00021122198752889854 -0.0009195046068363105 0 0.0010537732960292569 -0.0017915252534698172 0 0.001062856139237958 -0.0019478487551134631 0 0.00098100322247503128 -0.0018120718723682008 0 -2.6595281218389785e-10 -1.2026557724112045e-07 0 1.1906656316701837e-08 -1.1482208184370794e-07 0 2.0980391455549798e-05 -8.760172171362169e-05 0 -0.00011588240253716065 -0.0032829786040980483 0 -0.00023117220769429777 -0.0032824935570381544 0 -0.00013962512193605537 -0.0031279292020757114 0 -0.0010239229191932112 -0.0014889765081647303 0 -0.0010009210840509612 -0.0013407901389926686 0 -0.0009478517845807671 -0.0014359340178384248 0 0.00034411770762292864 -0.00027337376399007551 0 0.00043886817842268578 -0.00034634652476743196 0 0.00025888296319208619 -0.00017512601147074615 0 2.0555251928279164e-09 -9.8419790293458359e-08 0 -0.00014980934500867445 -9.7257707395927961e-05 0 -0.00025826546341050673 -0.00017455825558993383 0 -2.5863039569849696e-09 -9.8861523626734811e-08 0 0.00025888296319208619 -0.00017512601147074615 0 0.00014961788057348625 -9.6761021246382262e-05 0 0.001062387175635884 -0.0030787656298118119 0 0.0009575368448962821 -0.003057199378947354 0 0.00099450043412593805 -0.0029367183642364505 0 0.00096573178307300743 -0.003249391896860417 0 0.00088732693473224139 -0.0031224259851662809 0 0.0009575368448962821 -0.003057199378947354 0 -0.0010627678519053527 -0.0030788095138100761 0 -0.00099470148241874402 -0.0029367338265109139 0 -0.0009579273838278905 -0.0030571184763385447 0 -0.00034375155572015376 -0.00027357105344094521 0 -0.00025826546341050673 -0.00017455825558993383 0 -0.00043821955377509495 -0.00034658220947100549 0 -0.00096612740317555815 -0.0032493665960035907 0 -0.0009579273838278905 -0.0030571184763385447 0 -0.00088773075100099868 -0.003122407631339624 0 0.00011580384614705028 -0.003283268955915792 0 0.00012343202872118391 -0.0030989023699461993 0 0.0002161822132951268 -0.0031366088329142301 0 -0.0010553243528228619 -0.001791327627908932 0 -0.00096522694789577394 -0.001787557554345654 0 -0.00099089962402173506 -0.0019183996488827959 0 0.0010253535295449959 -0.0014885824110053532 0 0.00093540855133293491 -0.0014537509502808926 0 0.00093609129820111116 -0.001334814260738382 0 -4.3616864016121177e-09 -1.1516819424715208e-07 0 -2.0606391310382144e-05 -0.00010819696469513964 0 -3.0679032996413973e-05 -8.2842069012435514e-05 0 0.00042991836783071863 -0.00046213309956648964 0 0.00032509442189684363 -0.00040346730196435382 0 0.00030751153580321582 -0.00032017277921373002 0 -0.00042689499941092379 -0.00045830200560615573 0 -0.00054732017968438468 -0.00065924439022332947 0 -0.00053789264154021081 -0.00055659222651428374 0 0.0005547413475024594 -0.0025658242578141129 0 0.00055559853850987149 -0.00279775882883936 0 0.00046615865046413166 -0.0027292872956132625 0 -0.00067854319330367535 -0.0023757570227874204 0 -0.00081543556783496448 -0.0023893747241849239 0 -0.00077652361189004839 -0.0022492965967218516 0 0.0005099678281405705 -0.00073733925252949758 0 0.00062039248741639435 -0.00078794881982152253 0 0.00064157735710512298 -0.00089980298429020447 0 -0.00034367382092962827 -0.00052831276800034178 0 -0.0002586152280907065 -0.00035683548732580184 0 -0.0002292740711584594 -0.0003796270993045919 0 8.0468999586716489e-05 -0.0028755529010354628 0 -2.930782109560069e-05 -0.0028939625922343366 0 -5.5253324492241755e-06 -0.0027120272280701258 0 -0.00084585185251827494 -0.0017048708024006904 0 -0.00084491965270449925 -0.0015534546781702597 0 -0.00074785263498616697 -0.0015633638184508335 0 0.00082791278106306512 -0.0014793236949277415 0 0.00085095318198624248 -0.0016352013219456554 0 0.00074875972146642175 -0.0015789619660197063 0 -2.9675824760765668e-05 -0.00025398432908511914 0 1.0463548615246729e-05 -0.00024053725485268941 0 3.222798048338061e-06 -0.00037335808453775214 0 -0.00068739023232773937 -0.00081761665693183333 0 -0.00075768359871829075 -0.00097379226811197296 0 -0.0008205157443316798 -0.00095894977851484489 0 -0.00054465205268162638 -0.0028910360956846304 0 -0.00044545758738439727 -0.0029293084966644468 0 -0.00048675046050595708 -0.003090115683142687 0 0.00020105752702990711 -0.00025486911177077104 0 0.00014871395919107731 -0.00022373253113601704 0 9.1121765247457006e-05 -0.00011314742468214043 0 0.00086841453441719905 -0.0023768784171919076 0 0.00088883881581832487 -0.002231500703974384 0 0.00097541356765513205 -0.0023008756121836332 0 0.00064295630290055108 -0.0022845650642980297 0 0.00060790813874228046 -0.0021577051874732338 0 0.00070331543015590529 -0.0021450185996524812 0 -0.00049761585843734245 -0.0025065505806392287 0 -0.00041678905757268326 -0.002447145917973105 0 -0.00040224292262265522 -0.0026042817632966216 0 0.0003233991414052859 -0.00057374664086668229 0 0.00028142142517937203 -0.00061507174282576381 0 0.00023008147298832747 -0.00047626383044220051 0 -0.00050736598099081849 -0.00081563613729888191 0 -0.00050762810764036124 -0.00092843160745479834 0 -0.00060023875185841972 -0.00097231879899773463 0 0.00074382499730205509 -0.0026836580576817073 0 0.00076835666340450168 -0.0024871657596987448 0 0.00084088045693589528 -0.002621714905471439 0 -0.00074412856850487419 -0.002683559542826168 0 -0.00062125421461419351 -0.0027191966637379324 0 -0.00070298925435600046 -0.0028463559866493829 0 0.00038118507264542302 -0.0017078429035940941 0 0.00032782571875613541 -0.0015167843380670442 0 0.00045080963192095668 -0.0016194532201705646 0 0.00044786376688566766 -0.0014646449728841235 0 0.00045080963192095668 -0.0016194532201705646 0 0.00032782571875613541 -0.0015167843380670442 0 0.00064295630290055108 -0.0022845650642980297 0 0.00055557396664478935 -0.0022555872060243576 0 0.00060790813874228046 -0.0021577051874732338 0 -0.00049761585843734245 -0.0025065505806392287 0 -0.00048364112678498869 -0.0023653649497770886 0 -0.00041678905757268326 -0.002447145917973105 0 0.0003233991414052859 -0.00057374664086668229 0 0.00035103143275175508 -0.00069969139111503132 0 0.00028142142517937203 -0.00061507174282576381 0 -0.00050736598099081849 -0.00081563613729888191 0 -0.00043792481222215755 -0.00081883871037939638 0 -0.00050762810764036124 -0.00092843160745479834 0 0.00088314268861317902 -0.0029291591647167227 0 0.00088732693473224139 -0.0031224259851662804 0 0.00081295386409849192 -0.0030850129802230909 0 -0.00088649743333679937 -0.0029235793549806303 0 -0.00099470148241874402 -0.0029367338265109139 0 -0.00097424891275844309 -0.0028100444007309482 0 0.00034997063103885963 -0.00027472379843922152 0 0.00043886817842268578 -0.00034634652476743196 0 0.000535827680949725 -0.00046555264041329113 0 0.00088314268861317902 -0.0029291591647167227 0 0.00096248416115633567 -0.0027928838462976651 0 0.00099450043412593805 -0.0029367183642364505 0 0.00034997063103885963 -0.00027472379843922152 0 0.00017018614359243586 -0.0001357980505358212 0 0.00014961788057348625 -9.6761021246382262e-05 0 -0.0003535153021894378 -0.00027896914086284125 0 -0.00014980934500867445 -9.7257707395927961e-05 0 -0.0001813315029652873 -0.00014536175017727752 0 -0.00088649743333679937 -0.0029235793549806303 0 -0.00080337683729426079 -0.0030632373077077095 0 -0.00088773075100099868 -0.003122407631339624 0 -0.0003535153021894378 -0.00027896914086284125 0 -0.00053045299819238795 -0.00045799707899862857 0 -0.00043821955377509495 -0.00034658220947100549 0 0.00010597910312252497 -0.0012178497293608692 0 9.7133535822474748e-05 -0.001062391700201801 0 0.0002119639259945118 -0.0011126051131756245 0 -2.6906530083162314e-06 -0.001035333245972721 0 9.7133535822474748e-05 -0.001062391700201801 0 1.0323091644357024e-05 -0.0011606833015586164 0 0.00038118507264542302 -0.0017078429035940941 0 0.00036059197862870114 -0.0018420313509803765 0 0.00027449667151828352 -0.0016945605683739895 0 -1.0786098998901747e-07 -0.0024977033859799025 0 -5.5253324492241755e-06 -0.0027120272280701258 0 -8.0655676026818204e-05 -0.0025968208435765828 0 -0.00062458401457774198 -0.0015459369504894529 0 -0.00074785263498616697 -0.0015633638184508335 0 -0.00067299717121486449 -0.0014411521082850147 0 0.00062429202437789839 -0.0015459776078792485 0 0.00074875972146642164 -0.0015789619660197063 0 0.00068934407990244636 -0.0016736404809845613 0 -1.3454590310254055e-07 -0.00054594288046636691 0 3.222798048338061e-06 -0.00037335808453775214 0 4.539973927703119e-05 -0.00046404699970356881 0 0.00046615865046413166 -0.0027292872956132625 0 0.00055559853850987149 -0.00279775882883936 0 0.00047236726222655315 -0.0029310879674516979 0 -0.00077652361189004839 -0.0022492965967218516 0 -0.00081543556783496448 -0.0023893747241849239 0 -0.00089051615435608363 -0.0022715213360301138 0 0.00064157735710512298 -0.00089980298429020447 0 0.00062039248741639435 -0.00078794881982152253 0 0.00074196829404469384 -0.00093174022791593029 0 -0.0002292740711584594 -0.0003796270993045919 0 -0.0002586152280907065 -0.0003568354873258019 0 -0.00015924873034782087 -0.00022865739989616705 0 0.00056180823127220106 -0.0018984022640926956 0 0.00050000905713618613 -0.002073815073752836 0 0.0004477283585339619 -0.0019115450981424548 0 -0.0002479044786785739 -0.0023709787147485344 0 -0.000369550795427801 -0.0022774792104249919 0 -0.00026786699716641201 -0.002188063967309218 0 0.00017371187825155018 -0.00066236698387641475 0 0.00028003177383805985 -0.0007658727444728716 0 0.00020750007222753195 -0.00083095966880457827 0 -0.0005127563321615029 -0.0011686498081714713 0 -0.00042674682879515814 -0.00098022978010089512 0 -0.000407545771819639 -0.0011442679635552634 0 0.00086841453441719905 -0.0023768784171919076 0 0.00076835666340450168 -0.0024871657596987448 0 0.00075096252586001047 -0.0023379895868338692 0 0.00020105752702990711 -0.00025486911177077104 0 0.00032509442189684363 -0.00040346730196435382 0 0.00028021827900483317 -0.00042048448323056797 0 -0.00054465205268162638 -0.0028910360956846304 0 -0.00062125421461419351 -0.0027191966637379319 0 -0.00052610299163779626 -0.0026871981475048092 0 -0.00068739023232773937 -0.00081761665693183333 0 -0.00054732017968438468 -0.00065924439022332947 0 -0.00059002914700724833 -0.00080035754061416001 0 0.00026295649277865665 -0.0018853481083882331 0 0.00017477099408150714 -0.0017947916224267291 0 0.00027449667151828352 -0.0016945605683739895 0 -0.00014934974652895973 -0.001676353178091102 0 -0.00023071546242755297 -0.001619513835377168 0 -0.00010799078840485529 -0.0015435672918297204 0 -0.00020352970954904057 -0.0014620726276644346 0 -0.00010799078840485529 -0.0015435672918297204 0 -0.00023071546242755297 -0.001619513835377168 0 -0.00013377492341669892 -0.0020887663731309213 0 -0.00022248012396097711 -0.0020549908749719265 0 -0.00010581089095128313 -0.0019476045306743039 0 -0.00021952126495611662 -0.001909602269402769 0 -0.00010581089095128313 -0.0019476045306743039 0 -0.00022248012396097711 -0.0020549908749719265 0 0.00069055223142329869 -0.00080485737096228148 0 0.00055155131248870403 -0.00065759175401492571 0 0.00062744722080817876 -0.00067202475020775574 0 -0.00019513849013540378 -0.00024083984812609585 0 -0.00031866296557224211 -0.00038971431504801197 0 -0.00023168130339922634 -0.00025150866616505439 0 -0.00020352970954904057 -0.0014620726276644346 0 -0.00032293479386215563 -0.0015429074485789481 0 -0.00027298108180183868 -0.0013519445412603262 0 0.00056533772251557673 -0.003274914253554979 0 0.0004988023002595515 -0.0031073473878293154 0 0.00062713732221581484 -0.003089877386870667 0 -0.001072252169234204 -0.0024266415676567903 0 -0.00098500749294261076 -0.0023203624754405375 0 -0.00097699395634841691 -0.0025133835596863842 0 0.00085970741270372658 -0.00091376774297895116 0 0.00081953322283130278 -0.00094661801027557464 0 0.00074215788523201087 -0.00078027309505794367 0 -2.0149374557354509e-08 -1.1413142016400234e-07 0 -8.766349654812051e-05 -0.00010679767819739457 0 -0.00011979004166152128 -0.00012126393821464902 0 0.00088398822484963191 -0.0018086601911551574 0 0.00098100322247503106 -0.0018120718723682008 0 0.00095698374354762626 -0.0019513913343476119 0 4.6830657963164574e-05 -0.00021036620990540328 0 2.0980391455549798e-05 -8.7601721713621676e-05 0 4.8856487530550945e-05 -0.00012630543600840395 0 -0.00015021573561735345 -0.0029373973410900481 0 -0.00013962512193605537 -0.0031279292020757114 0 -0.00024391236147656501 -0.0030676153442726587 0 -0.00085030213172493613 -0.0013920298098805232 0 -0.0009478517845807671 -0.0014359340178384248 0 -0.00089603672388802484 -0.0012861635357120317 0 -0.00021952126495611662 -0.001909602269402769 0 -0.00022228900824092425 -0.00176830542836538 0 -0.00011638770851261737 -0.0017931543661354164 0 -0.00013493534533299056 -0.0010015449899348741 0 -0.00012804383018331689 -0.00081431745761876477 0 -5.3846099374856501e-05 -0.00093407354685751814 0 -3.0134354078538828e-05 -0.00079032278641801284 0 -5.3846099374856501e-05 -0.00093407354685751814 0 -0.00012804383018331689 -0.00081431745761876477 0 0.00034450841939668241 -0.0032806529699037942 0 0.00023090080074414889 -0.0032824095471642909 0 0.00031820330682306753 -0.0031250282656281568 0 -0.0010681545911477883 -0.0021059752607968281 0 -0.001062993699176798 -0.0019476244739926967 0 -0.00098993802640694444 -0.0020600993900139778 0 0.00096625254268751636 -0.0011952944849513757 0 0.0010001252402963875 -0.0013404154992863763 0 0.00090408462005484697 -0.0011970529080745523 0 -1.8446571521941654e-08 -1.1616719252799503e-07 0 -8.2790428085387982e-09 -1.1748751721073455e-07 0 -4.7829788492206991e-05 -8.8874023525565871e-05 0 0.0005547413475024594 -0.0025658242578141129 0 0.00057599283735218314 -0.0023785943530898481 0 0.00065692912355538153 -0.0024324316724051707 0 -0.00067854319330367535 -0.0023757570227874204 0 -0.00056095508783564829 -0.0024015952268680208 0 -0.00059192506498379903 -0.0025330952820310036 0 0.0005099678281405705 -0.00073733925252949758 0 0.00040321012749442982 -0.00068141901233163328 0 0.00038240872494807048 -0.00056135338731025711 0 -0.00034367382092962827 -0.00052831276800034178 0 -0.00042236957689500027 -0.00070765664782901469 0 -0.00047342901904408671 -0.00067266537344909036 0 0.00034411770762292864 -0.00027337376399007551 0 0.00025888296319208619 -0.00017512601147074615 0 0.00015829294429089521 -0.00011177373105740716 0 2.0555251928279164e-09 -9.8419790293458359e-08 0 -0.00025826546341050673 -0.00017455825558993383 0 -0.00015789507277088371 -0.00011161374506831412 0 -2.5863039569849696e-09 -9.8861523626734811e-08 0 0.00015829294429089521 -0.00011177373105740716 0 0.00025888296319208619 -0.00017512601147074615 0 -0.00034375155572015376 -0.00027357105344094521 0 -0.00015789507277088371 -0.00011161374506831412 0 -0.00025826546341050673 -0.00017455825558993383 0 0.001062387175635884 -0.0030787656298118119 0 0.0010024015837651013 -0.0031402080806126023 0 0.0009575368448962821 -0.003057199378947354 0 0.00096573178307300743 -0.003249391896860417 0 0.0009575368448962821 -0.003057199378947354 0 0.0010024015837651013 -0.0031402080806126023 0 -0.00096612740317555815 -0.0032493665960035907 0 -0.0010060569596962684 -0.0031462626938518175 0 -0.0009579273838278905 -0.0030571184763385447 0 -0.0010627678519053527 -0.0030788095138100761 0 -0.0009579273838278905 -0.0030571184763385447 0 -0.0010060569596962684 -0.0031462626938518175 0 0.00088314268861317902 -0.0029291591647167227 0 0.00086482730525424363 -0.0027658595225818982 0 0.00096248416115633567 -0.0027928838462976655 0 -0.00088649743333679937 -0.0029235793549806303 0 -0.00079018891611565235 -0.0028897356687312549 0 -0.00080337683729426079 -0.0030632373077077095 0 0.00092202472766695948 -0.0026494497168995084 0 0.00096248416115633567 -0.0027928838462976655 0 0.00086482730525424363 -0.0027658595225818982 0 0.000602207486640461 -0.000580833707931213 0 0.00047150170689862594 -0.00043322146067341474 0 0.000535827680949725 -0.00046555264041329113 0 -0.00071668045230168897 -0.0029891847814204659 0 -0.00080337683729426079 -0.0030632373077077095 0 -0.00079018891611565235 -0.0028897356687312549 0 -0.00021147819347357115 -0.00019490610925588871 0 -0.00032724322395254885 -0.00029592749801565538 0 -0.0001813315029652873 -0.00014536175017727752 0 0.00034997063103885963 -0.00027472379843922152 0 0.000535827680949725 -0.00046555264041329113 0 0.00047150170689862594 -0.00043322146067341474 0 -0.0003535153021894378 -0.00027896914086284125 0 -0.0001813315029652873 -0.00014536175017727752 0 -0.00032724322395254885 -0.00029592749801565538 0 0.00017052959804438858 -0.0016470506558008157 0 0.00027449667151828352 -0.0016945605683739895 0 0.00017477099408150714 -0.0017947916224267291 0 0.0002119639259945118 -0.0011126051131756245 0 9.7133535822474748e-05 -0.001062391700201801 0 0.00018972364306277934 -0.00095847337499660045 0 -0.00026596371140694429 -0.0025812255344375124 0 -0.00040224292262265522 -0.0026042817632966216 0 -0.00033291496771208203 -0.0024918753689591598 0 0.00068843705911159287 -0.0019415933333924486 0 0.00070331543015590529 -0.0021450185996524807 0 0.0006359440675259314 -0.0020337656176733715 0 -0.00062940345974110614 -0.0011695598486467112 0 -0.00060023875185841972 -0.00097231879899773463 0 -0.00055956798381192544 -0.0010584884330920577 0 0.00015423974061447852 -0.00048499559600007557 0 0.00023008147298832747 -0.00047626383044220051 0 0.00021215322872505203 -0.00056501637606875242 0 -0.00022752732609933766 -0.0012118740483259688 0 -0.00027298108180183868 -0.0013519445412603262 0 -0.00030815322573175054 -0.0011642005587191387 0 -0.00036337746159356433 -0.0013025231113967682 0 -0.00030815322573175054 -0.0011642005587191387 0 -0.00027298108180183868 -0.0013519445412603262 0 -0.00021952126495611662 -0.001909602269402769 0 -0.00022248012396097711 -0.0020549908749719261 0 -0.00033005084703334545 -0.0020435173740402071 0 8.0468999586716489e-05 -0.0028755529010354628 0 -5.5253324492241755e-06 -0.0027120272280701258 0 9.5199162783852784e-05 -0.0027242139891205637 0 -0.00084585185251827494 -0.0017048708024006904 0 -0.00074785263498616697 -0.0015633638184508335 0 -0.00076292745883312009 -0.0017085098827939725 0 0.00082791278106306512 -0.0014793236949277415 0 0.00074875972146642175 -0.0015789619660197065 0 0.00074234972817300887 -0.0014371609050326942 0 -2.9675824760765668e-05 -0.00025398432908511914 0 3.2227980483380716e-06 -0.00037335808453775214 0 -4.4117818287938465e-05 -0.00036679259426657118 0 -0.00030148767341774542 -0.0018769190655483464 0 -0.00021952126495611662 -0.001909602269402769 0 -0.00033005084703334545 -0.0020435173740402071 0 0.00035583058308110864 -0.0020123917085811075 0 0.00050000905713618613 -0.002073815073752836 0 0.00041376755809378749 -0.0021445436615629217 0 -0.00033005084703334545 -0.0020435173740402071 0 -0.000369550795427801 -0.0022774792104249919 0 -0.00041504663875391198 -0.002137972867030268 0 0.00028338695537876433 -0.00097353293386115175 0 0.0002800317738380599 -0.0007658727444728716 0 0.00034144817131636946 -0.000899346084948497 0 -0.00030598347987567469 -0.0010085067724947725 0 -0.00042674682879515814 -0.00098022978010089512 0 -0.00033791011355916573 -0.00089318730980100542 0 0.0005547413475024594 -0.0025658242578141129 0 0.00046615865046413166 -0.0027292872956132625 0 0.00046308310176311056 -0.0025662573886876911 0 -0.00067854319330367535 -0.0023757570227874204 0 -0.00077652361189004839 -0.0022492965967218516 0 -0.00067966801650011705 -0.0022352804881517864 0 0.0005099678281405705 -0.00073733925252949758 0 0.00064157735710512298 -0.00089980298429020447 0 0.000554837206068326 -0.00087519568423298575 0 -0.00034367382092962827 -0.00052831276800034178 0 -0.0002292740711584594 -0.0003796270993045919 0 -0.00028173903560287978 -0.00051816689574683383 0 -0.00013493534533299056 -0.0010015449899348741 0 -0.00015015810229746944 -0.0011619565900775012 0 -0.00022314204956751064 -0.0010783856516202893 0 0.0005547413475024594 -0.0025658242578141129 0 0.00064652770062345729 -0.002711001087637378 0 0.00055559853850987149 -0.00279775882883936 0 -0.00067854319330367535 -0.0023757570227874204 0 -0.00076329661567338283 -0.0025268669544327733 0 -0.00081543556783496448 -0.0023893747241849239 0 0.0005099678281405705 -0.00073733925252949758 0 0.00055155131248870403 -0.00065759175401492571 0 0.00062039248741639435 -0.00078794881982152253 0 -0.00034367382092962827 -0.00052831276800034178 0 -0.00031866296557224211 -0.00038971431504801197 0 -0.0002586152280907065 -0.0003568354873258019 0 0.00015471073639137682 -0.0019822146351503337 0 0.00017477099408150714 -0.0017947916224267291 0 0.00026295649277865665 -0.0018853481083882331 0 0.00077922477227631703 -0.0020432837354079914 0 0.00080167288187301701 -0.0022277671791604298 0 0.00070331543015590529 -0.0021450185996524812 0 0.00015401925971998288 -0.00036467347058051323 0 0.00020489612699280685 -0.00034179677670023479 0 0.00023008147298832747 -0.00047626383044220051 0 -0.00032700767464957246 -0.0027359144744965652 0 -0.00045006376952523369 -0.002773126442805366 0 -0.00040224292262265522 -0.0026042817632966216 0 -0.00069821035653206906 -0.001105877354396769 0 -0.00067267770146905558 -0.00093247202231702513 0 -0.00060023875185841972 -0.00097231879899773463 0 -0.00067854319330367535 -0.0023757570227874204 0 -0.00059192506498379903 -0.0025330952820310036 0 -0.0006770493901885722 -0.0025628661345629407 0 0.0005547413475024594 -0.0025658242578141129 0 0.00065692912355538153 -0.0024324316724051707 0 0.00067211524198093489 -0.0025700305370881206 0 -0.00034367382092962827 -0.00052831276800034178 0 -0.00047342901904408671 -0.00067266537344909036 0 -0.00042269338719677185 -0.00054006855075611183 0 0.0005099678281405705 -0.00073733925252949758 0 0.00038240872494807048 -0.00056135338731025711 0 0.00044240305162513913 -0.0005630896794897736 0 2.7555541601239415e-05 -0.0019924853362546613 0 -5.1734819677287711e-05 -0.0020808478597652753 0 -0.00010581089095128313 -0.0019476045306743039 0 0.00010597910312252497 -0.0012178497293608692 0 0.0002119639259945118 -0.0011126051131756245 0 0.00020404330306501368 -0.0012818662392639704 0 0.00030468910076660423 -0.0012667940273555221 0 0.00020404330306501368 -0.0012818662392639704 0 0.0002119639259945118 -0.0011126051131756245 0 0.00047208838528691144 -0.0022365984939816497 0 0.00050000905713618613 -0.002073815073752836 0 0.00055557396664478935 -0.0022555872060243576 0 -0.00047476127669158011 -0.0022329047873766794 0 -0.000369550795427801 -0.0022774792104249919 0 -0.00048364112678498869 -0.0023653649497770886 0 0.00060790813874228046 -0.0021577051874732338 0 0.00055557396664478935 -0.0022555872060243576 0 0.00050000905713618613 -0.002073815073752836 0 -0.00041678905757268326 -0.002447145917973105 0 -0.00048364112678498869 -0.0023653649497770886 0 -0.000369550795427801 -0.0022774792104249919 0 0.00037394757580148659 -0.00082125972155149332 0 0.0002800317738380599 -0.0007658727444728716 0 0.00035103143275175508 -0.00069969139111503132 0 -0.00037049308602232479 -0.00081762670342846924 0 -0.00042674682879515814 -0.00098022978010089512 0 -0.00043792481222215755 -0.00081883871037939638 0 0.00028142142517937203 -0.00061507174282576381 0 0.00035103143275175508 -0.00069969139111503132 0 0.0002800317738380599 -0.0007658727444728716 0 -0.00050762810764036124 -0.00092843160745479834 0 -0.00043792481222215755 -0.00081883871037939638 0 -0.00042674682879515814 -0.00098022978010089512 0 0.00055421549951210555 -0.0029587271577574659 0 0.00047236726222655315 -0.0029310879674516979 0 0.00055559853850987149 -0.00279775882883936 0 -0.00090564374265860012 -0.0023956601301156886 0 -0.00089051615435608363 -0.0022715213360301138 0 -0.00081543556783496448 -0.0023893747241849239 0 0.00069055223142329869 -0.00080485737096228148 0 0.00074196829404469384 -0.00093174022791593029 0 0.00062039248741639435 -0.00078794881982152253 0 -0.00019513849013540378 -0.00024083984812609585 0 -0.00015924873034782087 -0.00022865739989616705 0 -0.0002586152280907065 -0.0003568354873258019 0 0.00023180886115268612 -0.0023691958965674485 0 0.00033395384028604811 -0.0023702339485832881 0 0.00027992921567684931 -0.0025542745456222822 0 0.00039380297540856572 -0.0024949208008611329 0 0.00027992921567684931 -0.0025542745456222822 0 0.00033395384028604811 -0.0023702339485832881 0 -0.0005602747617053296 -0.0018749951771058352 0 -0.00056171007256186536 -0.0020276569429378841 0 -0.00067326245967798566 -0.0019601726469222029 0 -0.00063767554491165842 -0.0021260186051185953 0 -0.00067326245967798566 -0.0019601726469222029 0 -0.00056171007256186536 -0.0020276569429378841 0 0.00051480322688294677 -0.0011917948117708703 0 0.00049083525209788772 -0.0010406732065294717 0 0.00061047928760056915 -0.0011448264167378082 0 0.00054233152028616578 -0.00096849769873264175 0 0.00061047928760056915 -0.0011448264167378082 0 0.00049083525209788772 -0.0010406732065294717 0 -0.00016343874763437391 -0.00066451986009798581 0 -0.00023615292126579789 -0.00067298034958362203 0 -0.00016769178661654746 -0.00050748955932371784 0 -0.0002544081756769235 -0.00057019256006462615 0 -0.00016769178661654746 -0.00050748955932371784 0 -0.00023615292126579789 -0.00067298034958362203 0 0.00093757097397157438 -0.0021206995371952828 0 0.00095698374354762626 -0.0019513913343476119 0 0.0010086688314561647 -0.0020576585737488965 0 9.0069719981212515e-05 -0.00015640947313010924 0 4.8856487530550945e-05 -0.00012630543600840395 0 3.5942378377048378e-05 -6.6229241404526759e-05 0 -0.00036558954333402305 -0.0030220101076462 0 -0.00024391236147656501 -0.0030676153442726587 0 -0.00031537448069411742 -0.0031632050583324154 0 -0.00083777889461422684 -0.0011093757747826258 0 -0.00089603672388802484 -0.0012861635357120317 0 -0.0009227250834321015 -0.001209023946801957 0 0.00035583058308110864 -0.0020123917085811075 0 0.00041376755809378749 -0.0021445436615629217 0 0.00034107823052491646 -0.0022024633674542636 0 -0.00033005084703334545 -0.0020435173740402071 0 -0.00041504663875391198 -0.002137972867030268 0 -0.00045610603300844278 -0.0020290306473031319 0 0.00028338695537876433 -0.00097353293386115175 0 0.00034144817131636946 -0.000899346084948497 0 0.00039357228901189473 -0.001012074508212 0 -0.00030598347987567469 -0.0010085067724947725 0 -0.00033791011355916573 -0.00089318730980100542 0 -0.0002678450298365408 -0.00082704448024968548 0 0.0005547413475024594 -0.0025658242578141129 0 0.00049275669995719042 -0.0024024627218975137 0 0.00057599283735218314 -0.0023785943530898481 0 -0.00067854319330367535 -0.0023757570227874204 0 -0.00057932773054457452 -0.0022716386834241236 0 -0.00056095508783564829 -0.0024015952268680208 0 0.0005099678281405705 -0.00073733925252949758 0 0.00045398797072123439 -0.00080845820462775383 0 0.00040321012749442982 -0.00068141901233163338 0 -0.00034367382092962827 -0.00052831276800034178 0 -0.00034839190880940537 -0.0006659422841703011 0 -0.00042236957689500027 -0.00070765664782901469 0 -0.00014934974652895973 -0.001676353178091102 0 -0.00011638770851261739 -0.0017931543661354164 0 -0.00022228900824092425 -0.00176830542836538 0 -8.2790428085387982e-09 -1.1748751721073455e-07 0 -4.3616864016121177e-09 -1.1516819424715208e-07 0 -3.0679032996413973e-05 -8.2842069012435514e-05 0 0.0010001252402963875 -0.0013404154992863763 0 0.0010253535295449959 -0.0014885824110053532 0 0.00093609129820111116 -0.001334814260738382 0 -0.001062993699176798 -0.0019476244739926967 0 -0.0010553243528228619 -0.001791327627908932 0 -0.00099089962402173506 -0.0019183996488827959 0 0.00023090080074414889 -0.0032824095471642909 0 0.00011580384614705028 -0.003283268955915792 0 0.0002161822132951268 -0.0031366088329142301 0 0.00034411770762292864 -0.00027337376399007551 0 0.00052971194980356076 -0.00046019338521385692 0 0.00043886817842268578 -0.00034634652476743196 0 2.0555251928279164e-09 -9.8419790293458359e-08 0 -6.0318987906994004e-08 -1.4245835844087045e-07 0 -0.00014980934500867445 -9.7257707395927961e-05 0 0.00096573178307300743 -0.003249391896860417 0 0.00087061759732035948 -0.0032572147822738356 0 0.00088732693473224139 -0.0031224259851662804 0 -0.0010627678519053527 -0.0030788095138100761 0 -0.0010662750430887522 -0.0029155999750441002 0 -0.00099470148241874402 -0.0029367338265109139 0 0.001066048542930865 -0.0029155977453431225 0 0.001062387175635884 -0.0030787656298118119 0 0.00099450043412593805 -0.0029367183642364505 0 6.0330509300487921e-08 -1.4107390525311924e-07 0 -2.5863039569849696e-09 -9.8861523626734811e-08 0 0.00014961788057348625 -9.6761021246382262e-05 0 -0.00087096696331383466 -0.0032572243805263144 0 -0.00096612740317555815 -0.0032493665960035907 0 -0.00088773075100099868 -0.003122407631339624 0 -0.00052912649156062975 -0.00046053511196960333 0 -0.00034375155572015376 -0.00027357105344094521 0 -0.00043821955377509495 -0.00034658220947100549 0 0.00086841453441719905 -0.0023768784171919076 0 0.00075096252586001047 -0.0023379895868338692 0 0.00080167288187301701 -0.0022277671791604298 0 0.00020105752702990711 -0.00025486911177077104 0 0.00028021827900483317 -0.00042048448323056797 0 0.00020489612699280685 -0.00034179677670023479 0 -0.00054465205268162638 -0.0028910360956846304 0 -0.00052610299163779626 -0.0026871981475048092 0 -0.00045006376952523369 -0.002773126442805366 0 -0.00068739023232773937 -0.00081761665693183333 0 -0.00059002914700724833 -0.00080035754061416001 0 -0.00067267770146905558 -0.00093247202231702513 0 3.5085164116114958e-05 -0.0021978978525820886 0 0.00010561221666783933 -0.0023790340254178518 0 -2.2152933918408378e-05 -0.0023439075449776365 0 -0.00044696615241197326 -0.0015695708861925384 0 -0.00056182438799519667 -0.001688606743671259 0 -0.00053082935595522647 -0.0014978902603325897 0 0.00044786376688566766 -0.0014646449728841235 0 0.0005421337030934928 -0.0013784132411825474 0 0.00053539714844162776 -0.0015545150035164298 0 -3.0134354078538828e-05 -0.00079032278641801284 0 -7.2907031180242116e-05 -0.00064771490645145857 0 1.1956383109958512e-05 -0.0006746788701017443 0 0.00038118507264542302 -0.0017078429035940941 0 0.00027449667151828352 -0.0016945605683739895 0 0.00032782571875613541 -0.0015167843380670442 0 0.00011383770790736389 -0.00091305599310033446 0 0.00018972364306277934 -0.00095847337499660045 0 9.7133535822474748e-05 -0.001062391700201801 0 -0.00020352970954904057 -0.0014620726276644346 0 -0.00016893355868759815 -0.0013073818737817453 0 -8.6432850076039415e-05 -0.0013950084176596095 0 0.00032674239640009036 -0.0027358628217112185 0 0.00027992921567684937 -0.0025542745456222822 0 0.00039514519156886685 -0.0026386324952919486 0 -0.00077947996741965016 -0.0020432651348428932 0 -0.00067326245967798566 -0.0019601726469222029 0 -0.00072352142102430849 -0.002137145467231824 0 0.00069789577480728823 -0.0011064706961691822 0 0.00061047928760056915 -0.0011448264167378082 0 0.00062145303946706948 -0.00098829884230718502 0 -0.00015398201756179836 -0.0003637632085101638 0 -0.00016769178661654743 -0.00050748955932371784 0 -0.00021726293952233896 -0.00044861097625809433 0 0.00023090080074414889 -0.0032824095471642909 0 0.0002161822132951268 -0.0031366088329142301 0 0.00031820330682306753 -0.0031250282656281568 0 -0.001062993699176798 -0.0019476244739926967 0 -0.00099089962402173506 -0.0019183996488827959 0 -0.00098993802640694444 -0.0020600993900139778 0 0.0010001252402963875 -0.0013404154992863763 0 0.00093609129820111116 -0.001334814260738382 0 0.00090408462005484697 -0.0011970529080745523 0 -8.2790428085387982e-09 -1.1748751721073455e-07 0 -3.0679032996413973e-05 -8.2842069012435514e-05 0 -4.7829788492206991e-05 -8.8874023525565871e-05 0 0.00035583058308110864 -0.0020123917085811075 0 0.00026295649277865665 -0.0018853481083882331 0 0.00036059197862870114 -0.0018420313509803765 0 0.00028338695537876433 -0.00097353293386115175 0 0.0002119639259945118 -0.0011126051131756245 0 0.00018972364306277934 -0.00095847337499660045 0 0.00015471073639137682 -0.0019822146351503337 0 0.00025624084813691115 -0.0020909465784572129 0 0.00016671293093172124 -0.0021983966826054939 0 -0.00032494557505715385 -0.001741323472847765 0 -0.00039069476720155204 -0.0018917337459355638 0 -0.00045106538844511695 -0.0017605840882747347 0 0.00030468910076660423 -0.0012667940273555221 0 0.00034242219917018788 -0.0011281842111678126 0 0.00042438462093483044 -0.0012739618128575284 0 -0.00013493534533299056 -0.0010015449899348741 0 -0.00021122198752889854 -0.0009195046068363105 0 -0.00012804383018331689 -0.00081431745761876477 0 1.1906656316701837e-08 -1.1482208184370794e-07 0 3.5942378377048378e-05 -6.6229241404526759e-05 0 4.8856487530550945e-05 -0.00012630543600840395 0 0.001062856139237958 -0.0019478487551134631 0 0.0010086688314561647 -0.0020576585737488965 0 0.00095698374354762626 -0.0019513913343476119 0 -0.0010009210840509612 -0.0013407901389926686 0 -0.0009227250834321015 -0.001209023946801957 0 -0.00089603672388802484 -0.0012861635357120317 0 -0.00023117220769429777 -0.0032824935570381544 0 -0.00031537448069411742 -0.0031632050583324154 0 -0.00024391236147656501 -0.0030676153442726587 0 -1.0786098998901747e-07 -0.0024977033859799025 0 -2.2152933918408378e-05 -0.0023439075449776365 0 0.00010561221666783933 -0.0023790340254178518 0 -0.00062458401457774198 -0.0015459369504894529 0 -0.00053082935595522647 -0.0014978902603325897 0 -0.00056182438799519667 -0.001688606743671259 0 0.00062429202437789839 -0.0015459776078792485 0 0.00053539714844162776 -0.0015545150035164298 0 0.0005421337030934928 -0.0013784132411825474 0 -1.3454590310254055e-07 -0.00054594288046636691 0 1.1956383109958512e-05 -0.0006746788701017443 0 -7.2907031180242116e-05 -0.00064771490645145857 0 -0.0002479044786785739 -0.0023709787147485344 0 -0.00015838615352807559 -0.0024988667512405569 0 -0.00026596371140694429 -0.0025812255344375124 0 -0.0005127563321615029 -0.0011686498081714713 0 -0.00060414141187447787 -0.0013157571202466554 0 -0.00062940345974110614 -0.0011695598486467112 0 0.00056180823127220106 -0.0018984022640926956 0 0.00063632607515762968 -0.0017767794662964353 0 0.00068843705911159287 -0.0019415933333924486 0 0.00017371187825155018 -0.00066236698387641475 0 9.8519951313987407e-05 -0.00054605247601412145 0 0.00015423974061447852 -0.00048499559600007557 0 0.00064295630290055108 -0.0022845650642980297 0 0.00057599283735218314 -0.0023785943530898481 0 0.00055557396664478935 -0.0022555872060243576 0 -0.00049761585843734245 -0.0025065505806392287 0 -0.00056095508783564829 -0.0024015952268680208 0 -0.00048364112678498869 -0.0023653649497770886 0 0.0003233991414052859 -0.00057374664086668229 0 0.00040321012749442982 -0.00068141901233163338 0 0.00035103143275175508 -0.00069969139111503132 0 -0.00050736598099081849 -0.00081563613729888191 0 -0.00042236957689500027 -0.00070765664782901458 0 -0.00043792481222215755 -0.00081883871037939638 0 -1.9132101217615004e-05 -0.0018125166389691991 0 7.1498674830011084e-05 -0.0016789139154196582 0 8.3032949018807753e-05 -0.0018527598321055085 0 -0.00020352970954904057 -0.0014620726276644346 0 -8.6432850076039402e-05 -0.0013950084176596095 0 -0.00010799078840485529 -0.0015435672918297204 0 0.00039380297540856572 -0.0024949208008611329 0 0.00039514519156886685 -0.0026386324952919486 0 0.00027992921567684931 -0.0025542745456222822 0 -0.00063767554491165842 -0.0021260186051185953 0 -0.00072352142102430849 -0.002137145467231824 0 -0.00067326245967798566 -0.0019601726469222029 0 0.00054233152028616578 -0.00096849769873264175 0 0.00062145303946706948 -0.00098829884230718502 0 0.00061047928760056915 -0.0011448264167378082 0 -0.0002544081756769235 -0.00057019256006462615 0 -0.00021726293952233896 -0.00044861097625809433 0 -0.00016769178661654746 -0.00050748955932371784 0 0.00042991836783071863 -0.00046213309956648964 0 0.00053689310830676957 -0.00055633722075463762 0 0.00055155131248870403 -0.00065759175401492571 0 -0.00042689499941092379 -0.00045830200560615573 0 -0.00030859104067471776 -0.00032222482209803529 0 -0.00031866296557224211 -0.00038971431504801197 0 0.00020194956989639027 -0.0014284922631747558 0 0.00028063274629563982 -0.0013758251372512015 0 0.00032782571875613541 -0.0015167843380670442 0 0.00022000156483621038 -0.0015614161442679584 0 0.00020194956989639027 -0.0014284922631747558 0 0.00032782571875613541 -0.0015167843380670442 0 8.0468999586716489e-05 -0.0028755529010354628 0 9.5199162783852784e-05 -0.0027242139891205637 0 0.0001938664829753808 -0.0028206568490217513 0 0.00015927271026806961 -0.0026337028481081865 0 0.0001938664829753808 -0.0028206568490217513 0 9.5199162783852784e-05 -0.0027242139891205637 0 -0.00084585185251827494 -0.0017048708024006904 0 -0.00076292745883312009 -0.0017085098827939725 0 -0.00082322752648471579 -0.0018593898077656605 0 -0.00071548638443959093 -0.0017911002145981655 0 -0.00082322752648471579 -0.0018593898077656605 0 -0.00076292745883312009 -0.0017085098827939725 0 0.00082791278106306512 -0.0014793236949277415 0 0.00074234972817300887 -0.0014371609050326942 0 0.00077876366555214402 -0.0013115475388564388 0 0.00068109584707253543 -0.001332323340911994 0 0.00077876366555214402 -0.0013115475388564388 0 0.00074234972817300887 -0.0014371609050326942 0 -2.9675824760765668e-05 -0.00025398432908511914 0 -4.4117818287938465e-05 -0.00036679259426657118 0 -7.8883439335041569e-05 -0.00029483600309838194 0 -8.5122559190540514e-05 -0.00043756514355954056 0 -7.8883439335041583e-05 -0.00029483600309838194 0 -4.4117818287938465e-05 -0.00036679259426657118 0 0.00046615865046413166 -0.0027292872956132625 0 0.00047236726222655315 -0.0029310879674516979 0 0.0003932695167243943 -0.002858510258533376 0 -0.00077652361189004839 -0.0022492965967218516 0 -0.00089051615435608363 -0.0022715213360301138 0 -0.00084950747028640389 -0.0021498655371274991 0 0.00064157735710512298 -0.00089980298429020447 0 0.00074196829404469384 -0.00093174022791593029 0 0.00074175129834073278 -0.0010331565077656075 0 -0.0002292740711584594 -0.0003796270993045919 0 -0.00015924873034782084 -0.00022865739989616705 0 -0.00015099557163643449 -0.0002739700123975492 0 0.00076835666340450168 -0.0024871657596987448 0 0.00065692912355538153 -0.0024324316724051707 0 0.00075096252586001047 -0.0023379895868338692 0 -0.00062125421461419351 -0.0027191966637379324 0 -0.00059192506498379903 -0.0025330952820310036 0 -0.00052610299163779626 -0.0026871981475048092 0 0.00032509442189684363 -0.00040346730196435382 0 0.00038240872494807048 -0.00056135338731025711 0 0.00028021827900483317 -0.00042048448323056797 0 -0.00054732017968438468 -0.00065924439022332947 0 -0.00047342901904408671 -0.00067266537344909036 0 -0.00059002914700724833 -0.00080035754061416001 0 0.00069055223142329869 -0.00080485737096228148 0 0.00062039248741639435 -0.00078794881982152253 0 0.00055155131248870403 -0.00065759175401492571 0 -0.00019513849013540378 -0.00024083984812609585 0 -0.0002586152280907065 -0.0003568354873258019 0 -0.00031866296557224211 -0.00038971431504801197 0 -5.5253324492241755e-06 -0.0027120272280701258 0 -0.00010947758756390695 -0.0027678823395685735 0 -8.0655676026818204e-05 -0.0025968208435765828 0 -0.00074785263498616697 -0.0015633638184508335 0 -0.00076543121414675373 -0.0014229550380670851 0 -0.00067299717121486449 -0.0014411521082850147 0 0.00074875972146642175 -0.0015789619660197063 0 0.00078879892176014473 -0.0017335348692528692 0 0.00068934407990244636 -0.0016736404809845613 0 3.222798048338061e-06 -0.00037335808453775214 0 4.9127698214899003e-05 -0.000331897715191598 0 4.539973927703119e-05 -0.00046404699970356881 0 3.5085164116114958e-05 -0.0021978978525820886 0 -5.1734819677287711e-05 -0.0020808478597652753 0 2.7555541601239415e-05 -0.0019924853362546613 0 -0.00044696615241197326 -0.0015695708861925384 0 -0.00037063764053606532 -0.0014331244486548607 0 -0.00032293479386215563 -0.0015429074485789481 0 0.00024119144236150087 -0.002693506974537979 0 0.00032674239640009036 -0.0027358628217112185 0 0.00029151467751574992 -0.0028496284593710337 0 -0.00075321114735058697 -0.0019152920522360355 0 -0.00077947996741965016 -0.0020432651348428932 0 -0.00084242499758562558 -0.0020016640295019601 0 0.0006976998583018664 -0.0012230068808217055 0 0.00069789577480728823 -0.0011064706961691822 0 0.00077043296321808508 -0.001178052639700997 0 -0.00011915984136689018 -0.00039309948414935499 0 -0.00015398201756179836 -0.0003637632085101638 0 -0.00011224337557861578 -0.00027663079968180248 0 0.00044786376688566766 -0.0014646449728841235 0 0.00032782571875613535 -0.0015167843380670442 0 0.00036270625220303642 -0.0013892905036438248 0 0.00017052959804438858 -0.0016470506558008157 0 7.1498674830011084e-05 -0.0016789139154196582 0 0.00012357102133141591 -0.0015236188923596458 0 7.4292866251581786e-06 -0.0014925663713591692 0 1.6538724222960888e-05 -0.0013131640579115455 0 0.0001068002394028824 -0.0013705641353366211 0 0.0001938664829753808 -0.0028206568490217513 0 0.00024119144236150084 -0.002693506974537979 0 0.00029151467751574992 -0.0028496284593710337 0 -0.00082322752648471579 -0.0018593898077656605 0 -0.00075321114735058686 -0.0019152920522360355 0 -0.00084242499758562558 -0.0020016640295019601 0 0.00077876366555214402 -0.0013115475388564388 0 0.0006976998583018664 -0.0012230068808217055 0 0.00077043296321808508 -0.001178052639700997 0 -7.8883439335041569e-05 -0.00029483600309838194 0 -0.00011915984136689018 -0.00039309948414935499 0 -0.00011224337557861578 -0.00027663079968180248 0 -0.00032494557505715385 -0.001741323472847765 0 -0.00032293479386215563 -0.0015429074485789481 0 -0.00023071546242755297 -0.001619513835377168 0 -0.00016308426552928224 -0.0026466659191298884 0 -8.0655676026818204e-05 -0.0025968208435765828 0 -0.00010947758756390695 -0.0027678823395685735 0 -0.00068809948723127742 -0.0013289916682455922 0 -0.00067299717121486449 -0.0014411521082850147 0 -0.00076543121414675373 -0.0014229550380670851 0 0.00072311336043630423 -0.0017977202780050511 0 0.00068934407990244636 -0.0016736404809845613 0 0.00078879892176014473 -0.0017335348692528692 0 8.6069933786918332e-05 -0.00042594403963507451 0 4.539973927703119e-05 -0.00046404699970356881 0 4.9127698214899003e-05 -0.000331897715191598 0 0.00069055223142329869 -0.00080485737096228148 0 0.00062744722080817876 -0.00067202475020775574 0 0.00074215788523201087 -0.00078027309505794367 0 0.000602207486640461 -0.000580833707931213 0 0.00074215788523201087 -0.00078027309505794367 0 0.00062744722080817876 -0.00067202475020775574 0 -0.00019513849013540378 -0.00024083984812609585 0 -0.00023168130339922634 -0.00025150866616505439 0 -0.00011979004166152128 -0.00012126393821464902 0 -0.00021147819347357115 -0.00019490610925588871 0 -0.00011979004166152128 -0.00012126393821464902 0 -0.00023168130339922634 -0.00025150866616505439 0 7.4292866251581786e-06 -0.0014925663713591692 0 0.0001068002394028824 -0.0013705641353366211 0 0.00012357102133141591 -0.0015236188923596458 0 -0.00042689499941092379 -0.00045830200560615573 0 -0.00053789264154021081 -0.00055659222651428374 0 -0.00045255541571823083 -0.00042371991778326998 0 0.00042991836783071863 -0.00046213309956648964 0 0.00030751153580321582 -0.00032017277921373002 0 0.00035207625461974802 -0.00032796468045385839 0 0.00055421549951210555 -0.0029587271577574659 0 0.00055559853850987149 -0.00279775882883936 0 0.00063809553735680649 -0.0028846864036607134 0 0.00064652770062345729 -0.002711001087637378 0 0.00063809553735680649 -0.0028846864036607134 0 0.00055559853850987149 -0.00279775882883936 0 -0.00090564374265860012 -0.0023956601301156886 0 -0.00081543556783496448 -0.0023893747241849239 0 -0.00086389459819730466 -0.002521205685295869 0 -0.00076329661567338283 -0.0025268669544327733 0 -0.00086389459819730466 -0.002521205685295869 0 -0.00081543556783496448 -0.0023893747241849239 0 0.00021988744944481827 -0.00019848412699678363 0 0.00021953171950835141 -0.00023917886844137081 0 0.00012165552838816237 -0.00012324666383665766 0 -0.00059340189138488183 -0.00056847479314846305 0 -0.00064198662603698006 -0.00068806915561976211 0 -0.00074554251875888532 -0.00078783941426925381 0 0.00092202472766695948 -0.0026494497168995084 0 0.00089524844541255771 -0.0025170238633167733 0 0.00097163099583034117 -0.0024834440115067413 0 -0.00071668045230168897 -0.0029891847814204659 0 -0.00063400474242183643 -0.0029416016616090786 0 -0.00060837108892819523 -0.003080342640574212 0 0.00020105752702990711 -0.00025486911177077104 0 0.00012165552838816237 -0.00012324666383665766 0 0.00021953171950835141 -0.00023917886844137081 0 -0.00068739023232773937 -0.00081761665693183333 0 -0.00074554251875888532 -0.00078783941426925381 0 -0.00064198662603698006 -0.00068806915561976211 0 0.00086841453441719905 -0.0023768784171919076 0 0.00097163099583034117 -0.0024834440115067413 0 0.00089524844541255771 -0.0025170238633167733 0 -0.00054465205268162638 -0.0028910360956846304 0 -0.00060837108892819523 -0.003080342640574212 0 -0.00063400474242183643 -0.0029416016616090786 0 0.00055557396664478935 -0.0022555872060243576 0 0.00049275669995719031 -0.0024024627218975137 0 0.00047208838528691144 -0.0022365984939816497 0 0.00057599283735218314 -0.0023785943530898481 0 0.00049275669995719042 -0.0024024627218975137 0 0.00055557396664478935 -0.0022555872060243576 0 -0.00048364112678498869 -0.0023653649497770886 0 -0.00057932773054457452 -0.0022716386834241236 0 -0.00047476127669158011 -0.0022329047873766794 0 -0.00056095508783564829 -0.0024015952268680208 0 -0.00057932773054457452 -0.0022716386834241236 0 -0.00048364112678498869 -0.0023653649497770886 0 0.00035103143275175508 -0.00069969139111503132 0 0.00045398797072123439 -0.00080845820462775383 0 0.00037394757580148659 -0.00082125972155149332 0 0.00040321012749442982 -0.00068141901233163338 0 0.00045398797072123439 -0.00080845820462775383 0 0.00035103143275175508 -0.00069969139111503132 0 -0.00043792481222215755 -0.00081883871037939638 0 -0.00034839190880940537 -0.0006659422841703011 0 -0.00037049308602232479 -0.00081762670342846924 0 -0.00042236957689500027 -0.00070765664782901469 0 -0.00034839190880940537 -0.0006659422841703011 0 -0.00043792481222215755 -0.00081883871037939638 0 0.00086841453441719905 -0.0023768784171919076 0 0.00080167288187301701 -0.0022277671791604298 0 0.00088883881581832487 -0.002231500703974384 0 -0.00054465205268162638 -0.0028910360956846304 0 -0.00045006376952523363 -0.002773126442805366 0 -0.00044545758738439727 -0.0029293084966644468 0 0.00020105752702990711 -0.00025486911177077104 0 0.00020489612699280685 -0.00034179677670023479 0 0.00014871395919107731 -0.00022373253113601704 0 -0.00068739023232773937 -0.00081761665693183333 0 -0.00067267770146905558 -0.00093247202231702513 0 -0.00075768359871829075 -0.00097379226811197296 0 0.00020194956989639027 -0.0014284922631747558 0 0.00010680023940288241 -0.0013705641353366211 0 0.00020404330306501368 -0.0012818662392639704 0 0.00030468910076660423 -0.0012667940273555221 0 0.00042438462093483044 -0.0012739618128575284 0 0.00036270625220303642 -0.0013892905036438248 0 0.00044786376688566766 -0.0014646449728841235 0 0.00036270625220303642 -0.0013892905036438248 0 0.00042438462093483044 -0.0012739618128575284 0 0.00074382499730205509 -0.0026836580576817073 0 0.00070890024232745969 -0.0028157946823489256 0 0.00064652770062345729 -0.002711001087637378 0 -0.00074412856850487419 -0.002683559542826168 0 -0.000823449394465435 -0.0026305522868845187 0 -0.00076329661567338283 -0.0025268669544327733 0 0.00055155131248870403 -0.00065759175401492571 0 0.00053689310830676957 -0.00055633722075463762 0 0.00062744722080817876 -0.00067202475020775574 0 -0.00031866296557224211 -0.00038971431504801197 0 -0.00030859104067471776 -0.00032222482209803529 0 -0.00023168130339922634 -0.00025150866616505439 0 0.00034997063103885963 -0.00027472379843922152 0 0.0002793858602045461 -0.00023313381919677897 0 0.00017018614359243586 -0.0001357980505358212 0 -0.0003535153021894378 -0.00027896914086284125 0 -0.00048278850280291513 -0.00042619442760373879 0 -0.00053045299819238795 -0.00045799707899862857 0 0.00077922477227631703 -0.0020432837354079914 0 0.00086668481353935117 -0.0019942747041888872 0 0.00085583837633753203 -0.002128595142961156 0 0.00015401925971998288 -0.00036467347058051323 0 9.9459160590454615e-05 -0.00024401162475796122 0 0.00014217374938582246 -0.00026429084500556414 0 -0.00032700767464957246 -0.0027359144744965652 0 -0.00028403848922518588 -0.0028942249262956447 0 -0.00037807580378162813 -0.0028708814149828459 0 -0.00069821035653206906 -0.001105877354396769 0 -0.00079649919799520833 -0.0011973380761382364 0 -0.00075341525071357524 -0.0010583191481675239 0 0.00021988744944481827 -0.00019848412699678363 0 0.00035207625461974802 -0.00032796468045385839 0 0.00030751153580321582 -0.00032017277921373002 0 -0.00059340189138488183 -0.00056847479314846305 0 -0.00045255541571823083 -0.00042371991778326998 0 -0.00053789264154021081 -0.00055659222651428374 0 0.00056533772251557673 -0.003274914253554979 0 0.00045602653548603025 -0.0032782241318689066 0 0.0004988023002595515 -0.0031073473878293154 0 -0.001072252169234204 -0.0024266415676567903 0 -0.001070693634837126 -0.0022651375543869621 0 -0.00098500749294261076 -0.0023203624754405375 0 0.00085970741270372658 -0.00091376774297895116 0 0.00091977659414025747 -0.0010559974074889709 0 0.00081953322283130267 -0.00094661801027557464 0 -2.0149374557354509e-08 -1.1413142016400234e-07 0 -1.3249036384246671e-08 -1.1885355418609574e-07 0 -8.766349654812051e-05 -0.00010679767819739457 0 0.00011580384614705028 -0.003283268955915792 0 3.4935112472275407e-05 -0.0031505271953492218 0 0.00012343202872118391 -0.0030989023699461993 0 -0.0010553243528228619 -0.001791327627908932 0 -0.00098366331056994917 -0.0016718794595877854 0 -0.00096522694789577394 -0.001787557554345654 0 0.0010253535295449959 -0.0014885824110053532 0 0.00097512338599577782 -0.001578647727923348 0 0.00093540855133293491 -0.0014537509502808926 0 -4.3616864016121177e-09 -1.1516819424715208e-07 0 -3.8636682170337028e-06 -7.3863528046010543e-05 0 -2.060639131038214e-05 -0.00010819696469513963 0 -2.6906530083162314e-06 -0.001035333245972721 0 2.8468514667250342e-05 -0.00090656375801373228 0 9.7133535822474748e-05 -0.001062391700201801 0 0.00092202472766695948 -0.0026494497168995084 0 0.00086482730525424363 -0.0027658595225818982 0 0.00084088045693589528 -0.002621714905471439 0 -0.00071668045230168897 -0.0029891847814204659 0 -0.00079018891611565235 -0.0028897356687312549 0 -0.00070298925435600046 -0.0028463559866493829 0 7.4292866251581786e-06 -0.0014925663713591692 0 0.00012357102133141591 -0.0015236188923596458 0 7.1498674830011084e-05 -0.0016789139154196582 0 0.00085678152696122458 -0.0012583258188426797 0 0.00093609129820111116 -0.001334814260738382 0 0.00086010042357404089 -0.0013813700052167568 0 0.00093540855133293491 -0.0014537509502808926 0 0.00086010042357404089 -0.0013813700052167568 0 0.00093609129820111116 -0.001334814260738382 0 0.00077332011273640591 -0.0032642585714632707 0 0.00073079861944014702 -0.0031175188682534185 0 0.00081295386409849192 -0.0030850129802230909 0 -0.0010703089921112921 -0.0027524296649716674 0 -0.00099227663852906605 -0.0026772290840625648 0 -0.00097424891275844309 -0.0028100444007309482 0 -0.00071668045230168897 -0.0029891847814204659 0 -0.00071577555496018261 -0.0031339142250308436 0 -0.00080337683729426079 -0.0030632373077077095 0 0.00092202472766695948 -0.0026494497168995084 0 0.0010006526383331787 -0.0026536429507367635 0 0.00096248416115633567 -0.0027928838462976655 0 -0.00059340189138488183 -0.00056847479314846305 0 -0.00067463230594729765 -0.00064028284265399394 0 -0.00053045299819238795 -0.00045799707899862857 0 0.00021988744944481827 -0.00019848412699678363 0 0.00010242939081439958 -8.8228735930585362e-05 0 0.00017018614359243586 -0.0001357980505358212 0 -0.00077361142194608951 -0.0032643117446360765 0 -0.00080337683729426079 -0.0030632373077077095 0 -0.00071577555496018261 -0.0031339142250308436 0 0.0010701823839357292 -0.0027525395383915336 0 0.00096248416115633567 -0.0027928838462976655 0 0.0010006526383331787 -0.0026536429507367635 0 -0.00067482899985199876 -0.00062441747194437415 0 -0.00053045299819238795 -0.00045799707899862863 0 -0.00067463230594729765 -0.00064028284265399394 0 2.5449679813620412e-08 -1.0712327261037138e-07 0 0.00017018614359243586 -0.0001357980505358212 0 0.00010242939081439958 -8.8228735930585362e-05 0 0.00067613734966410718 -0.00062355824771034006 0 0.00067615011526108804 -0.00064299911665745518 0 0.000535827680949725 -0.00046555264041329113 0 -2.5298612665000203e-08 -1.0574554446417061e-07 0 -0.00010319304866969543 -8.8426328485099103e-05 0 -0.0001813315029652873 -0.00014536175017727752 0 0.000602207486640461 -0.000580833707931213 0 0.000535827680949725 -0.00046555264041329113 0 0.00067615011526108804 -0.00064299911665745518 0 -0.00021147819347357115 -0.00019490610925588871 0 -0.0001813315029652873 -0.00014536175017727752 0 -0.00010319304866969543 -8.8426328485099103e-05 0 -0.00021952126495611662 -0.001909602269402769 0 -0.00011638770851261737 -0.0017931543661354164 0 -0.00010581089095128313 -0.0019476045306743039 0 7.4292866251581786e-06 -0.0014925663713591692 0 7.1498674830011084e-05 -0.0016789139154196582 0 -4.711013638105438e-05 -0.0016633463872422459 0 -0.00036337746159356433 -0.0013025231113967682 0 -0.000407545771819639 -0.0011442679635552634 0 -0.00030815322573175054 -0.0011642005587191387 0 -0.00030598347987567469 -0.0010085067724947725 0 -0.00030815322573175054 -0.0011642005587191387 0 -0.000407545771819639 -0.0011442679635552634 0 -0.00022752732609933766 -0.0012118740483259688 0 -0.00022314204956751064 -0.0010783856516202893 0 -0.00015015810229746944 -0.0011619565900775012 0 0.00011383770790736389 -0.00091305599310033446 0 9.7133535822474748e-05 -0.001062391700201801 0 2.8468514667250342e-05 -0.00090656375801373228 0 0.00077922477227631703 -0.0020432837354079914 0 0.00085583837633753203 -0.002128595142961156 0 0.00080167288187301701 -0.0022277671791604298 0 0.00015401925971998288 -0.00036467347058051323 0 0.00014217374938582246 -0.00026429084500556414 0 0.00020489612699280685 -0.00034179677670023479 0 -0.00032700767464957246 -0.0027359144744965652 0 -0.00037807580378162813 -0.0028708814149828459 0 -0.00045006376952523369 -0.002773126442805366 0 -0.00069821035653206906 -0.001105877354396769 0 -0.00075341525071357524 -0.0010583191481675239 0 -0.00067267770146905558 -0.00093247202231702513 0 -0.00020352970954904057 -0.0014620726276644346 0 -0.00023071546242755297 -0.001619513835377168 0 -0.00032293479386215563 -0.0015429074485789481 0 -0.00016308426552928224 -0.0026466659191298884 0 -0.00026596371140694429 -0.0025812255344375124 0 -0.00015838615352807559 -0.0024988667512405569 0 0.00072311336043630423 -0.0017977202780050511 0 0.00068843705911159287 -0.0019415933333924486 0 0.00063632607515762968 -0.0017767794662964353 0 -0.00068809948723127742 -0.0013289916682455922 0 -0.00062940345974110614 -0.0011695598486467112 0 -0.00060414141187447776 -0.0013157571202466554 0 8.6069933786918332e-05 -0.00042594403963507451 0 0.00015423974061447852 -0.00048499559600007557 0 9.8519951313987407e-05 -0.00054605247601412134 0 0.00081295386409849192 -0.0030850129802230909 0 0.00073079861944014713 -0.0031175188682534185 0 0.00078944604548028801 -0.0029686712356183946 0 -0.00097424891275844309 -0.0028100444007309482 0 -0.00099227663852906605 -0.0026772290840625648 0 -0.00090989086785704871 -0.0027677015218045961 0 0.00071431125007103097 -0.0029713246627147485 0 0.00078944604548028801 -0.0029686712356183946 0 0.00073079861944014713 -0.0031175188682534185 0 -0.00091243881391830516 -0.0026454535352062767 0 -0.00090989086785704871 -0.0027677015218045961 0 -0.00099227663852906605 -0.0026772290840625648 0 0.00064295630290055108 -0.0022845650642980297 0 0.00075096252586001047 -0.0023379895868338692 0 0.00065692912355538153 -0.0024324316724051707 0 -0.00049761585843734245 -0.0025065505806392287 0 -0.00052610299163779626 -0.0026871981475048092 0 -0.00059192506498379903 -0.0025330952820310036 0 0.0003233991414052859 -0.00057374664086668229 0 0.00028021827900483317 -0.00042048448323056797 0 0.00038240872494807048 -0.00056135338731025711 0 -0.00050736598099081849 -0.00081563613729888191 0 -0.00059002914700724833 -0.00080035754061416001 0 -0.00047342901904408671 -0.00067266537344909036 0 0.00010597910312252497 -0.0012178497293608692 0 1.6538724222960888e-05 -0.0013131640579115455 0 1.0323091644357024e-05 -0.0011606833015586164 0 0.00010597910312252497 -0.0012178497293608692 0 0.00020404330306501368 -0.0012818662392639704 0 0.0001068002394028824 -0.0013705641353366211 0 0.00071431125007103097 -0.0029713246627147485 0 0.00070890024232745969 -0.0028157946823489256 0 0.00078821212409423374 -0.0028469481146762466 0 -0.00091243881391830516 -0.0026454535352062767 0 -0.000823449394465435 -0.0026305522868845187 0 -0.00084046673010320619 -0.0027610964422798319 0 0.00076835666340450168 -0.0024871657596987448 0 0.00067211524198093489 -0.0025700305370881206 0 0.00065692912355538153 -0.0024324316724051707 0 -0.00062125421461419351 -0.0027191966637379324 0 -0.0006770493901885722 -0.0025628661345629407 0 -0.00059192506498379903 -0.0025330952820310036 0 0.00032509442189684363 -0.00040346730196435382 0 0.00044240305162513913 -0.0005630896794897736 0 0.00038240872494807048 -0.00056135338731025711 0 -0.00054732017968438468 -0.00065924439022332947 0 -0.00042269338719677185 -0.00054006855075611183 0 -0.00047342901904408671 -0.00067266537344909036 0 0.00046258459817169348 -0.001770704411802667 0 0.00036059197862870114 -0.0018420313509803765 0 0.00038118507264542302 -0.0017078429035940941 0 0.0004477283585339619 -0.0019115450981424548 0 0.00036059197862870114 -0.0018420313509803765 0 0.00046258459817169348 -0.001770704411802667 0 0.0001305119820998887 -0.00079758529156371682 0 0.00018972364306277934 -0.00095847337499660045 0 0.00011383770790736389 -0.00091305599310033446 0 0.00020750007222753195 -0.00083095966880457827 0 0.00018972364306277934 -0.00095847337499660045 0 0.0001305119820998887 -0.00079758529156371682 0 0.00012343202872118391 -0.0030989023699461993 0 0.00016064584981927897 -0.0029692585201685556 0 0.0002161822132951268 -0.0031366088329142301 0 0.00025477140897188646 -0.0029930492284742675 0 0.0002161822132951268 -0.0031366088329142301 0 0.00016064584981927897 -0.0029692585201685556 0 -0.00096522694789577394 -0.001787557554345654 0 -0.0009013727684198075 -0.0018267652503916017 0 -0.00099089962402173506 -0.0019183996488827959 0 -0.00091893845998095101 -0.0019608447017108923 0 -0.00099089962402173506 -0.0019183996488827959 0 -0.0009013727684198075 -0.0018267652503916017 0 -2.060639131038214e-05 -0.00010819696469513963 0 -4.5242611437645718e-05 -0.00019085533345551366 0 -3.0679032996413973e-05 -8.2842069012435514e-05 0 -6.6894459347258933e-05 -0.0001739445473559584 0 -3.0679032996413973e-05 -8.2842069012435514e-05 0 -4.5242611437645718e-05 -0.00019085533345551366 0 0.00015471073639137682 -0.0019822146351503337 0 9.5901004921971687e-05 -0.0020971254992896895 0 2.7555541601239415e-05 -0.0019924853362546613 0 -0.00032494557505715385 -0.001741323472847765 0 -0.00038699275368824274 -0.0016532963561117469 0 -0.00032293479386215563 -0.0015429074485789481 0 3.5085164116114958e-05 -0.0021978978525820886 0 2.7555541601239415e-05 -0.0019924853362546613 0 9.5901004921971687e-05 -0.0020971254992896895 0 -0.00044696615241197326 -0.0015695708861925384 0 -0.00032293479386215563 -0.0015429074485789481 0 -0.00038699275368824274 -0.0016532963561117469 0 0.00088314268861317902 -0.0029291591647167227 0 0.00081295386409849192 -0.0030850129802230909 0 0.00078944604548028801 -0.0029686712356183946 0 -0.00088649743333679937 -0.0029235793549806303 0 -0.00097424891275844309 -0.0028100444007309482 0 -0.00090989086785704871 -0.0027677015218045961 0 0.00021988744944481827 -0.00019848412699678363 0 0.00017018614359243586 -0.0001357980505358212 0 0.0002793858602045461 -0.00023313381919677897 0 -0.00059340189138488183 -0.00056847479314846305 0 -0.00053045299819238795 -0.00045799707899862857 0 -0.00048278850280291513 -0.00042619442760373879 0 0.00040994869937090623 -0.0030371218918292427 0 0.00047236726222655315 -0.0029310879674516979 0 0.0004988023002595515 -0.0031073473878293154 0 -0.00094672122768528759 -0.0021862944700915092 0 -0.00089051615435608363 -0.0022715213360301138 0 -0.00098500749294261076 -0.0023203624754405375 0 0.00082830448407602479 -0.0010507905984195058 0 0.00074196829404469384 -0.00093174022791593029 0 0.00081953322283130267 -0.00094661801027557464 0 -9.500510477008077e-05 -0.0001469442416315393 0 -0.00015924873034782087 -0.00022865739989616705 0 -8.766349654812051e-05 -0.00010679767819739457 0 0.00023180886115268612 -0.0023691958965674485 0 0.00017889836525417161 -0.0024891477389500333 0 0.00010561221666783933 -0.0023790340254178518 0 -0.0005602747617053296 -0.0018749951771058352 0 -0.00063122920275674517 -0.0018063186197354558 0 -0.00056182438799519667 -0.001688606743671259 0 0.00051480322688294677 -0.0011917948117708703 0 0.00059425136862334502 -0.0012840503812382479 0 0.0005421337030934928 -0.0013784132411825474 0 -0.00016343874763437391 -0.00066451986009798581 0 -0.0001123280363324006 -0.00055749747961543646 0 -7.2907031180242116e-05 -0.00064771490645145857 0 0.00015471073639137682 -0.0019822146351503337 0 8.3032949018807753e-05 -0.0018527598321055085 0 0.00017477099408150714 -0.0017947916224267291 0 0.00023180886115268612 -0.0023691958965674485 0 0.00016671293093172126 -0.0021983966826054934 0 0.00025551985512179152 -0.0022308396187134317 0 -0.0005602747617053296 -0.0018749951771058352 0 -0.00045106538844511695 -0.0017605840882747347 0 -0.00047487221534405741 -0.0019011814236305096 0 0.00051480322688294677 -0.0011917948117708703 0 0.00042438462093483044 -0.0012739618128575284 0 0.00042904005116149062 -0.0011417584890101174 0 -0.00016343874763437391 -0.00066451986009798581 0 -0.00012804383018331689 -0.00081431745761876477 0 -0.00019593866122220212 -0.00079070736344599387 0 -1.0786098998901747e-07 -0.0024977033859799025 0 0.00010561221666783933 -0.0023790340254178518 0 8.900385615298793e-05 -0.0025725090548799033 0 -0.00062458401457774198 -0.0015459369504894529 0 -0.00056182438799519667 -0.001688606743671259 0 -0.00067580556916123022 -0.0016831891830339206 0 0.00062429202437789839 -0.0015459776078792485 0 0.0005421337030934928 -0.0013784132411825474 0 0.00065741693066820783 -0.001425704011592909 0 -1.3454590310254055e-07 -0.00054594288046636691 0 -7.2907031180242116e-05 -0.00064771490645145857 0 -5.0788077278138216e-05 -0.00048518323548474404 0 3.5085164116114958e-05 -0.0021978978525820886 0 9.5901004921971687e-05 -0.0020971254992896895 0 0.00016671293093172124 -0.0021983966826054939 0 -0.00044696615241197326 -0.0015695708861925384 0 -0.00038699275368824274 -0.0016532963561117469 0 -0.00045106538844511695 -0.0017605840882747347 0 0.00015471073639137682 -0.0019822146351503337 0 0.00016671293093172124 -0.0021983966826054939 0 9.5901004921971687e-05 -0.0020971254992896895 0 -0.00032494557505715385 -0.001741323472847765 0 -0.00045106538844511695 -0.0017605840882747347 0 -0.00038699275368824274 -0.0016532963561117469 0 0.00025477140897188646 -0.0029930492284742675 0 0.0001938664829753808 -0.0028206568490217509 0 0.00029151467751574992 -0.0028496284593710337 0 -0.00091893845998095101 -0.0019608447017108923 0 -0.00082322752648471579 -0.0018593898077656605 0 -0.00084242499758562558 -0.0020016640295019601 0 0.00085678152696122458 -0.0012583258188426797 0 0.00077876366555214391 -0.0013115475388564388 0 0.00077043296321808508 -0.001178052639700997 0 -6.6894459347258933e-05 -0.0001739445473559584 0 -7.8883439335041556e-05 -0.00029483600309838194 0 -0.00011224337557861578 -0.00027663079968180248 0 6.642179206950935e-06 -0.00013382782966030811 0 6.4576641902678207e-06 -5.7675984272775899e-05 0 2.0980391455549798e-05 -8.760172171362169e-05 0 -0.00092724328913797985 -0.0015714535990377931 0 -0.00098503941433457864 -0.0015506183710174229 0 -0.0009478517845807671 -0.0014359340178384248 0 0.00093400729291139776 -0.0016562789340670275 0 0.00099901073471695811 -0.0017062799147073697 0 0.00098100322247503128 -0.0018120718723682008 0 -3.1278378218808839e-05 -0.0030522003843418319 0 -5.8306454285217544e-05 -0.0031784464339600495 0 -0.00013962512193605537 -0.0031279292020757114 0 0.00015927271026806961 -0.0026337028481081865 0 9.5199162783852784e-05 -0.0027242139891205637 0 8.900385615298793e-05 -0.0025725090548799033 0 -0.00071548638443959093 -0.0017911002145981655 0 -0.00076292745883312009 -0.0017085098827939725 0 -0.00067580556916123022 -0.0016831891830339206 0 0.00068109584707253543 -0.001332323340911994 0 0.00074234972817300887 -0.0014371609050326942 0 0.00065741693066820783 -0.001425704011592909 0 -8.5122559190540514e-05 -0.00043756514355954056 0 -4.4117818287938465e-05 -0.00036679259426657118 0 -5.0788077278138216e-05 -0.00048518323548474404 0 7.4292866251581786e-06 -0.0014925663713591692 0 -4.711013638105438e-05 -0.0016633463872422459 0 -0.00010799078840485529 -0.0015435672918297204 0 0.0005547413475024594 -0.0025658242578141129 0 0.00046308310176311056 -0.0025662573886876907 0 0.00049275669995719042 -0.0024024627218975137 0 -0.00067854319330367535 -0.0023757570227874204 0 -0.00067966801650011705 -0.0022352804881517864 0 -0.00057932773054457452 -0.0022716386834241236 0 0.0005099678281405705 -0.00073733925252949758 0 0.000554837206068326 -0.00087519568423298575 0 0.00045398797072123439 -0.00080845820462775383 0 -0.00034367382092962827 -0.00052831276800034178 0 -0.00028173903560287978 -0.00051816689574683383 0 -0.00034839190880940537 -0.0006659422841703011 0 -0.00016308426552928224 -0.0026466659191298884 0 -0.00022360812234884864 -0.0027536997501805402 0 -0.00026596371140694429 -0.0025812255344375124 0 -0.00032700767464957246 -0.0027359144744965652 0 -0.00026596371140694429 -0.0025812255344375124 0 -0.00022360812234884864 -0.0027536997501805402 0 -0.00068809948723127742 -0.0013289916682455922 0 -0.0007358012154781347 -0.0012582375847731669 0 -0.00062940345974110614 -0.0011695598486467112 0 0.00072311336043630423 -0.0017977202780050511 0 0.00078670454277511039 -0.0018948230401092043 0 0.00068843705911159287 -0.0019415933333924486 0 0.00077922477227631703 -0.0020432837354079914 0 0.00068843705911159287 -0.0019415933333924486 0 0.00078670454277511039 -0.0018948230401092043 0 -0.00069821035653206906 -0.001105877354396769 0 -0.00062940345974110614 -0.0011695598486467112 0 -0.0007358012154781347 -0.0012582375847731669 0 8.6069933786918332e-05 -0.00042594403963507451 0 0.0001003045851335684 -0.00034540912868010864 0 0.00015423974061447852 -0.00048499559600007557 0 0.00015401925971998288 -0.00036467347058051323 0 0.00015423974061447852 -0.00048499559600007557 0 0.00010030458513356841 -0.00034540912868010864 0 0.00035583058308110864 -0.0020123917085811075 0 0.00036059197862870114 -0.0018420313509803765 0 0.0004477283585339619 -0.0019115450981424548 0 0.00028338695537876433 -0.00097353293386115175 0 0.00018972364306277934 -0.00095847337499660045 0 0.00020750007222753195 -0.00083095966880457827 0 -0.00033005084703334545 -0.0020435173740402071 0 -0.00022248012396097711 -0.0020549908749719265 0 -0.00026786699716641201 -0.002188063967309218 0 0.00088314268861317902 -0.0029291591647167227 0 0.00078821212409423374 -0.0028469481146762461 0 0.00086482730525424363 -0.0027658595225818982 0 -0.00088649743333679937 -0.0029235793549806303 0 -0.00084046673010320619 -0.0027610964422798315 0 -0.00079018891611565235 -0.0028897356687312549 0 0.00034997063103885963 -0.00027472379843922152 0 0.00047150170689862594 -0.0004332214606734148 0 0.00035207625461974802 -0.00032796468045385839 0 -0.0003535153021894378 -0.00027896914086284125 0 -0.00032724322395254879 -0.00029592749801565538 0 -0.00045255541571823083 -0.00042371991778326998 0 -0.00032293479386215563 -0.0015429074485789481 0 -0.00037063764053606532 -0.0014331244486548607 0 -0.00027298108180183868 -0.0013519445412603262 0 0.00093757097397157438 -0.0021206995371952828 0 0.00097541356765513205 -0.0023008756121836332 0 0.00088883881581832487 -0.002231500703974384 0 9.0069719981212515e-05 -0.00015640947313010924 0 9.1121765247457006e-05 -0.00011314742468214043 0 0.00014871395919107731 -0.00022373253113601704 0 -0.00036558954333402305 -0.0030220101076462 0 -0.00048675046050595708 -0.003090115683142687 0 -0.00044545758738439727 -0.0029293084966644468 0 -0.00083777889461422684 -0.0011093757747826258 0 -0.0008205157443316798 -0.00095894977851484478 0 -0.00075768359871829075 -0.00097379226811197296 0 -0.00014934974652895973 -0.001676353178091102 0 -0.00010799078840485528 -0.0015435672918297204 0 -4.711013638105438e-05 -0.0016633463872422459 0 -0.00036337746159356433 -0.0013025231113967682 0 -0.00044056934750519793 -0.0012738528381395335 0 -0.000407545771819639 -0.0011442679635552634 0 0.0010702967906231122 -0.0022649702686890817 0 0.00097541356765513205 -0.0023008756121836332 0 0.0010130232854660189 -0.0021697090584929784 0 1.3246110395739143e-08 -1.2061103969544942e-07 0 9.1121765247457006e-05 -0.00011314742468214044 0 4.5075311715929861e-05 -6.4355049131814112e-05 0 -0.00045619262996695242 -0.0032781427832357097 0 -0.00048675046050595708 -0.003090115683142687 0 -0.00039385076839225689 -0.0031664881248693842 0 -0.00091916719627713108 -0.0010563800554009358 0 -0.0008205157443316798 -0.00095894977851484489 0 -0.00089703875338862542 -0.0011056752050324751 0 0.00015927271026806961 -0.0026337028481081865 0 0.00017889836525417161 -0.0024891477389500333 0 0.00027992921567684931 -0.0025542745456222822 0 0.00023180886115268612 -0.0023691958965674485 0 0.00027992921567684931 -0.0025542745456222822 0 0.00017889836525417161 -0.0024891477389500333 0 -0.0005602747617053296 -0.0018749951771058352 0 -0.00067326245967798566 -0.0019601726469222029 0 -0.00063122920275674517 -0.0018063186197354558 0 -0.00071548638443959093 -0.0017911002145981655 0 -0.00063122920275674517 -0.0018063186197354558 0 -0.00067326245967798566 -0.0019601726469222029 0 0.00051480322688294677 -0.0011917948117708703 0 0.00061047928760056915 -0.0011448264167378082 0 0.00059425136862334502 -0.0012840503812382479 0 0.00068109584707253543 -0.001332323340911994 0 0.00059425136862334502 -0.0012840503812382479 0 0.00061047928760056915 -0.0011448264167378082 0 -0.00016343874763437391 -0.00066451986009798581 0 -0.00016769178661654746 -0.00050748955932371784 0 -0.0001123280363324006 -0.00055749747961543646 0 -8.5122559190540514e-05 -0.00043756514355954056 0 -0.0001123280363324006 -0.00055749747961543646 0 -0.00016769178661654746 -0.00050748955932371784 0 0.00032674239640009036 -0.0027358628217112185 0 0.00024119144236150087 -0.002693506974537979 0 0.00027992921567684931 -0.0025542745456222822 0 -0.00077947996741965016 -0.0020432651348428932 0 -0.00075321114735058697 -0.0019152920522360355 0 -0.00067326245967798566 -0.0019601726469222029 0 0.00069789577480728823 -0.0011064706961691822 0 0.0006976998583018664 -0.0012230068808217055 0 0.00061047928760056915 -0.0011448264167378082 0 -0.00015398201756179836 -0.0003637632085101638 0 -0.00011915984136689018 -0.00039309948414935499 0 -0.00016769178661654746 -0.00050748955932371784 0 8.0468999586716489e-05 -0.0028755529010354628 0 0.0001938664829753808 -0.0028206568490217513 0 0.00016064584981927897 -0.0029692585201685556 0 -0.00084585185251827494 -0.0017048708024006904 0 -0.00082322752648471579 -0.0018593898077656605 0 -0.0009013727684198075 -0.0018267652503916017 0 0.00085678152696122458 -0.0012583258188426797 0 0.00086010042357404089 -0.0013813700052167568 0 0.00077876366555214402 -0.0013115475388564388 0 -2.9675824760765668e-05 -0.00025398432908511914 0 -7.8883439335041569e-05 -0.00029483600309838194 0 -4.5242611437645718e-05 -0.00019085533345551366 0 0.00025477140897188646 -0.0029930492284742675 0 0.00016064584981927897 -0.0029692585201685556 0 0.0001938664829753808 -0.0028206568490217513 0 -0.00091893845998095101 -0.0019608447017108923 0 -0.0009013727684198075 -0.0018267652503916017 0 -0.00082322752648471579 -0.0018593898077656605 0 0.00082791278106306512 -0.0014793236949277415 0 0.00077876366555214402 -0.0013115475388564388 0 0.00086010042357404089 -0.0013813700052167568 0 -6.6894459347258933e-05 -0.0001739445473559584 0 -4.5242611437645718e-05 -0.00019085533345551366 0 -7.8883439335041569e-05 -0.00029483600309838194 0 0.00015927271026806961 -0.0026337028481081865 0 0.00024119144236150087 -0.002693506974537979 0 0.0001938664829753808 -0.0028206568490217513 0 -0.00071548638443959093 -0.0017911002145981655 0 -0.00075321114735058697 -0.0019152920522360355 0 -0.00082322752648471579 -0.0018593898077656605 0 0.00068109584707253543 -0.001332323340911994 0 0.0006976998583018664 -0.0012230068808217055 0 0.00077876366555214402 -0.0013115475388564388 0 -8.5122559190540514e-05 -0.00043756514355954056 0 -0.00011915984136689018 -0.00039309948414935499 0 -7.8883439335041569e-05 -0.00029483600309838194 0 0.00064295630290055108 -0.0022845650642980297 0 0.00065692912355538153 -0.0024324316724051707 0 0.00057599283735218314 -0.0023785943530898481 0 -0.00049761585843734245 -0.0025065505806392287 0 -0.00059192506498379903 -0.0025330952820310036 0 -0.00056095508783564829 -0.0024015952268680208 0 0.0003233991414052859 -0.00057374664086668229 0 0.00038240872494807048 -0.00056135338731025711 0 0.00040321012749442982 -0.00068141901233163338 0 -0.00050736598099081849 -0.00081563613729888191 0 -0.00047342901904408671 -0.00067266537344909036 0 -0.00042236957689500027 -0.00070765664782901469 0 0.00072311336043630423 -0.0017977202780050511 0 0.00063632607515762968 -0.0017767794662964353 0 0.00068934407990244636 -0.0016736404809845613 0 -0.00016308426552928224 -0.0026466659191298884 0 -0.00015838615352807559 -0.0024988667512405569 0 -8.0655676026818204e-05 -0.0025968208435765828 0 8.6069933786918332e-05 -0.00042594403963507451 0 9.8519951313987407e-05 -0.00054605247601412134 0 4.539973927703119e-05 -0.00046404699970356881 0 -0.00068809948723127742 -0.0013289916682455922 0 -0.00060414141187447776 -0.0013157571202466554 0 -0.00067299717121486449 -0.0014411521082850147 0 0.00093757097397157438 -0.0021206995371952828 0 0.0010130232854660189 -0.0021697090584929784 0 0.00097541356765513205 -0.0023008756121836332 0 9.0069719981212515e-05 -0.00015640947313010924 0 4.5075311715929861e-05 -6.4355049131814112e-05 0 9.1121765247457006e-05 -0.00011314742468214043 0 -0.00036558954333402305 -0.0030220101076462 0 -0.00039385076839225689 -0.0031664881248693842 0 -0.00048675046050595708 -0.003090115683142687 0 -0.00083777889461422684 -0.0011093757747826258 0 -0.00089703875338862542 -0.0011056752050324751 0 -0.0008205157443316798 -0.00095894977851484489 0 3.5085164116114958e-05 -0.0021978978525820886 0 -7.7415000267790825e-05 -0.0022094104113232768 0 -5.1734819677287711e-05 -0.0020808478597652753 0 -0.00044696615241197326 -0.0015695708861925384 0 -0.00044378918685196412 -0.0014025460741385908 0 -0.00037063764053606532 -0.0014331244486548607 0 8.0468999586716489e-05 -0.0028755529010354628 0 5.6528405404195428e-05 -0.0030068177564713341 0 -2.930782109560069e-05 -0.0028939625922343366 0 -0.00084585185251827494 -0.0017048708024006904 0 -0.00091327154448795451 -0.0016865048733974231 0 -0.00084491965270449925 -0.0015534546781702597 0 0.00082791278106306512 -0.0014793236949277415 0 0.00089977274634500161 -0.0015305449998693707 0 0.00085095318198624248 -0.0016352013219456554 0 -2.9675824760765668e-05 -0.00025398432908511914 0 -1.4730216885576908e-05 -0.00016403871477994487 0 1.0463548615246729e-05 -0.00024053725485268941 0 -1.9132101217615004e-05 -0.0018125166389691991 0 -4.711013638105438e-05 -0.0016633463872422459 0 7.1498674830011084e-05 -0.0016789139154196582 0 0.00071431125007103097 -0.0029713246627147485 0 0.00063809553735680649 -0.0028846864036607134 0 0.00070890024232745969 -0.0028157946823489256 0 -0.00091243881391830516 -0.0026454535352062767 0 -0.00086389459819730466 -0.002521205685295869 0 -0.000823449394465435 -0.0026305522868845187 0 0.00088314268861317902 -0.0029291591647167227 0 0.00078944604548028801 -0.0029686712356183946 0 0.00078821212409423374 -0.0028469481146762466 0 -0.00088649743333679937 -0.0029235793549806303 0 -0.00090989086785704871 -0.0027677015218045961 0 -0.00084046673010320619 -0.0027610964422798319 0 0.00021988744944481827 -0.00019848412699678363 0 0.0002793858602045461 -0.00023313381919677897 0 0.00035207625461974802 -0.00032796468045385839 0 -0.00059340189138488183 -0.00056847479314846305 0 -0.00048278850280291513 -0.00042619442760373873 0 -0.00045255541571823083 -0.00042371991778326998 0 0.00015927271026806961 -0.0026337028481081865 0 0.00027992921567684931 -0.0025542745456222822 0 0.00024119144236150087 -0.002693506974537979 0 -0.00071548638443959093 -0.0017911002145981655 0 -0.00067326245967798566 -0.0019601726469222029 0 -0.00075321114735058697 -0.0019152920522360355 0 0.00068109584707253543 -0.001332323340911994 0 0.00061047928760056905 -0.0011448264167378082 0 0.0006976998583018664 -0.0012230068808217055 0 -8.5122559190540514e-05 -0.00043756514355954056 0 -0.00016769178661654746 -0.00050748955932371784 0 -0.00011915984136689018 -0.00039309948414935499 0 0.000602207486640461 -0.000580833707931213 0 0.00053689310830676957 -0.00055633722075463762 0 0.00047150170689862594 -0.00043322146067341474 0 -0.00021147819347357115 -0.00019490610925588871 0 -0.00030859104067471776 -0.00032222482209803529 0 -0.00032724322395254885 -0.00029592749801565538 0 7.4292866251581786e-06 -0.0014925663713591692 0 -8.6432850076039415e-05 -0.0013950084176596095 0 1.6538724222960888e-05 -0.0013131640579115455 0 -8.4974520358098926e-05 -0.0012507139628059128 0 1.6538724222960888e-05 -0.0013131640579115455 0 -8.6432850076039415e-05 -0.0013950084176596095 0 0.00047208838528691144 -0.0022365984939816497 0 0.00041266504137118154 -0.002316588136200197 0 0.00041376755809378749 -0.0021445436615629217 0 -0.00047476127669158011 -0.0022329047873766794 0 -0.0005258243000396724 -0.0021424573220331228 0 -0.00041504663875391198 -0.002137972867030268 0 0.00037394757580148659 -0.00082125972155149332 0 0.00043698619761215705 -0.00091732270961335618 0 0.00034144817131636946 -0.000899346084948497 0 -0.00037049308602232479 -0.00081762670342846924 0 -0.00030556519808249945 -0.00073262609423857018 0 -0.00033791011355916573 -0.00089318730980100542 0 -0.00013493534533299056 -0.0010015449899348741 0 -0.00022314204956751064 -0.0010783856516202893 0 -0.00021122198752889854 -0.0009195046068363105 0 -3.1278378218808839e-05 -0.0030522003843418319 0 -2.930782109560069e-05 -0.0028939625922343366 0 5.6528405404195428e-05 -0.0030068177564713341 0 -0.00092724328913797985 -0.0015714535990377931 0 -0.00084491965270449925 -0.0015534546781702597 0 -0.00091327154448795451 -0.0016865048733974231 0 0.00093400729291139776 -0.0016562789340670275 0 0.00085095318198624248 -0.0016352013219456554 0 0.00089977274634500161 -0.0015305449998693707 0 6.642179206950935e-06 -0.00013382782966030811 0 1.0463548615246729e-05 -0.00024053725485268941 0 -1.4730216885576908e-05 -0.00016403871477994487 0 -0.00013377492341669892 -0.0020887663731309213 0 -0.00017246640854264109 -0.0022133409754903168 0 -0.00022248012396097711 -0.0020549908749719265 0 -0.00026786699716641201 -0.002188063967309218 0 -0.00022248012396097711 -0.0020549908749719265 0 -0.00017246640854264109 -0.0022133409754903168 0 0.00017052959804438858 -0.0016470506558008157 0 0.00012357102133141591 -0.0015236188923596458 0 0.00022000156483621038 -0.0015614161442679584 0 0.00077332011273640591 -0.0032642585714632707 0 0.00067116786126335997 -0.0032702001030457178 0 0.00073079861944014713 -0.0031175188682534185 0 -0.0010703089921112921 -0.0027524296649716674 0 -0.0010716933265674223 -0.0025894118285010917 0 -0.00099227663852906605 -0.0026772290840625648 0 0.00067613734966410718 -0.00062355824771034006 0 0.00077963328575177181 -0.00076959063165540486 0 0.00067615011526108804 -0.00064299911665745518 0 -2.5298612665000203e-08 -1.0574554446417061e-07 0 -3.6270618461195264e-08 -1.2085444276226093e-07 0 -0.00010319304866969543 -8.8426328485099103e-05 0 0.0010715411177772433 -0.0025896793178043992 0 0.0010701823839357292 -0.0027525395383915336 0 0.0010006526383331787 -0.0026536429507367635 0 3.5657329460994633e-08 -1.2089934809885443e-07 0 2.5449679813620412e-08 -1.0712327261037138e-07 0 0.00010242939081439958 -8.8228735930585362e-05 0 -0.00067163111038712794 -0.0032701221019693183 0 -0.00077361142194608951 -0.0032643117446360765 0 -0.00071577555496018261 -0.0031339142250308436 0 -0.00077990937282139048 -0.00076970488729753771 0 -0.00067482899985199876 -0.00062441747194437415 0 -0.00067463230594729765 -0.00064028284265399394 0 0.00034107823052491646 -0.0022024633674542636 0 0.00041376755809378749 -0.0021445436615629217 0 0.00041266504137118154 -0.002316588136200197 0 -0.00045610603300844278 -0.0020290306473031319 0 -0.00041504663875391198 -0.002137972867030268 0 -0.0005258243000396724 -0.0021424573220331228 0 0.00039357228901189473 -0.001012074508212 0 0.00034144817131636946 -0.000899346084948497 0 0.00043698619761215705 -0.00091732270961335618 0 -0.0002678450298365408 -0.00082704448024968548 0 -0.00033791011355916573 -0.00089318730980100542 0 -0.00030556519808249945 -0.00073262609423857018 0 -5.5253324492241755e-06 -0.0027120272280701258 0 -2.930782109560069e-05 -0.0028939625922343366 0 -0.00010947758756390695 -0.0027678823395685735 0 -0.00074785263498616697 -0.0015633638184508335 0 -0.00084491965270449925 -0.0015534546781702597 0 -0.00076543121414675373 -0.0014229550380670851 0 0.00074875972146642175 -0.0015789619660197063 0 0.00085095318198624248 -0.0016352013219456554 0 0.00078879892176014473 -0.0017335348692528692 0 3.222798048338061e-06 -0.00037335808453775214 0 1.0463548615246729e-05 -0.00024053725485268941 0 4.9127698214899003e-05 -0.000331897715191598 0 0.00047208838528691144 -0.0022365984939816497 0 0.00041376755809378749 -0.0021445436615629217 0 0.00050000905713618613 -0.002073815073752836 0 -0.00047476127669158011 -0.0022329047873766794 0 -0.00041504663875391198 -0.002137972867030268 0 -0.000369550795427801 -0.0022774792104249919 0 0.00037394757580148659 -0.00082125972155149332 0 0.00034144817131636946 -0.000899346084948497 0 0.0002800317738380599 -0.0007658727444728716 0 -0.00037049308602232479 -0.00081762670342846924 0 -0.00033791011355916573 -0.00089318730980100542 0 -0.00042674682879515814 -0.00098022978010089512 0 0.00093757097397157438 -0.0021206995371952828 0 0.0010086688314561647 -0.0020576585737488965 0 0.0010130232854660189 -0.0021697090584929784 0 9.0069719981212515e-05 -0.00015640947313010924 0 3.5942378377048378e-05 -6.6229241404526759e-05 0 4.5075311715929861e-05 -6.4355049131814112e-05 0 -0.00083777889461422684 -0.0011093757747826258 0 -0.0009227250834321015 -0.001209023946801957 0 -0.00089703875338862542 -0.0011056752050324751 0 -0.00036558954333402305 -0.0030220101076462 0 -0.00031537448069411742 -0.0031632050583324154 0 -0.00039385076839225689 -0.0031664881248693842 0 0.0010679283046203347 -0.0021055366834483052 0 0.0010702967906231122 -0.0022649702686890817 0 0.0010130232854660189 -0.0021697090584929784 0 1.5254593448245084e-08 -1.1507470787240704e-07 0 1.3246110395739143e-08 -1.2061103969544942e-07 0 4.5075311715929861e-05 -6.4355049131814112e-05 0 -0.00034467334325806497 -0.0032807342219573609 0 -0.00045619262996695242 -0.0032781427832357097 0 -0.00039385076839225689 -0.0031664881248693842 0 -0.00096617016798320853 -0.0011964962169500174 0 -0.00091916719627713108 -0.0010563800554009358 0 -0.00089703875338862542 -0.0011056752050324751 0 -0.0010009210840509612 -0.0013407901389926686 0 -0.00096617016798320853 -0.0011964962169500174 0 -0.0009227250834321015 -0.001209023946801957 0 -0.00023117220769429777 -0.0032824935570381544 0 -0.00034467334325806497 -0.0032807342219573609 0 -0.00031537448069411742 -0.0031632050583324154 0 1.1906656316701837e-08 -1.1482208184370794e-07 0 1.5254593448245084e-08 -1.1507470787240704e-07 0 3.5942378377048378e-05 -6.6229241404526759e-05 0 0.001062856139237958 -0.0019478487551134631 0 0.0010679283046203347 -0.0021055366834483052 0 0.0010086688314561647 -0.0020576585737488965 0 0.00071431125007103097 -0.0029713246627147485 0 0.00078821212409423374 -0.0028469481146762466 0 0.00078944604548028801 -0.0029686712356183946 0 -0.00091243881391830516 -0.0026454535352062767 0 -0.00084046673010320619 -0.0027610964422798319 0 -0.00090989086785704871 -0.0027677015218045961 0 0.00034997063103885963 -0.00027472379843922152 0 0.00035207625461974802 -0.00032796468045385833 0 0.0002793858602045461 -0.00023313381919677897 0 -0.0003535153021894378 -0.00027896914086284125 0 -0.00045255541571823083 -0.00042371991778326998 0 -0.00048278850280291513 -0.00042619442760373879 0 0.00023180886115268612 -0.0023691958965674485 0 0.00025551985512179152 -0.0022308396187134317 0 0.00033395384028604811 -0.0023702339485832881 0 0.00034107823052491646 -0.0022024633674542636 0 0.00033395384028604811 -0.0023702339485832881 0 0.00025551985512179152 -0.0022308396187134317 0 -0.0005602747617053296 -0.0018749951771058352 0 -0.00047487221534405741 -0.0019011814236305096 0 -0.00056171007256186536 -0.0020276569429378841 0 -0.00045610603300844278 -0.0020290306473031319 0 -0.00056171007256186536 -0.0020276569429378841 0 -0.00047487221534405741 -0.0019011814236305096 0 0.00051480322688294677 -0.0011917948117708703 0 0.00042904005116149062 -0.0011417584890101174 0 0.00049083525209788772 -0.0010406732065294717 0 0.00039357228901189473 -0.001012074508212 0 0.00049083525209788772 -0.0010406732065294717 0 0.00042904005116149062 -0.0011417584890101174 0 -0.00016343874763437391 -0.00066451986009798581 0 -0.00019593866122220212 -0.00079070736344599387 0 -0.00023615292126579789 -0.00067298034958362203 0 -0.0002678450298365408 -0.00082704448024968548 0 -0.00023615292126579789 -0.00067298034958362203 0 -0.00019593866122220212 -0.00079070736344599387 0 0.00074382499730205509 -0.0026836580576817073 0 0.00078821212409423364 -0.0028469481146762461 0 0.00070890024232745969 -0.0028157946823489256 0 -0.00074412856850487419 -0.002683559542826168 0 -0.00084046673010320619 -0.0027610964422798319 0 -0.000823449394465435 -0.0026305522868845187 0 0.00072311336043630423 -0.0017977202780050511 0 0.00078879892176014473 -0.0017335348692528692 0 0.00078670454277511039 -0.0018948230401092043 0 -0.00016308426552928224 -0.0026466659191298884 0 -0.00010947758756390696 -0.0027678823395685735 0 -0.00022360812234884864 -0.0027536997501805402 0 8.6069933786918332e-05 -0.00042594403963507451 0 4.912769821489901e-05 -0.000331897715191598 0 0.00010030458513356841 -0.00034540912868010864 0 -0.00068809948723127742 -0.0013289916682455922 0 -0.00076543121414675373 -0.0014229550380670851 0 -0.0007358012154781347 -0.0012582375847731669 0 -2.6906530083162314e-06 -0.001035333245972721 0 -7.1803867728884558e-05 -0.0010951061000757034 0 -5.3846099374856501e-05 -0.00093407354685751814 0 -0.00013493534533299056 -0.0010015449899348741 0 -5.3846099374856501e-05 -0.00093407354685751814 0 -7.1803867728884558e-05 -0.0010951061000757034 0 -0.00032700767464957246 -0.0027359144744965652 0 -0.00022360812234884864 -0.0027536997501805402 0 -0.00028403848922518588 -0.0028942249262956447 0 0.00077922477227631703 -0.0020432837354079914 0 0.00078670454277511039 -0.0018948230401092043 0 0.00086668481353935117 -0.0019942747041888872 0 -0.00069821035653206906 -0.001105877354396769 0 -0.0007358012154781347 -0.0012582375847731669 0 -0.00079649919799520833 -0.0011973380761382364 0 0.00015401925971998288 -0.00036467347058051323 0 0.00010030458513356841 -0.00034540912868010864 0 9.9459160590454615e-05 -0.00024401162475796122 0 0.00032782571875613541 -0.0015167843380670442 0 0.00027449667151828352 -0.0016945605683739895 0 0.00022000156483621038 -0.0015614161442679584 0 0.00034107823052491646 -0.0022024633674542636 0 0.00025551985512179152 -0.0022308396187134317 0 0.00025624084813691115 -0.0020909465784572129 0 -0.00045610603300844278 -0.0020290306473031319 0 -0.00047487221534405741 -0.0019011814236305096 0 -0.00039069476720155204 -0.0018917337459355638 0 0.00039357228901189473 -0.001012074508212 0 0.00042904005116149062 -0.0011417584890101174 0 0.00034242219917018788 -0.0011281842111678126 0 -0.0002678450298365408 -0.00082704448024968548 0 -0.00019593866122220212 -0.00079070736344599387 0 -0.00021122198752889854 -0.0009195046068363105 0 -0.0002479044786785739 -0.0023709787147485344 0 -0.00026596371140694429 -0.0025812255344375124 0 -0.00033291496771208203 -0.0024918753689591598 0 0.00056180823127220106 -0.0018984022640926956 0 0.00068843705911159287 -0.0019415933333924486 0 0.0006359440675259314 -0.0020337656176733715 0 -0.0005127563321615029 -0.0011686498081714713 0 -0.00062940345974110614 -0.0011695598486467112 0 -0.00055956798381192544 -0.0010584884330920577 0 0.00017371187825155018 -0.00066236698387641475 0 0.00015423974061447852 -0.00048499559600007557 0 0.00021215322872505203 -0.00056501637606875242 0 -8.4974520358098926e-05 -0.0012507139628059128 0 -8.6432850076039415e-05 -0.0013950084176596095 0 -0.00016893355868759815 -0.0013073818737817453 0 0.00011383770790736389 -0.00091305599310033446 0 5.2466687468794696e-05 -0.00078840974087463172 0 0.0001305119820998887 -0.00079758529156371682 0 0.00020194956989639027 -0.0014284922631747558 0 0.00012357102133141591 -0.0015236188923596458 0 0.0001068002394028824 -0.0013705641353366211 0 -0.00033005084703334545 -0.0020435173740402071 0 -0.00039069476720155204 -0.0018917337459355638 0 -0.00030148767341774542 -0.0018769190655483464 0 0.00020194956989639027 -0.0014284922631747558 0 0.00022000156483621038 -0.0015614161442679584 0 0.00012357102133141591 -0.0015236188923596458 0 0.00011580384614705028 -0.003283268955915792 0 -1.0791722462131757e-07 -0.0032833283105354119 0 3.4935112472275407e-05 -0.0031505271953492218 0 -0.0010553243528228619 -0.001791327627908932 0 -0.0010421277561457395 -0.0016381665976006135 0 -0.00098366331056994917 -0.0016718794595877854 0 0.0010253535295449959 -0.0014885824110053532 0 0.0010420700026835534 -0.0016390308504435863 0 0.00097512338599577782 -0.001578647727923348 0 -4.3616864016121177e-09 -1.1516819424715208e-07 0 3.3898434524276645e-09 -1.1718801501119393e-07 0 -3.8636682170337028e-06 -7.3863528046010543e-05 0 0.00063632607515762968 -0.0017767794662964353 0 0.00060456839837609382 -0.0016558971863208803 0 0.00068934407990244636 -0.0016736404809845613 0 -0.00015838615352807559 -0.0024988667512405569 0 -7.9817650146230064e-05 -0.0024525669442428699 0 -8.0655676026818204e-05 -0.0025968208435765828 0 9.8519951313987407e-05 -0.00054605247601412134 0 4.9721149555474179e-05 -0.00058183882748801582 0 4.539973927703119e-05 -0.00046404699970356881 0 -0.00060414141187447776 -0.0013157571202466554 0 -0.00058877142491567446 -0.0014248585550593849 0 -0.00067299717121486449 -0.0014411521082850147 0 0.00011383770790736389 -0.00091305599310033446 0 2.8468514667250342e-05 -0.00090656375801373228 0 5.2466687468794696e-05 -0.00078840974087463172 0 -0.00014934974652895973 -0.001676353178091102 0 -4.711013638105438e-05 -0.0016633463872422459 0 -0.00011638770851261737 -0.0017931543661354164 0 7.4292866251581786e-06 -0.0014925663713591692 0 -0.00010799078840485529 -0.0015435672918297204 0 -8.6432850076039415e-05 -0.0013950084176596095 0 -2.0233992509821317e-07 -3.4094575533297807e-07 0 -0.00015789507277088371 -0.00011161374506831412 0 -0.00034375155572015376 -0.00027357105344094521 0 2.0306414987553149e-07 -3.4102933495755296e-07 0 0.00015829294429089519 -0.00011177373105740713 0 -2.5863039569849696e-09 -9.8861523626734811e-08 0 2.0306414987553149e-07 -3.4102933495755296e-07 0 0.00034411770762292864 -0.00027337376399007551 0 0.00015829294429089521 -0.00011177373105740716 0 -2.0233992509821317e-07 -3.4094575533297807e-07 0 2.0555251928279164e-09 -9.8419790293458359e-08 0 -0.00015789507277088371 -0.00011161374506831412 0 0.0010558891607395399 -0.003241791716255001 0 0.00096573178307300743 -0.003249391896860417 0 0.0010024015837651013 -0.0031402080806126023 0 0.0010558891607395399 -0.003241791716255001 0 0.0010024015837651013 -0.0031402080806126023 0 0.001062387175635884 -0.0030787656298118119 0 -0.001056182272584175 -0.0032416813537965885 0 -0.0010060569596962684 -0.0031462626938518175 0 -0.00096612740317555815 -0.0032493665960035907 0 -0.001056182272584175 -0.0032416813537965885 0 -0.0010627678519053527 -0.0030788095138100761 0 -0.0010060569596962684 -0.0031462626938518175 0 -0.00032494557505715385 -0.001741323472847765 0 -0.00023071546242755297 -0.001619513835377168 0 -0.00022228900824092425 -0.00176830542836538 0 -0.00020352970954904057 -0.0014620726276644346 0 -0.00027298108180183868 -0.0013519445412603262 0 -0.00016893355868759815 -0.0013073818737817453 0 -0.00022752732609933766 -0.0012118740483259688 0 -0.00016893355868759815 -0.0013073818737817453 0 -0.00027298108180183868 -0.0013519445412603262 0 0.00025477140897188646 -0.0029930492284742675 0 0.00031820330682306753 -0.0031250282656281568 0 0.0002161822132951268 -0.0031366088329142301 0 -0.00091893845998095101 -0.0019608447017108923 0 -0.00098993802640694444 -0.0020600993900139778 0 -0.00099089962402173506 -0.0019183996488827959 0 0.00085678152696122458 -0.0012583258188426797 0 0.00090408462005484697 -0.0011970529080745523 0 0.00093609129820111116 -0.001334814260738382 0 -6.6894459347258933e-05 -0.0001739445473559584 0 -4.7829788492206991e-05 -8.8874023525565871e-05 0 -3.0679032996413973e-05 -8.2842069012435514e-05 0 0.00039380297540856572 -0.0024949208008611329 0 0.00041266504137118154 -0.002316588136200197 0 0.00049275669995719042 -0.0024024627218975137 0 -0.00063767554491165842 -0.0021260186051185953 0 -0.0005258243000396724 -0.0021424573220331228 0 -0.00057932773054457452 -0.0022716386834241236 0 0.00054233152028616578 -0.00096849769873264175 0 0.00043698619761215705 -0.00091732270961335618 0 0.00045398797072123439 -0.00080845820462775383 0 -0.0002544081756769235 -0.00057019256006462615 0 -0.00030556519808249945 -0.00073262609423857018 0 -0.00034839190880940537 -0.0006659422841703011 0 0.00010597910312252497 -0.0012178497293608692 0 0.0001068002394028824 -0.0013705641353366211 0 1.6538724222960888e-05 -0.0013131640579115455 0 -0.00030598347987567469 -0.0010085067724947725 0 -0.00021122198752889854 -0.0009195046068363105 0 -0.00022314204956751064 -0.0010783856516202893 0 0.00045602653548603025 -0.0032782241318689066 0 0.00040592159182816938 -0.0031658027830999262 0 0.0004988023002595515 -0.0031073473878293154 0 -0.001070693634837126 -0.0022651375543869621 0 -0.0010131999537146294 -0.0021876847635123775 0 -0.00098500749294261076 -0.0023203624754405375 0 0.00040994869937090623 -0.0030371218918292427 0 0.0004988023002595515 -0.0031073473878293154 0 0.00040592159182816938 -0.0031658027830999262 0 -0.00094672122768528759 -0.0021862944700915092 0 -0.00098500749294261076 -0.0023203624754405375 0 -0.0010131999537146294 -0.0021876847635123775 0 0.00091977659414025747 -0.0010559974074889709 0 0.00089170585248407683 -0.0010890368835496564 0 0.00081953322283130267 -0.00094661801027557464 0 -1.3249036384246671e-08 -1.1885355418609574e-07 0 -4.6208087802653666e-05 -6.6163193572249955e-05 0 -8.766349654812051e-05 -0.00010679767819739457 0 0.00082830448407602479 -0.0010507905984195058 0 0.00081953322283130267 -0.00094661801027557464 0 0.00089170585248407683 -0.0010890368835496564 0 -9.500510477008077e-05 -0.0001469442416315393 0 -8.766349654812051e-05 -0.00010679767819739457 0 -4.6208087802653666e-05 -6.6163193572249955e-05 0 0.00092202472766695948 -0.0026494497168995084 0 0.00084088045693589528 -0.002621714905471439 0 0.00089524844541255771 -0.0025170238633167733 0 -0.00071668045230168897 -0.0029891847814204659 0 -0.00070298925435600046 -0.0028463559866493829 0 -0.00063400474242183643 -0.0029416016616090786 0 0.00060790813874228046 -0.0021577051874732338 0 0.0006359440675259314 -0.0020337656176733715 0 0.00070331543015590529 -0.0021450185996524812 0 -0.00041678905757268326 -0.002447145917973105 0 -0.00033291496771208203 -0.0024918753689591598 0 -0.00040224292262265522 -0.0026042817632966216 0 0.00028142142517937203 -0.00061507174282576381 0 0.00021215322872505203 -0.00056501637606875242 0 0.00023008147298832747 -0.00047626383044220051 0 -0.00050762810764036124 -0.00092843160745479834 0 -0.00055956798381192544 -0.0010584884330920577 0 -0.00060023875185841972 -0.00097231879899773463 0 0.00021988744944481827 -0.00019848412699678363 0 0.00030751153580321582 -0.00032017277921373002 0 0.00021953171950835141 -0.00023917886844137081 0 -0.00059340189138488183 -0.00056847479314846305 0 -0.00053789264154021081 -0.00055659222651428374 0 -0.00064198662603698006 -0.00068806915561976211 0 -0.00013493534533299056 -0.0010015449899348741 0 -7.1803867728884558e-05 -0.0010951061000757034 0 -0.00015015810229746944 -0.0011619565900775012 0 -0.00015021573561735345 -0.0029373973410900481 0 -0.00010947758756390695 -0.0027678823395685735 0 -2.930782109560069e-05 -0.0028939625922343366 0 -0.00085030213172493613 -0.0013920298098805232 0 -0.00076543121414675373 -0.0014229550380670851 0 -0.00084491965270449925 -0.0015534546781702597 0 0.00088398822484963191 -0.0018086601911551574 0 0.00078879892176014473 -0.0017335348692528692 0 0.00085095318198624248 -0.0016352013219456554 0 4.6830657963164574e-05 -0.00021036620990540328 0 4.912769821489901e-05 -0.000331897715191598 0 1.0463548615246729e-05 -0.00024053725485268941 0 3.5085164116114958e-05 -0.0021978978525820886 0 -2.2152933918408378e-05 -0.0023439075449776365 0 -7.7415000267790825e-05 -0.0022094104113232768 0 -0.00012411885576173862 -0.0023445553024501616 0 -7.7415000267790825e-05 -0.0022094104113232768 0 -2.2152933918408378e-05 -0.0023439075449776365 0 -0.00044696615241197326 -0.0015695708861925384 0 -0.00053082935595522647 -0.0014978902603325897 0 -0.00044378918685196412 -0.0014025460741385908 0 -0.00051904376564247191 -0.0013481145847094264 0 -0.00044378918685196412 -0.0014025460741385906 0 -0.00053082935595522647 -0.0014978902603325897 0 0.00044786376688566766 -0.0014646449728841235 0 0.00053539714844162776 -0.0015545150035164298 0 0.00045080963192095668 -0.0016194532201705646 0 0.00054147342567385087 -0.0017129216096395529 0 0.00045080963192095668 -0.0016194532201705646 0 0.00053539714844162776 -0.0015545150035164298 0 0.00040994869937090623 -0.0030371218918292427 0 0.00033479436957210926 -0.0029792473877679653 0 0.0003932695167243943 -0.002858510258533376 0 -0.00094672122768528759 -0.0021862944700915092 0 -0.00091395471740168138 -0.0020737836845388484 0 -0.00084950747028640389 -0.0021498655371274991 0 0.00082830448407602479 -0.0010507905984195058 0 0.00082242432161780898 -0.0011433702134706805 0 0.00074175129834073278 -0.0010331565077656075 0 -9.500510477008077e-05 -0.0001469442416315393 0 -9.2700205523020264e-05 -0.00018557071781285486 0 -0.00015099557163643449 -0.0002739700123975492 0 0.00032674239640009036 -0.0027358628217112185 0 0.0003932695167243943 -0.002858510258533376 0 0.00029151467751574992 -0.0028496284593710337 0 -0.00077947996741965016 -0.0020432651348428932 0 -0.00084950747028640389 -0.0021498655371274991 0 -0.00084242499758562558 -0.0020016640295019601 0 0.00069789577480728823 -0.0011064706961691822 0 0.00074175129834073278 -0.0010331565077656075 0 0.00077043296321808508 -0.001178052639700997 0 -0.00015398201756179836 -0.0003637632085101638 0 -0.00015099557163643452 -0.0002739700123975492 0 -0.00011224337557861578 -0.00027663079968180248 0 -8.4974520358098926e-05 -0.0012507139628059128 0 1.0323091644357024e-05 -0.0011606833015586164 0 1.6538724222960888e-05 -0.0013131640579115455 0 0.00080167288187301701 -0.0022277671791604298 0 0.00085583837633753203 -0.002128595142961156 0 0.00088883881581832487 -0.002231500703974384 0 -0.00045006376952523369 -0.002773126442805366 0 -0.00037807580378162813 -0.0028708814149828459 0 -0.00044545758738439727 -0.0029293084966644468 0 0.00020489612699280685 -0.00034179677670023479 0 0.00014217374938582243 -0.00026429084500556409 0 0.00014871395919107731 -0.00022373253113601704 0 -0.00067267770146905558 -0.00093247202231702513 0 -0.00075341525071357534 -0.0010583191481675239 0 -0.00075768359871829075 -0.00097379226811197296 0 0.00064652770062345729 -0.002711001087637378 0 0.00070890024232745969 -0.0028157946823489256 0 0.00063809553735680649 -0.0028846864036607134 0 -0.00076329661567338283 -0.0025268669544327733 0 -0.00082344939446543511 -0.0026305522868845187 0 -0.00086389459819730466 -0.002521205685295869 0 0.00039380297540856572 -0.0024949208008611329 0 0.00033395384028604811 -0.0023702339485832881 0 0.00041266504137118154 -0.002316588136200197 0 -0.00063767554491165842 -0.0021260186051185953 0 -0.00056171007256186536 -0.0020276569429378841 0 -0.0005258243000396724 -0.0021424573220331228 0 0.00054233152028616578 -0.00096849769873264175 0 0.00049083525209788772 -0.0010406732065294717 0 0.00043698619761215705 -0.00091732270961335618 0 -0.0002544081756769235 -0.00057019256006462615 0 -0.00023615292126579791 -0.00067298034958362203 0 -0.00030556519808249945 -0.00073262609423857018 0 -0.00013377492341669892 -0.0020887663731309213 0 -0.00010581089095128313 -0.0019476045306743039 0 -5.1734819677287711e-05 -0.0020808478597652753 0 0.00045602653548603025 -0.0032782241318689066 0 0.00034450841939668241 -0.0032806529699037942 0 0.00040592159182816938 -0.0031658027830999262 0 -0.001070693634837126 -0.0022651375543869621 0 -0.0010681545911477883 -0.0021059752607968281 0 -0.0010131999537146294 -0.0021876847635123775 0 0.00091977659414025747 -0.0010559974074889709 0 0.00096625254268751636 -0.0011952944849513757 0 0.00089170585248407683 -0.0010890368835496564 0 -1.3249036384246671e-08 -1.1885355418609574e-07 0 -1.8446571521941654e-08 -1.1616719252799503e-07 0 -4.6208087802653666e-05 -6.6163193572249955e-05 0 -2.6906530083162314e-06 -0.001035333245972721 0 -5.3846099374856501e-05 -0.00093407354685751814 0 2.8468514667250342e-05 -0.00090656375801373228 0 -1.0791722462131757e-07 -0.0032833283105354119 0 -0.00011588240253716065 -0.0032829786040980483 0 -5.8306454285217544e-05 -0.0031784464339600495 0 -0.0010421277561457395 -0.0016381665976006135 0 -0.0010239229191932112 -0.0014889765081647303 0 -0.00098503941433457864 -0.0015506183710174229 0 0.0010420700026835534 -0.0016390308504435865 0 0.0010537732960292569 -0.0017915252534698172 0 0.00099901073471695811 -0.0017062799147073697 0 3.3898434524276645e-09 -1.1718801501119393e-07 0 -2.6595281218389785e-10 -1.2026557724112045e-07 0 6.4576641902678207e-06 -5.7675984272775899e-05 0 0.000602207486640461 -0.000580833707931213 0 0.00062744722080817876 -0.00067202475020775574 0 0.00053689310830676957 -0.00055633722075463762 0 -0.00021147819347357115 -0.00019490610925588871 0 -0.00023168130339922634 -0.00025150866616505439 0 -0.00030859104067471776 -0.00032222482209803529 0 -3.0134354078538828e-05 -0.00079032278641801284 0 2.8468514667250342e-05 -0.00090656375801373228 0 -5.3846099374856501e-05 -0.00093407354685751814 0 0.00020194956989639027 -0.0014284922631747558 0 0.00020404330306501368 -0.0012818662392639704 0 0.00028063274629563982 -0.0013758251372512015 0 0.00030468910076660423 -0.0012667940273555221 0 0.00028063274629563982 -0.0013758251372512015 0 0.00020404330306501368 -0.0012818662392639704 0 -0.0010239229191932112 -0.0014889765081647303 0 -0.0009478517845807671 -0.0014359340178384248 0 -0.00098503941433457864 -0.0015506183710174229 0 -0.00011588240253716065 -0.0032829786040980483 0 -0.00013962512193605537 -0.0031279292020757114 0 -5.8306454285217544e-05 -0.0031784464339600495 0 -2.6595281218389785e-10 -1.2026557724112045e-07 0 2.0980391455549798e-05 -8.760172171362169e-05 0 6.4576641902678207e-06 -5.7675984272775899e-05 0 0.0010537732960292569 -0.0017915252534698172 0 0.00098100322247503128 -0.0018120718723682008 0 0.00099901073471695811 -0.0017062799147073697 0 0.00016671293093172124 -0.0021983966826054939 0 0.00025624084813691115 -0.0020909465784572129 0 0.00025551985512179152 -0.0022308396187134317 0 -0.00045106538844511695 -0.0017605840882747347 0 -0.00039069476720155204 -0.0018917337459355638 0 -0.00047487221534405741 -0.0019011814236305096 0 0.00042438462093483044 -0.0012739618128575284 0 0.00034242219917018788 -0.0011281842111678126 0 0.00042904005116149062 -0.0011417584890101174 0 -0.00012804383018331689 -0.00081431745761876477 0 -0.00021122198752889854 -0.0009195046068363105 0 -0.00019593866122220212 -0.00079070736344599387 0 -0.00032494557505715385 -0.001741323472847765 0 -0.00030148767341774542 -0.0018769190655483464 0 -0.00039069476720155204 -0.0018917337459355638 0 -0.00014934974652895973 -0.001676353178091102 0 -0.00022228900824092427 -0.00176830542836538 0 -0.00023071546242755297 -0.001619513835377168 0 0.00039380297540856572 -0.0024949208008611329 0 0.00049275669995719042 -0.0024024627218975137 0 0.00046308310176311056 -0.0025662573886876911 0 -0.00063767554491165842 -0.0021260186051185953 0 -0.00057932773054457452 -0.0022716386834241236 0 -0.00067966801650011705 -0.0022352804881517864 0 0.00054233152028616578 -0.00096849769873264175 0 0.00045398797072123439 -0.00080845820462775383 0 0.000554837206068326 -0.00087519568423298575 0 -0.0002544081756769235 -0.00057019256006462615 0 -0.00034839190880940537 -0.0006659422841703011 0 -0.00028173903560287978 -0.00051816689574683383 0 -0.00030598347987567469 -0.0010085067724947725 0 -0.00022314204956751064 -0.0010783856516202893 0 -0.00030815322573175054 -0.0011642005587191387 0 0.00040994869937090623 -0.0030371218918292427 0 0.0003932695167243943 -0.002858510258533376 0 0.00047236726222655315 -0.0029310879674516979 0 -0.00094672122768528759 -0.0021862944700915092 0 -0.00084950747028640389 -0.0021498655371274991 0 -0.00089051615435608363 -0.0022715213360301138 0 0.00082830448407602479 -0.0010507905984195058 0 0.00074175129834073278 -0.0010331565077656075 0 0.00074196829404469384 -0.00093174022791593029 0 -9.500510477008077e-05 -0.0001469442416315393 0 -0.00015099557163643449 -0.0002739700123975492 0 -0.00015924873034782087 -0.00022865739989616705 0 8.0468999586716489e-05 -0.0028755529010354628 0 0.00016064584981927897 -0.0029692585201685556 0 5.6528405404195428e-05 -0.0030068177564713341 0 -0.00084585185251827494 -0.0017048708024006904 0 -0.0009013727684198075 -0.0018267652503916017 0 -0.00091327154448795451 -0.0016865048733974231 0 -2.9675824760765668e-05 -0.00025398432908511914 0 -4.5242611437645718e-05 -0.00019085533345551366 0 -1.4730216885576908e-05 -0.00016403871477994487 0 -0.00022752732609933766 -0.0012118740483259688 0 -0.00030815322573175054 -0.0011642005587191387 0 -0.00022314204956751064 -0.0010783856516202893 0 0.0010420700026835534 -0.0016390308504435865 0 0.00099901073471695811 -0.0017062799147073697 0 0.00097512338599577782 -0.001578647727923348 0 3.3898434524276645e-09 -1.1718801501119393e-07 0 6.4576641902678207e-06 -5.7675984272775893e-05 0 -3.8636682170337028e-06 -7.3863528046010543e-05 0 0.00093400729291139776 -0.0016562789340670275 0 0.00097512338599577782 -0.001578647727923348 0 0.00099901073471695811 -0.0017062799147073697 0 6.642179206950935e-06 -0.00013382782966030811 0 -3.8636682170337028e-06 -7.386352804601053e-05 0 6.4576641902678207e-06 -5.7675984272775899e-05 0 -0.0010421277561457395 -0.0016381665976006135 0 -0.00098503941433457864 -0.0015506183710174229 0 -0.00098366331056994917 -0.0016718794595877854 0 -1.0791722462131757e-07 -0.0032833283105354119 0 -5.8306454285217544e-05 -0.0031784464339600495 0 3.4935112472275407e-05 -0.0031505271953492218 0 -3.1278378218808839e-05 -0.0030522003843418319 0 3.4935112472275413e-05 -0.0031505271953492218 0 -5.8306454285217544e-05 -0.0031784464339600495 0 -0.00092724328913797985 -0.0015714535990377931 0 -0.00098366331056994917 -0.0016718794595877854 0 -0.00098503941433457864 -0.0015506183710174229 0 0.00012343202872118391 -0.0030989023699461993 0 5.6528405404195428e-05 -0.0030068177564713341 0 0.00016064584981927897 -0.0029692585201685556 0 -0.00096522694789577394 -0.001787557554345654 0 -0.00091327154448795451 -0.0016865048733974231 0 -0.0009013727684198075 -0.0018267652503916017 0 -2.060639131038214e-05 -0.00010819696469513963 0 -1.4730216885576909e-05 -0.00016403871477994487 0 -4.5242611437645718e-05 -0.00019085533345551366 0 0.00046615865046413166 -0.0027292872956132625 0 0.00039514519156886685 -0.0026386324952919486 0 0.00046308310176311056 -0.0025662573886876911 0 -0.00077652361189004839 -0.0022492965967218516 0 -0.00072352142102430849 -0.002137145467231824 0 -0.00067966801650011705 -0.0022352804881517864 0 0.00064157735710512298 -0.00089980298429020447 0 0.00062145303946706948 -0.00098829884230718502 0 0.000554837206068326 -0.00087519568423298575 0 -0.0002292740711584594 -0.0003796270993045919 0 -0.00021726293952233896 -0.00044861097625809433 0 -0.00028173903560287978 -0.00051816689574683383 0 -0.00036337746159356433 -0.0013025231113967682 0 -0.00027298108180183868 -0.0013519445412603262 0 -0.00037063764053606532 -0.0014331244486548607 0 -0.00012411885576173862 -0.0023445553024501616 0 -7.981765014623005e-05 -0.0024525669442428699 0 -0.00015838615352807559 -0.0024988667512405569 0 0.00054147342567385087 -0.0017129216096395529 0 0.00060456839837609371 -0.0016558971863208803 0 0.00063632607515762968 -0.0017767794662964353 0 -0.00051904376564247191 -0.0013481145847094264 0 -0.00058877142491567446 -0.0014248585550593849 0 -0.00060414141187447776 -0.0013157571202466554 0 8.6343291150666371e-05 -0.00067507044600584201 0 4.9721149555474179e-05 -0.00058183882748801582 0 9.8519951313987407e-05 -0.00054605247601412134 0 0.00034450841939668241 -0.0032806529699037942 0 0.00031820330682306753 -0.0031250282656281568 0 0.00040592159182816938 -0.0031658027830999262 0 -0.0010681545911477883 -0.0021059752607968281 0 -0.00098993802640694444 -0.0020600993900139778 0 -0.0010131999537146294 -0.0021876847635123775 0 0.00096625254268751636 -0.0011952944849513757 0 0.00090408462005484697 -0.0011970529080745523 0 0.00089170585248407683 -0.0010890368835496564 0 -1.8446571521941654e-08 -1.1616719252799503e-07 0 -4.7829788492206991e-05 -8.8874023525565871e-05 0 -4.6208087802653666e-05 -6.6163193572249955e-05 0 0.00040994869937090623 -0.0030371218918292427 0 0.00040592159182816943 -0.0031658027830999257 0 0.00031820330682306753 -0.0031250282656281568 0 -0.00094672122768528759 -0.0021862944700915092 0 -0.0010131999537146294 -0.0021876847635123775 0 -0.00098993802640694444 -0.0020600993900139778 0 0.00082830448407602479 -0.0010507905984195058 0 0.00089170585248407683 -0.0010890368835496564 0 0.00090408462005484697 -0.0011970529080745523 0 -9.500510477008077e-05 -0.0001469442416315393 0 -4.6208087802653672e-05 -6.6163193572249968e-05 0 -4.7829788492206991e-05 -8.8874023525565871e-05 0 0.00093540855133293491 -0.0014537509502808926 0 0.00089977274634500161 -0.0015305449998693707 0 0.00086010042357404089 -0.0013813700052167568 0 0.00082791278106306512 -0.0014793236949277415 0 0.00086010042357404089 -0.0013813700052167568 0 0.00089977274634500161 -0.0015305449998693707 0 -1.9132101217615004e-05 -0.0018125166389691991 0 -0.00010581089095128313 -0.0019476045306743039 0 -0.00011638770851261737 -0.0017931543661354164 0 0.00010561221666783933 -0.0023790340254178518 0 0.00017889836525417159 -0.0024891477389500333 0 8.900385615298793e-05 -0.0025725090548799033 0 -0.00056182438799519667 -0.001688606743671259 0 -0.00063122920275674517 -0.0018063186197354558 0 -0.00067580556916123022 -0.0016831891830339206 0 0.0005421337030934928 -0.0013784132411825474 0 0.00059425136862334502 -0.0012840503812382479 0 0.00065741693066820783 -0.001425704011592909 0 -7.2907031180242116e-05 -0.00064771490645145857 0 -0.0001123280363324006 -0.00055749747961543646 0 -5.0788077278138216e-05 -0.00048518323548474404 0 0.00017052959804438858 -0.0016470506558008157 0 0.00022000156483621035 -0.0015614161442679582 0 0.00027449667151828352 -0.0016945605683739895 0 0.0003932695167243943 -0.002858510258533376 0 0.00033479436957210932 -0.0029792473877679653 0 0.00029151467751574992 -0.0028496284593710337 0 -0.00084950747028640389 -0.0021498655371274991 0 -0.00091395471740168138 -0.0020737836845388484 0 -0.00084242499758562558 -0.0020016640295019601 0 0.00074175129834073278 -0.0010331565077656075 0 0.00082242432161780898 -0.0011433702134706805 0 0.00077043296321808508 -0.001178052639700997 0 -0.00015099557163643449 -0.0002739700123975492 0 -9.2700205523020264e-05 -0.00018557071781285486 0 -0.00011224337557861578 -0.00027663079968180248 0 -1.9132101217615004e-05 -0.0018125166389691991 0 -0.00011638770851261737 -0.0017931543661354164 0 -4.711013638105438e-05 -0.0016633463872422459 0 0.00093757097397157438 -0.0021206995371952828 0 0.00088883881581832487 -0.002231500703974384 0 0.00085583837633753203 -0.002128595142961156 0 9.0069719981212515e-05 -0.00015640947313010924 0 0.00014871395919107731 -0.00022373253113601704 0 0.00014217374938582246 -0.00026429084500556414 0 -0.00036558954333402305 -0.0030220101076462 0 -0.00044545758738439727 -0.0029293084966644468 0 -0.00037807580378162813 -0.0028708814149828459 0 -0.00083777889461422684 -0.0011093757747826258 0 -0.00075768359871829075 -0.00097379226811197296 0 -0.00075341525071357524 -0.0010583191481675239 0 0.00025477140897188646 -0.0029930492284742675 0 0.00033479436957210932 -0.0029792473877679653 0 0.00031820330682306753 -0.0031250282656281568 0 -0.00091893845998095101 -0.0019608447017108923 0 -0.00091395471740168138 -0.0020737836845388484 0 -0.00098993802640694444 -0.0020600993900139778 0 0.00085678152696122458 -0.0012583258188426797 0 0.00082242432161780898 -0.0011433702134706805 0 0.00090408462005484697 -0.0011970529080745523 0 -6.6894459347258933e-05 -0.0001739445473559584 0 -9.2700205523020264e-05 -0.00018557071781285486 0 -4.7829788492206991e-05 -8.8874023525565871e-05 0 0.00040994869937090623 -0.0030371218918292427 0 0.00031820330682306753 -0.0031250282656281568 0 0.00033479436957210932 -0.0029792473877679653 0 -0.00094672122768528759 -0.0021862944700915092 0 -0.00098993802640694444 -0.0020600993900139778 0 -0.00091395471740168138 -0.0020737836845388484 0 0.00082830448407602479 -0.0010507905984195058 0 0.00090408462005484697 -0.0011970529080745523 0 0.00082242432161780898 -0.0011433702134706805 0 -9.500510477008077e-05 -0.0001469442416315393 0 -4.7829788492206991e-05 -8.8874023525565871e-05 0 -9.2700205523020264e-05 -0.00018557071781285486 0 0.00015927271026806961 -0.0026337028481081865 0 8.900385615298793e-05 -0.0025725090548799033 0 0.00017889836525417161 -0.0024891477389500333 0 -0.00071548638443959093 -0.0017911002145981655 0 -0.00067580556916123022 -0.0016831891830339206 0 -0.00063122920275674517 -0.0018063186197354558 0 0.00068109584707253543 -0.001332323340911994 0 0.00065741693066820783 -0.001425704011592909 0 0.00059425136862334502 -0.0012840503812382479 0 -8.5122559190540514e-05 -0.00043756514355954056 0 -5.0788077278138209e-05 -0.00048518323548474404 0 -0.0001123280363324006 -0.00055749747961543646 0 -0.00013377492341669892 -0.0020887663731309213 0 -7.7415000267790825e-05 -0.0022094104113232768 0 -0.00017246640854264109 -0.0022133409754903168 0 -0.00012411885576173862 -0.0023445553024501616 0 -0.00017246640854264109 -0.0022133409754903168 0 -7.7415000267790825e-05 -0.0022094104113232768 0 0.00038118507264542302 -0.0017078429035940941 0 0.00045080963192095668 -0.0016194532201705646 0 0.00046258459817169348 -0.001770704411802667 0 -0.00036337746159356433 -0.0013025231113967682 0 -0.00044378918685196412 -0.0014025460741385908 0 -0.00044056934750519793 -0.0012738528381395335 0 0.00054147342567385087 -0.0017129216096395529 0 0.00046258459817169348 -0.001770704411802667 0 0.00045080963192095668 -0.0016194532201705646 0 -0.00051904376564247191 -0.0013481145847094264 0 -0.00044056934750519793 -0.0012738528381395335 0 -0.00044378918685196412 -0.0014025460741385908 0 -8.4974520358098926e-05 -0.0012507139628059128 0 -7.1803867728884558e-05 -0.0010951061000757034 0 1.0323091644357024e-05 -0.0011606833015586164 0 -2.6906530083162314e-06 -0.001035333245972721 0 1.0323091644357021e-05 -0.0011606833015586164 0 -7.1803867728884558e-05 -0.0010951061000757034 0 8.6343291150666371e-05 -0.00067507044600584201 0 0.0001305119820998887 -0.00079758529156371682 0 5.2466687468794696e-05 -0.00078840974087463172 0 -3.0134354078538828e-05 -0.00079032278641801284 0 5.2466687468794696e-05 -0.00078840974087463172 0 2.8468514667250342e-05 -0.00090656375801373228 0 -8.4974520358098926e-05 -0.0012507139628059128 0 -0.00016893355868759815 -0.0013073818737817453 0 -0.00015015810229746944 -0.0011619565900775012 0 -0.00022752732609933766 -0.0012118740483259688 0 -0.00015015810229746944 -0.0011619565900775012 0 -0.00016893355868759815 -0.0013073818737817453 0 0.00093540855133293491 -0.0014537509502808926 0 0.00097512338599577782 -0.001578647727923348 0 0.00089977274634500161 -0.0015305449998693707 0 -2.060639131038214e-05 -0.00010819696469513963 0 -3.8636682170337028e-06 -7.3863528046010543e-05 0 -1.4730216885576908e-05 -0.00016403871477994487 0 0.00093400729291139776 -0.0016562789340670275 0 0.00089977274634500161 -0.0015305449998693707 0 0.00097512338599577782 -0.001578647727923348 0 6.642179206950935e-06 -0.00013382782966030811 0 -1.4730216885576908e-05 -0.00016403871477994487 0 -3.8636682170337028e-06 -7.3863528046010543e-05 0 0.00012343202872118391 -0.0030989023699461993 0 3.4935112472275407e-05 -0.0031505271953492218 0 5.6528405404195428e-05 -0.0030068177564713341 0 -0.00096522694789577394 -0.001787557554345654 0 -0.00098366331056994917 -0.0016718794595877854 0 -0.00091327154448795451 -0.0016865048733974231 0 -3.1278378218808839e-05 -0.0030522003843418319 0 5.6528405404195428e-05 -0.0030068177564713341 0 3.4935112472275407e-05 -0.0031505271953492218 0 -0.00092724328913797985 -0.0015714535990377931 0 -0.00091327154448795451 -0.0016865048733974231 0 -0.00098366331056994917 -0.0016718794595877854 0 0.00047208838528691144 -0.0022365984939816497 0 0.00049275669995719053 -0.0024024627218975137 0 0.00041266504137118154 -0.002316588136200197 0 -0.00047476127669158011 -0.0022329047873766794 0 -0.00057932773054457452 -0.0022716386834241236 0 -0.0005258243000396724 -0.0021424573220331228 0 0.00037394757580148659 -0.00082125972155149332 0 0.00045398797072123439 -0.00080845820462775383 0 0.00043698619761215705 -0.00091732270961335618 0 -0.00037049308602232479 -0.00081762670342846924 0 -0.00034839190880940537 -0.0006659422841703011 0 -0.00030556519808249945 -0.00073262609423857018 0 -3.0134354078538828e-05 -0.00079032278641801284 0 1.195638310995852e-05 -0.0006746788701017443 0 5.2466687468794696e-05 -0.00078840974087463172 0 -1.0786098998901747e-07 -0.0024977033859799025 0 -7.981765014623005e-05 -0.0024525669442428699 0 -2.2152933918408378e-05 -0.0023439075449776365 0 -0.00012411885576173862 -0.0023445553024501616 0 -2.2152933918408378e-05 -0.0023439075449776365 0 -7.981765014623005e-05 -0.0024525669442428699 0 0.00054147342567385087 -0.0017129216096395529 0 0.00053539714844162776 -0.0015545150035164298 0 0.00060456839837609371 -0.0016558971863208803 0 0.00062429202437789839 -0.0015459776078792485 0 0.00060456839837609371 -0.0016558971863208803 0 0.00053539714844162776 -0.0015545150035164298 0 -0.00062458401457774198 -0.0015459369504894529 0 -0.00058877142491567446 -0.0014248585550593849 0 -0.00053082935595522647 -0.0014978902603325897 0 -0.00051904376564247191 -0.0013481145847094264 0 -0.00053082935595522647 -0.0014978902603325897 0 -0.00058877142491567446 -0.0014248585550593849 0 8.6343291150666371e-05 -0.00067507044600584201 0 1.1956383109958512e-05 -0.0006746788701017443 0 4.9721149555474179e-05 -0.00058183882748801582 0 -1.3454590310254055e-07 -0.00054594288046636691 0 4.9721149555474179e-05 -0.00058183882748801593 0 1.1956383109958512e-05 -0.0006746788701017443 0 0.00032782571875613541 -0.0015167843380670442 0 0.00028063274629563982 -0.0013758251372512015 0 0.00036270625220303642 -0.0013892905036438248 0 -1.0786098998901747e-07 -0.0024977033859799025 0 -8.0655676026818204e-05 -0.0025968208435765828 0 -7.981765014623005e-05 -0.0024525669442428699 0 -0.00062458401457774198 -0.0015459369504894529 0 -0.00067299717121486449 -0.0014411521082850147 0 -0.00058877142491567446 -0.0014248585550593849 0 0.00062429202437789839 -0.0015459776078792485 0 0.00068934407990244636 -0.0016736404809845613 0 0.00060456839837609371 -0.0016558971863208803 0 -1.3454590310254055e-07 -0.00054594288046636691 0 4.5399739277031184e-05 -0.00046404699970356881 0 4.9721149555474179e-05 -0.00058183882748801582 0 8.6343291150666371e-05 -0.00067507044600584201 0 5.2466687468794696e-05 -0.00078840974087463172 0 1.1956383109958512e-05 -0.0006746788701017443 0 0.00034107823052491646 -0.0022024633674542636 0 0.00041266504137118154 -0.002316588136200197 0 0.00033395384028604811 -0.0023702339485832881 0 -0.00045610603300844278 -0.0020290306473031319 0 -0.0005258243000396724 -0.0021424573220331228 0 -0.00056171007256186536 -0.0020276569429378841 0 0.00039357228901189473 -0.001012074508212 0 0.0004369861976121571 -0.00091732270961335618 0 0.00049083525209788772 -0.0010406732065294717 0 -0.0002678450298365408 -0.00082704448024968548 0 -0.00030556519808249945 -0.00073262609423857018 0 -0.00023615292126579789 -0.00067298034958362203 0 0.00030468910076660423 -0.0012667940273555221 0 0.00036270625220303642 -0.0013892905036438248 0 0.00028063274629563982 -0.0013758251372512015 0 0.0010679283046203347 -0.0021055366834483052 0 0.0010130232854660189 -0.0021697090584929784 0 0.0010086688314561647 -0.0020576585737488965 0 1.5254593448245084e-08 -1.1507470787240704e-07 0 4.5075311715929861e-05 -6.4355049131814112e-05 0 3.5942378377048378e-05 -6.6229241404526759e-05 0 -0.00034467334325806497 -0.0032807342219573609 0 -0.00039385076839225689 -0.0031664881248693842 0 -0.00031537448069411742 -0.0031632050583324154 0 -0.00096617016798320853 -0.0011964962169500174 0 -0.00089703875338862542 -0.0011056752050324751 0 -0.0009227250834321015 -0.001209023946801957 0 0.00039380297540856572 -0.0024949208008611329 0 0.00046308310176311056 -0.0025662573886876911 0 0.00039514519156886685 -0.0026386324952919486 0 -0.00063767554491165842 -0.0021260186051185953 0 -0.00067966801650011705 -0.0022352804881517864 0 -0.00072352142102430849 -0.002137145467231824 0 0.00054233152028616578 -0.00096849769873264175 0 0.000554837206068326 -0.00087519568423298575 0 0.00062145303946706948 -0.00098829884230718502 0 -0.0002544081756769235 -0.00057019256006462615 0 -0.00028173903560287978 -0.00051816689574683383 0 -0.00021726293952233896 -0.00044861097625809433 0 -0.00013377492341669892 -0.0020887663731309213 0 -5.1734819677287711e-05 -0.0020808478597652753 0 -7.7415000267790825e-05 -0.0022094104113232768 0 -0.00036337746159356433 -0.0013025231113967682 0 -0.00037063764053606532 -0.0014331244486548607 0 -0.00044378918685196412 -0.0014025460741385908 0 -8.4974520358098926e-05 -0.0012507139628059128 0 -0.00015015810229746944 -0.0011619565900775012 0 -7.1803867728884558e-05 -0.0010951061000757034 0 -0.00032494557505715385 -0.001741323472847765 0 -0.00022228900824092425 -0.00176830542836538 0 -0.00030148767341774542 -0.0018769190655483464 0 0.00025477140897188646 -0.0029930492284742675 0 0.00029151467751574992 -0.0028496284593710337 0 0.00033479436957210932 -0.0029792473877679653 0 -0.00091893845998095101 -0.0019608447017108923 0 -0.00084242499758562558 -0.0020016640295019601 0 -0.00091395471740168138 -0.0020737836845388484 0 0.00085678152696122458 -0.0012583258188426797 0 0.00077043296321808508 -0.001178052639700997 0 0.00082242432161780898 -0.0011433702134706805 0 -6.6894459347258933e-05 -0.0001739445473559584 0 -0.00011224337557861578 -0.00027663079968180248 0 -9.2700205523020264e-05 -0.00018557071781285486 0 -0.00021952126495611662 -0.001909602269402769 0 -0.00030148767341774542 -0.0018769190655483464 0 -0.00022228900824092425 -0.00176830542836538 0 
</DataArray>
</PointData>
<CellData Scalars="" Vectors="" Tensors="stress,">
<DataArray type="Float64" Name="stress" NumberOfComponents="9" format="ascii">
18111503.39209199 498884.8083383441 0 498884.8083383441 -100934880.23207569 0 0 0 -28988181.893994212 14183620.573338151 -1572204.0863924026 0 -1572204.0863924026 -99895246.50425458 0 0 0 -29999069.075820804 10929884.600219607 -148720.96799585223 0 -148720.96799585223 -100605289.88244605 0 0 0 -31386391.848779321 -2483752.6035405695 2034901.0208624899 0 2034901.0208624899 -100088822.4851191 0 0 0 -35900401.281030834 17592397.909585595 -657435.19146099687 0 -657435.19146099687 -100805452.9478724 0 0 0 -29124569.263400435 16929841.318806767 -999393.03817269206 0 -999393.03817269206 -101225449.28801489 0 0 0 -29503462.789222956 9874764.5282837749 473840.35395970941 0 473840.35395970941 -101289485.44120538 0 0 0 -31995152.31952256 10171633.276974291 1287613.0110447407 0 1287613.0110447407 -100696796.74480146 0 0 0 -31683807.213739425 12877349.682935357 -313598.60254025459 0 -313598.60254025459 -100077243.57265234 0 0 0 -30519962.861400962 4564015.8347454071 862897.08911424875 0 862897.08911424875 -98403932.751260757 0 0 0 -32843970.920780301 3296574.9352722764 2180142.7010317594 0 2180142.7010317594 -94509511.083806515 0 0 0 -31924527.651986897 -37707891.078306824 -17242518.438504711 0 -17242518.438504711 -96729513.855239302 0 0 0 -47053091.726741165 6267205.8535356522 -70231.471868817171 0 -70231.471868817171 -99558028.653820515 0 0 0 -32651787.980099678 795036.99099570641 46005.912735700607 0 46005.912735700607 -99984401.66494596 0 0 0 -34716277.635882556 4389967.7619968951 -5228521.0135402828 0 -5228521.0135402828 -98486854.26605624 0 0 0 -32933910.276420683 6304053.5186305046 73502.743787527084 0 73502.743787527084 -99555947.88521719 0 0 0 -32638163.028305292 -56246963.739622295 37327068.810338102 0 37327068.810338102 -104498510.75014061 0 0 0 -56260916.071417004 807841.66086316109 -66185.699662804604 0 -66185.699662804604 -99908520.306402206 0 0 0 -34685237.525938749 4476458.181810081 5385251.850845933 0 5385251.850845933 -98121822.515546024 0 0 0 -32775877.516807526 -56535168.813881852 -37374311.645276979 0 -37374311.645276979 -105033908.22605726 0 0 0 -56549176.963978685 301525.74048155546 1969434.3348753005 0 1969434.3348753005 -97938258.339349151 0 0 0 -34172856.409603715 -32971165.370329995 -23535751.552117649 0 -23535751.552117649 -86160129.454107374 0 0 0 -41695953.188553065 10535499.538895011 -129518.59687626362 0 -129518.59687626362 -100066652.52368236 0 0 0 -31335903.544675469 1237556.431252718 217362.36388975382 0 217362.36388975382 -100414110.26532984 0 0 0 -34711793.841927052 1244213.3133108616 -187566.8779091537 0 -187566.8779091537 -100433207.3482523 0 0 0 -34716147.912229538 -33671112.513054341 23365137.007642835 0 23365137.007642835 -86684726.952565551 0 0 0 -42124543.812966958 10813400.360007405 184150.42440736294 0 184150.42440736294 -99919143.583580971 0 0 0 -31187010.128250718 523778.30335640907 -2026189.9633749947 0 -2026189.9633749947 -98312582.227644324 0 0 0 -34226081.373500764 18611974.955194116 -92803.759697437286 0 -92803.759697437286 -100500112.71965599 0 0 0 -28660848.217561483 10329240.718159735 2038371.1864023507 0 2038371.1864023507 -99336486.156209111 0 0 0 -31152535.903317153 10077715.119151175 -1575826.8292205334 0 -1575826.8292205334 -99898252.215181589 0 0 0 -31437187.98361069 -9173204.6007250547 -221351.81850596517 0 -221351.81850596517 -93949471.65484333 0 0 0 -36092936.689448953 11278730.944385052 20121.411522159473 0 20121.411522159473 -100002515.38730383 0 0 0 -31053324.555021763 1769817.8616998496 261964.86483192444 0 261964.86483192444 -99213335.517811447 0 0 0 -34105231.179639071 1777956.1783528652 1441805.522410363 0 1441805.522410363 -87767015.180251062 0 0 0 -30096170.650664296 -51062619.009607509 -21638665.384413514 0 -21638665.384413514 -94849002.439446971 0 0 0 -51069067.50716906 1828040.320337431 -325661.60407239199 0 -325661.60407239199 -99293158.859731629 0 0 0 -34112791.488787994 -50881544.742677994 21543955.196007907 0 21543955.196007907 -94510392.811156511 0 0 0 -50887178.143842079 11277299.416817427 -43607.481413061498 0 -43607.481413061498 -100296749.37997007 0 0 0 -31156807.487103462 1910720.7309615016 -1683036.2149125636 0 -1683036.2149125636 -87591227.564195991 0 0 0 -29988177.39163202 1514014.0274534225 -266469.72689837217 0 -266469.72689837217 -100105297.18325543 0 0 0 -34506949.104530573 -30201307.6994363 19486242.361713368 0 19486242.361713368 -82714918.165214062 0 0 0 -39520679.052627623 13457905.701021314 314191.43129587173 0 314191.43129587173 -99659781.129148364 0 0 0 -30170656.399844289 -83402.571843743324 658802.64621385187 0 658802.64621385187 -95966906.8783921 0 0 0 -33617608.307582557 8738922.4503700733 -679163.2782394886 0 -679163.2782394886 -99023832.024418354 0 0 0 -31599718.350916862 9732173.3061403036 368830.69676733017 0 368830.69676733017 -99661899.390007019 0 0 0 -31475404.129353166 18281635.407471895 501915.77504394948 0 501915.77504394948 -100614307.79161882 0 0 0 -28816435.334451437 12987985.488709271 -1919057.8383609056 0 -1919057.8383609056 -100389173.99868104 0 0 0 -30590415.978490055 10998632.586292952 376108.08708286285 0 376108.08708286285 -100775105.79099235 0 0 0 -31421765.621644765 -398967.78082334995 2461361.2281507626 0 2461361.2281507626 -96410567.132614732 0 0 0 -33883337.219703376 6379329.2985341549 -25967.729399204254 0 -25967.729399204254 -100515139.81550074 0 0 0 -32947533.680938244 1715184.4347417355 203804.14775466919 0 203804.14775466919 -100447440.16394663 0 0 0 -34556289.505221367 -6487888.6600005627 -9838892.0900058858 0 -9838892.0900058858 -112974977.4948014 0 0 0 -41812003.154180706 6504119.3402475715 77.76849889755249 0 77.76849889755249 -100589739.711097 0 0 0 -32929967.129797518 -33048478.221194848 29884819.860106189 0 29884819.860106189 -94370025.607103452 0 0 0 -44596476.339904398 1769407.4361059666 -211511.73879517615 0 -211511.73879517615 -100332060.1312108 0 0 0 -34496928.443286657 -5664100.1041876972 10065585.534036517 0 10065585.534036517 -112806873.02938178 0 0 0 -41464840.596749306 -33326118.697320566 -29936996.577845417 0 -29936996.577845417 -93891181.174440145 0 0 0 -44526054.955116257 530293.79306158423 -6453790.5409708321 0 -6453790.5409708321 -100655575.31819905 0 0 0 -35043848.533798188 -25877443.30261597 15446181.990543041 0 15446181.990543041 -100446769.51754159 0 0 0 -44213474.487055153 8099351.7218573689 -1218667.5624697804 0 -1218667.5624697804 -98196688.648995757 0 0 0 -31534067.92449826 12842510.403232574 538111.6501044035 0 538111.6501044035 -99632910.032424927 0 0 0 -30376639.870217323 14084374.649016619 -468348.06242442131 0 -468348.06242442131 -100088759.3943615 0 0 0 -30101534.660870671 3922254.9088525772 995874.21776777506 0 995874.21776777506 -99783203.179039001 0 0 0 -33551331.894564867 3087989.7289898396 1465809.8289884031 0 1465809.8289884031 -98707072.81908071 0 0 0 -33466679.081532001 -21762267.026243351 -14891681.515752792 0 -14891681.515752792 -87191079.10524489 0 0 0 -38133671.146020882 -31362543.992300652 8523535.0971080717 0 8523535.0971080717 -91215553.488741159 0 0 0 -42902334.11836464 5367589.8037189245 -1537876.314991653 0 -1537876.314991653 -97416750.407871962 0 0 0 -32217206.211453557 4578118.1191286445 681047.77774849534 0 681047.77774849534 -94965473.415295601 0 0 0 -31635574.353658497 16526531.277361155 296041.58601003885 0 296041.58601003885 -100317835.95596099 0 0 0 -29326956.637509942 18398457.176168203 -122702.62361836433 0 -122702.62361836433 -100463780.08733988 0 0 0 -28722863.018909931 10194260.178616166 1845598.0947156549 0 1845598.0947156549 -98040540.942841768 0 0 0 -30746198.267478943 9661283.9236550331 -1821991.8654743433 0 -1821991.8654743433 -98044509.434792995 0 0 0 -30934128.928898215 -16735002.869020641 -1655237.6800556183 0 -1655237.6800556183 -95376469.793873429 0 0 0 -39239015.432012856 7715573.0408842564 -310876.51905292273 0 -310876.51905292273 -100300078.66489458 0 0 0 -32404576.968403578 8506144.9732606411 502726.85744416714 0 502726.85744416714 -99992033.226028442 0 0 0 -32020060.888468504 -4169361.7900330424 17282276.327563941 0 17282276.327563941 -100541025.55940768 0 0 0 -36648635.572304249 -4918686.4130033553 -17742934.038403485 0 -17742934.038403485 -98905321.176229835 0 0 0 -36338402.656231582 -953190.4248175621 -8917039.8539227545 0 -8917039.8539227545 -105194413.22817898 0 0 0 -37151661.278548837 -13951273.775255356 16794220.380595565 0 16794220.380595565 -93646991.973145738 0 0 0 -37659393.01194039 -9610905.8605315685 14583350.929896176 0 14583350.929896176 -105472464.30152094 0 0 0 -40279179.556718409 -17807204.761686713 -18180614.433544412 0 -18180614.433544412 -103972255.53224361 0 0 0 -42622811.10287559 16493313.496665955 864603.64169001579 0 864603.64169001579 -100616475.26732373 0 0 0 -29443106.619730234 14139898.777993202 -1683366.6411736012 0 -1683366.6411736012 -99286486.064070702 0 0 0 -29801305.550127029 6090081.8015079498 -2537673.1665489376 0 -2537673.1665489376 -101436559.97482407 0 0 0 -33371267.360660553 -2886338.2746601701 4827408.7553589195 0 4827408.7553589195 -99488837.573399305 0 0 0 -35831311.546820849 13276674.203720212 237648.01557970047 0 237648.01557970047 -100013970.46783829 0 0 0 -30358053.692441344 3509343.7788937688 -2032364.8049943 0 -2032364.8049943 -94459358.362603545 0 0 0 -31832505.104298413 5029618.5994067192 -932752.60889878869 0 -932752.60889878869 -98295309.263825178 0 0 0 -32642991.732546568 -36764917.042198367 16611968.385989416 0 16611968.385989416 -95782785.71413672 0 0 0 -46391695.964717291 11413745.89747262 573695.9500991106 0 573695.9500991106 -100374728.54334939 0 0 0 -31136343.926056743 7254334.0724554062 -650342.63200606406 0 -650342.63200606406 -99399960.687009811 0 0 0 -32250969.315093994 17475237.680830598 850933.33379304409 0 850933.33379304409 -100124861.24766529 0 0 0 -28927368.248392224 13582766.572800875 -1731689.3047892153 0 -1731689.3047892153 -100336827.42645931 0 0 0 -30363921.298780441 7710199.3096681833 -924122.48254153132 0 -924122.48254153132 -100637454.16235805 0 0 0 -32524539.198441386 -1998050.4538602084 4675245.2658554614 0 4675245.2658554614 -98931264.022659451 0 0 0 -35325260.066781864 17191332.238564372 -472636.61866772175 0 -472636.61866772175 -101514362.53488135 0 0 0 -29513060.60371089 2137260.6310830116 -682310.43884972483 0 -682310.43884972483 -96563955.638096333 0 0 0 -33049343.252454638 -34345452.596252874 7019043.2697741892 0 7019043.2697741892 -82445120.038212225 0 0 0 -40876700.422062777 17386016.171845794 191374.80745303631 0 191374.80745303631 -99851888.25661853 0 0 0 -28863055.229670644 1240356.4559117556 1382877.7751281448 0 1382877.7751281448 -94343904.249726772 0 0 0 -32586241.727835178 17894161.849572897 153995.92880415916 0 153995.92880415916 -99964974.818448067 0 0 0 -28724784.539106131 3838126.1505962014 1978187.9303314686 0 1978187.9303314686 -95414037.065150142 0 0 0 -32051568.82009387 4559027.3227192163 -1382681.0633348823 0 -1382681.0633348823 -95948820.511430383 0 0 0 -31986427.616048932 -31360078.17682223 3895056.7412159629 0 3895056.7412159629 -87377348.805447131 0 0 0 -41558099.443794265 16618962.059068073 -281448.96237725019 0 -281448.96237725019 -101362363.53163755 0 0 0 -29660190.515399348 1513673.4139233113 -241633.3966062665 0 -241633.3966062665 -98728410.123028159 0 0 0 -34025157.848186687 -49077593.446641766 16957881.503611673 0 16957881.503611673 -91153619.505083263 0 0 0 -49080924.533103764 13320567.629501104 122620.29666565906 0 122620.29666565906 -100236903.72747183 0 0 0 -30420717.634289503 1854227.8253281515 148136.77113246918 0 148136.77113246918 -86796980.506851241 0 0 0 -29729963.438533146 7080153.5425443649 -2161620.0047212839 0 -2161620.0047212839 -98953615.370509386 0 0 0 -32155711.639787674 18137146.999566078 290536.37786340714 0 290536.37786340714 -100109576.11620116 0 0 0 -28690350.190822363 -16393688.644384205 3717302.6368350387 0 3717302.6368350387 -88362482.004317418 0 0 0 -36664659.727045536 6999989.2985591888 1472624.941616267 0 1472624.941616267 -98689575.061326027 0 0 0 -32091355.016968369 7857162.3439692259 -1996376.7130815983 0 -1996376.7130815983 -97135821.533005536 0 0 0 -31247530.716162801 -26114442.817624539 5249739.0961324982 0 5249739.0961324982 -94013011.584063411 0 0 0 -42044609.040590763 17408660.067354441 322967.90756103396 0 322967.90756103396 -100343081.03714132 0 0 0 -29027047.339425325 6474104.5880001783 1038378.7453317046 0 1038378.7453317046 -96509747.91723752 0 0 0 -31512475.165233076 14381567.346203089 -1605545.7307067662 0 -1605545.7307067662 -100984328.49573946 0 0 0 -30310966.402337909 18074393.861670494 683082.12974619865 0 683082.12974619865 -100340963.60625947 0 0 0 -28793299.410606027 3199003.7600124776 2540894.7414181828 0 2540894.7414181828 -98780607.78599447 0 0 0 -33453561.409093708 9593840.3069505692 217127.58842761628 0 217127.58842761628 -101414211.71062183 0 0 0 -32137129.991284966 18582448.325586081 -331354.42749643326 0 -331354.42749643326 -100603228.11883044 0 0 0 -28707272.927635431 13794950.028005056 1521873.4840964079 0 1521873.4840964079 -101038163.5154628 0 0 0 -30535124.720610328 12245722.009022757 -873986.63916021585 0 -873986.63916021585 -100995402.3604006 0 0 0 -31062388.122982219 3713470.7205724716 -1407599.0296483953 0 -1407599.0296483953 -96893047.002804756 0 0 0 -32612851.698781252 4208425.8564440012 2855731.2414549263 0 2855731.2414549263 -95218155.255058169 0 0 0 -31853405.28951484 -37666962.341226958 -24165687.449557312 0 -24165687.449557312 -97665297.920731172 0 0 0 -47366291.091685347 10942051.603728771 -210126.26675581932 0 -210126.26675581932 -99365732.94840014 0 0 0 -30948288.470634937 4256934.1093411446 329919.64293219149 0 329919.64293219149 -98796174.469477177 0 0 0 -33088734.126047611 3836218.8761520386 -326949.12931311131 0 -326949.12931311131 -99090760.727585554 0 0 0 -33339089.64800179 -36631765.18655429 24955616.183455005 0 24955616.183455005 -96687136.154713675 0 0 0 -46661615.469443776 11240487.702552319 283822.39237451553 0 283822.39237451553 -99218767.112709522 0 0 0 -30792397.793555021 4360810.4587895274 -2869148.7823835611 0 -2869148.7823835611 -95663524.072547615 0 0 0 -31955949.76481539 18144202.506470919 -459929.46391189098 0 -459929.46391189098 -100980086.44035339 0 0 0 -28992559.37685895 14046914.391002089 1607569.6028636694 0 1607569.6028636694 -99920683.69899419 0 0 0 -30055819.257797211 10929529.708650447 2921.6589379906654 0 2921.6589379906654 -100525079.03698073 0 0 0 -31358442.264915608 -2038110.8642067909 -1696980.0776185058 0 -1696980.0776185058 -99398656.876617312 0 0 0 -35502868.709288478 11475568.153743267 -1467965.9797908813 0 -1467965.9797908813 -99273336.810165405 0 0 0 -30729219.029747725 15628451.709538937 924071.78137868643 0 924071.78137868643 -99656730.716568828 0 0 0 -29409897.652460575 -10259758.383201346 9566099.4822755605 0 9566099.4822755605 -99226540.027439848 0 0 0 -38320204.443724409 2688491.9881996512 -3606968.7989729494 0 -3606968.7989729494 -101252493.29719269 0 0 0 -34497400.458147585 9665432.7234557867 -1666232.033579886 0 -1666232.033579886 -99734615.261591673 0 0 0 -31524213.888347507 -8227601.9801313877 9564305.6756609231 0 9564305.6756609231 -94200157.559874475 0 0 0 -35849715.839002013 15066066.10847342 712987.30519145727 0 712987.30519145727 -100318374.54223657 0 0 0 -29838307.951816916 6753049.1597456336 -2941039.1209990978 0 -2941039.1209990978 -100540141.91842115 0 0 0 -32825482.465536445 15817538.496267915 -1348046.7858142257 0 -1348046.7858142257 -100443233.23437071 0 0 0 -29618993.158336163 17241338.74512434 866859.96582090855 0 866859.96582090855 -100573107.03823078 0 0 0 -29166118.902587414 2743780.5662876368 2673973.4428994507 0 2673973.4428994507 -100991942.19645417 0 0 0 -34386856.57055819 7429786.2511855364 -1652967.6730609834 0 -1652967.6730609834 -101131588.35780156 0 0 0 -32795630.737315655 16691977.325355818 -639992.94346964359 0 -639992.94346964359 -99783059.125483409 0 0 0 -29081878.630044531 15803195.89653182 -704587.8458198905 0 -704587.8458198905 -100261522.76011634 0 0 0 -29560414.402254701 9081143.1786205769 1923430.0396349125 0 1923430.0396349125 -98879627.96998167 0 0 0 -31429469.676976204 8891563.786356926 1468012.6875526905 0 1468012.6875526905 -99230253.563921213 0 0 0 -31618541.422147751 6260668.4938075542 465845.73517432966 0 465845.73517432966 -98917050.707611561 0 0 0 -32429733.774831414 5128991.2382904291 1869699.6366616786 0 1869699.6366616786 -101023209.36073899 0 0 0 -33562976.342857003 -16069036.36514728 -8337540.4231017381 0 -8337540.4231017381 -95049898.691591576 0 0 0 -38891627.269858614 -12164543.971466869 -10016716.381244779 0 -10016716.381244779 -92944600.666554958 0 0 0 -36788200.623307616 17904495.752093375 176067.92123484612 0 176067.92123484612 -101537859.81657755 0 0 0 -29271677.422569454 11048232.458150625 616079.0003682822 0 616079.0003682822 -100819981.01311886 0 0 0 -31420111.994238973 18081771.167947769 65545.206928640604 0 65545.206928640604 -100152662.97982502 0 0 0 -28724812.134156942 5340871.5561541915 1382764.9732308388 0 1382764.9732308388 -96635320.991030693 0 0 0 -31953057.302206814 4965854.2790541351 -2098750.4169482589 0 -2098750.4169482589 -97661283.990344882 0 0 0 -32443400.398951679 -24668990.382367715 1208230.1384565094 0 1208230.1384565094 -87377684.673480496 0 0 0 -39216336.269546881 17708665.388086438 -158194.66876089573 0 -158194.66876089573 -101172659.51665878 0 0 0 -29212397.945000291 17916392.479456186 -303702.88769004494 0 -303702.88769004494 -101469093.69681597 0 0 0 -29243445.426075935 -21378726.880830765 10377066.259399913 0 10377066.259399913 -88889141.927589566 0 0 0 -38593754.082947105 5786432.6170811653 -1385097.2240805253 0 -1385097.2240805253 -98842884.924221039 0 0 0 -32569758.307498932 16824965.020611852 422687.68995010853 0 422687.68995010853 -99770447.891871214 0 0 0 -29030919.004940897 5796217.088660717 847290.31202246994 0 847290.31202246994 -97270402.753448009 0 0 0 -32015964.982675552 11095215.812700391 -1056297.2111198306 0 -1056297.2111198306 -98852633.312528849 0 0 0 -30715096.124940038 11239398.195654631 832679.27647286654 0 832679.27647286654 -99818914.732190609 0 0 0 -31002830.787787557 -8673375.7088560164 11529273.859631896 0 11529273.859631896 -100812169.4704724 0 0 0 -38319940.812764943 -6301831.9298228323 -11570712.973198637 0 -11570712.973198637 -103707059.50244129 0 0 0 -38503112.001292378 9952873.7310838699 -1856980.9591985047 0 -1856980.9591985047 -99825371.78055501 0 0 0 -31455374.317314863 17052476.132377863 644485.80793184042 0 644485.80793184042 -100147897.01202083 0 0 0 -29083397.307875156 -7762927.6925597787 7237417.3935501128 0 7237417.3935501128 -92373122.425566733 0 0 0 -35047617.541344285 8251110.7147600651 -586473.53438204527 0 -586473.53438204527 -100072285.2781328 0 0 0 -32137411.097180486 16369589.032338724 -974672.49496972561 0 -974672.49496972561 -101385367.86185381 0 0 0 -29755522.590330377 12960355.497818232 -470245.97599709034 0 -470245.97599709034 -99318922.040771008 0 0 0 -30225498.290033579 5108811.0000832081 880090.37551879883 0 880090.37551879883 -99241794.328065157 0 0 0 -32946544.164793968 10940744.860589743 -276748.61325794458 0 -276748.61325794458 -100368639.05304289 0 0 0 -31299762.967358589 4823943.3507716656 550412.1940241456 0 550412.1940241456 -99878790.783593416 0 0 0 -33269196.601487398 12928590.534119844 -955003.06200446561 0 -955003.06200446561 -99291799.296041489 0 0 0 -30227123.066672564 10683112.260281563 -816319.91537599266 0 -816319.91537599266 -100249861.63396311 0 0 0 -31348362.280788422 10398020.093480431 1080134.9239748716 0 1080134.9239748716 -100233244.21661815 0 0 0 -31442328.443098225 11121326.484026611 985685.24226057529 0 985685.24226057529 -98905757.304082036 0 0 0 -30724550.787019312 1960720.7600127421 7502825.4526332915 0 7502825.4526332915 -99275918.575921446 0 0 0 -34060319.235568047 -5329383.4774491787 11181172.206819057 0 11181172.206819057 -103436746.64185601 0 0 0 -38068145.541756779 -4893147.4599833786 -11519978.853080329 0 -11519978.853080329 -99096804.782899082 0 0 0 -36396483.285008907 -7429575.0885532498 -11580677.886893231 0 -11580677.886893231 -100146886.40302205 0 0 0 -37651761.522051334 4303521.8374373913 94899.196843385696 0 94899.196843385696 -100613085.47879362 0 0 0 -33708347.274474859 -17513700.718492225 26440019.286820702 0 26440019.286820702 -132805677.13345987 0 0 0 -52611782.248183206 -19770826.424991667 29660340.818620808 0 29660340.818620808 -106492176.44506517 0 0 0 -44192051.00451988 3969369.393027544 14086.633680224419 0 14086.633680224419 -99684928.906980991 0 0 0 -33500445.829883575 4080851.887111187 2519.843313165009 0 2519.843313165009 -99618253.763120651 0 0 0 -33438090.656603336 -19875781.164181143 -29600058.145512052 0 -29600058.145512052 -106339988.2615062 0 0 0 -44175519.298990577 -16032601.856277809 -25899100.069909345 0 -25899100.069909345 -132152905.78455156 0 0 0 -51864927.674290255 4272733.8807908893 -122557.43036389351 0 -122557.43036389351 -100725531.91448808 0 0 0 -33758479.311794102 5109442.8926662207 -1467132.8508979082 0 -1467132.8508979082 -98169013.843752861 0 0 0 -32570849.832880378 17674915.032026768 316427.96600931883 0 316427.96600931883 -99824987.377967596 0 0 0 -28752525.321079135 -23180481.493800119 7023917.2879875675 0 7023917.2879875675 -85849675.482886016 0 0 0 -38160554.941840142 4847954.3804633617 1688978.4750790596 0 1688978.4750790596 -96894526.428044438 0 0 0 -32216300.216653466 17180297.317835778 -982056.1597957015 0 -982056.1597957015 -100480161.16961354 0 0 0 -29154952.34812215 16045514.67597425 1247384.2133427858 0 1247384.2133427858 -100827281.86502576 0 0 0 -29673618.516168118 7345838.8636112213 1003723.1820012629 0 1003723.1820012629 -101203360.13487148 0 0 0 -32850132.444941044 5738208.5032794029 -2289492.2943789065 0 -2289492.2943789065 -100315502.07075408 0 0 0 -33102052.748616204 1146694.1998601842 -597176.00454360247 0 -597176.00454360247 -95581627.211296603 0 0 0 -33052226.554002792 -46793577.929766588 4811198.5758309728 0 4811198.5758309728 -86916270.565713793 0 0 0 -46798446.973418124 17016266.525145054 92308.795001443155 0 92308.795001443155 -100158139.4894824 0 0 0 -29099655.537518024 1887078.3387357593 807754.73990231752 0 807754.73990231752 -90175492.692339316 0 0 0 -30900945.023761332 3321074.1364703476 17556119.026477057 0 17556119.026477057 -109848578.33389139 0 0 0 -37284626.469097346 -41097031.808970049 -39413134.21733126 0 -39413134.21733126 -116570690.51236372 0 0 0 -55183702.812466815 -40712094.651214644 39312744.147397891 0 39312744.147397891 -116763881.91775919 0 0 0 -55116591.799140841 1623558.4875507355 26057.180972322822 0 26057.180972322822 -100370534.17563868 0 0 0 -34561441.49083066 4388884.0746376514 -75352.690372467041 0 -75352.690372467041 -99389142.163504124 0 0 0 -33250090.331103086 1620567.3823597431 -50762.230229377747 0 -50762.230229377747 -100326699.0977478 0 0 0 -34547146.100385666 3150081.3844396472 -17375705.582717471 0 -17375705.582717471 -110388441.36667311 0 0 0 -37533425.993781686 4349671.8525902033 62395.669654607773 0 62395.669654607773 -99444708.826052129 0 0 0 -33283262.940711617 17375099.003425762 -39331.600669384003 0 -39331.600669384003 -100143294.53092578 0 0 0 -28968868.434624985 1259512.1447088718 871464.6251295656 0 871464.6251295656 -97641192.202458858 0 0 0 -33733588.020212531 1993964.4762191772 -591636.13170612603 0 -591636.13170612603 -93973576.854183674 0 0 0 -32192864.332287669 -33552012.879190635 -4532401.1843822636 0 -4532401.1843822636 -82404175.205371097 0 0 0 -40584665.829596594 -11250597.840970904 16943679.395776398 0 16943679.395776398 -100321466.93042481 0 0 0 -39050222.669988483 -379438.43905778229 -10184793.90195182 0 -10184793.90195182 -99912939.888294965 0 0 0 -35102332.414573446 14744512.469159178 -769190.17292058468 0 -769190.17292058468 -99427178.361804739 0 0 0 -29638933.062425919 10254138.398195267 1355519.0807305388 0 1355519.0807305388 -98698659.635638237 0 0 0 -30955582.43310523 3166017.3951648474 4214560.1490108706 0 4214560.1490108706 -100292516.15277743 0 0 0 -33994274.565164328 -16128368.64735874 -11891564.614251196 0 -11891564.614251196 -99922133.757861927 0 0 0 -40617675.841827266 18223315.819147825 -16220.506843574345 0 -16220.506843574345 -100367437.99052334 0 0 0 -28750442.759981394 8042242.3685195297 2249953.0928940773 0 2249953.0928940773 -96916129.971334308 0 0 0 -31105860.660985127 8045482.0781478882 -1745607.908159852 0 -1745607.908159852 -96835331.912329644 0 0 0 -31076447.441963553 -23642342.200356245 280765.98204863816 0 280765.98204863816 -93165774.459474802 0 0 0 -40882840.830940843 3884070.5012438297 -821712.41149616241 0 -821712.41149616241 -98300044.490114093 0 0 0 -33045590.896104634 14715739.697880268 535330.65550488234 0 535330.65550488234 -99902805.584835529 0 0 0 -29815473.06043458 -23211660.408265814 14950827.239176456 0 14950827.239176456 -88064484.495711908 0 0 0 -38946650.716392174 4531799.0973159075 -1004274.4699316621 0 -1004274.4699316621 -99303883.672836244 0 0 0 -33170229.601432085 12379753.678097963 -1620911.6296281815 0 -1620911.6296281815 -99608307.934841752 0 0 0 -30529993.989860296 15419305.268000603 964675.32322791219 0 964675.32322791219 -100607153.99455738 0 0 0 -29815747.054294825 -3183778.4181792736 7118629.0994891524 0 7118629.0994891524 -96705943.563535988 0 0 0 -34961402.693600386 6129416.1932159364 -3527446.5597992241 0 -3527446.5597992241 -100683371.09961379 0 0 0 -33093884.21723929 8341889.6224384904 -659178.7370544672 0 -659178.7370544672 -100029212.60556775 0 0 0 -32090563.044095099 11547496.599013805 716468.89782322943 0 716468.89782322943 -99352126.294788837 0 0 0 -30731620.393521309 14571014.10137105 -1234814.9332976341 0 -1234814.9332976341 -101176860.3286097 0 0 0 -30312046.179533601 14036484.974466082 -810729.06807470322 0 -810729.06807470322 -100708729.18349379 0 0 0 -30335285.473159675 13453940.12598896 -1503303.3292933851 0 -1503303.3292933851 -99381300.591753483 0 0 0 -30074576.163017273 15937266.171041906 1047871.9179301262 0 1047871.9179301262 -99580689.910714805 0 0 0 -29275198.308885396 -5200487.2930203527 6796765.1828370094 0 6796765.1828370094 -100710911.05600099 0 0 0 -37068989.422157452 2741117.7718368769 -3703533.0175020099 0 -3703533.0175020099 -101699386.99073076 0 0 0 -34635394.226612926 6875403.7455495894 63795.024241685867 0 63795.024241685867 -99233945.155877292 0 0 0 -32325489.493614763 4111656.429223299 93976.291128724813 0 93976.291128724813 -99458657.92739439 0 0 0 -33371450.52436018 -4652857.3589060903 15196810.857286461 0 15196810.857286461 -104841579.55590612 0 0 0 -38323052.920184255 4156550.043087244 -128683.61259645224 0 -128683.61259645224 -99521832.620627165 0 0 0 -33377848.902138829 -37408878.232039757 33513578.913663074 0 33513578.913663074 -114939732.93577251 0 0 0 -53322013.908734299 -37858281.065395705 -32578076.562044971 0 -32578076.562044971 -115412813.0554184 0 0 0 -53644882.942284934 6960208.1067652702 -40181.163956940174 0 -40181.163956940174 -99270092.076453686 0 0 0 -32308459.389390707 -4404937.4303900898 -15243031.930468678 0 -15243031.930468678 -105358822.18496072 0 0 0 -38417315.865372807 10008524.343500782 -46539.390467911959 0 -46539.390467911959 -101293795.86734337 0 0 0 -31949845.033344816 8779242.7223348618 -188032.66064513475 0 -188032.66064513475 -100986447.19463801 0 0 0 -32272521.565306187 15826751.604048938 -1048852.6722527146 0 -1048852.6722527146 -100700313.87580258 0 0 0 -29705746.795113713 18665972.835966527 96440.237114906311 0 96440.237114906311 -100448800.74717404 0 0 0 -28623989.768922746 10189794.906349659 1681574.652436154 0 1681574.652436154 -99674163.863466978 0 0 0 -31319529.134991169 10505316.508215666 -1895977.3025842868 0 -1895977.3025842868 -99172848.906452894 0 0 0 -31033636.339382887 -9658186.6000783816 633576.77233183384 0 633576.77233183384 -94109403.607231885 0 0 0 -36318656.572558589 14236799.707817078 -654436.427970469 0 -654436.427970469 -100315328.36056089 0 0 0 -30127485.028460264 7302839.2538776398 1392835.9775457382 0 1392835.9775457382 -99693107.253522038 0 0 0 -32336593.799875379 4068164.8480342478 3140457.9883379936 0 3140457.9883379936 -100863333.65766579 0 0 0 -33878309.083370999 -11578591.794228569 -11960460.491461864 0 -11960460.491461864 -90504814.782363117 0 0 0 -35729192.301807091 14801599.169235229 -1757452.7437656522 0 -1757452.7437656522 -100058572.17448092 0 0 0 -29839940.551835954 17173561.09213233 881549.43847513199 0 881549.43847513199 -100912162.2092855 0 0 0 -29308510.391003609 2853679.522595942 2335300.3650933206 0 2335300.3650933206 -98872945.611644745 0 0 0 -33606743.131167114 9794920.2766669989 -1257320.4819944501 0 -1257320.4819944501 -100769006.2412734 0 0 0 -31840930.087612271 8056541.098079443 -1171747.6956617236 0 -1171747.6956617236 -100214175.91086674 0 0 0 -32255172.184475422 -9069161.3149535507 13397357.551198587 0 13397357.551198587 -93809855.358581185 0 0 0 -36007655.835737154 13420898.436734557 752111.85971403122 0 752111.85971403122 -100190476.14309859 0 0 0 -30369352.197227359 3896054.3159026504 -5376402.973492533 0 -5376402.973492533 -100966648.35664105 0 0 0 -33974707.91425842 16841355.084362388 -583012.44767689705 0 -583012.44767689705 -100992409.97776794 0 0 0 -29452869.212691903 15997038.928385258 588515.06473124027 0 588515.06473124027 -101343478.89741039 0 0 0 -29871253.989159107 15437126.879721522 205243.61069607735 0 205243.61069607735 -101546716.25930214 0 0 0 -30138356.282853127 17815307.04240191 616355.08455631137 0 616355.08455631137 -101143819.50548482 0 0 0 -29164979.362078667 17721049.748062611 554617.27886360884 0 554617.27886360884 -100975764.66124964 0 0 0 -29139150.219615459 284915.34314244986 6804981.1566734165 0 6804981.1566734165 -101974494.42520738 0 0 0 -35591352.67872268 -26217390.740911543 -16483169.835010037 0 -16483169.835010037 -100160141.79500052 0 0 0 -44232136.387569249 14427723.760441303 262384.49973535538 0 262384.49973535538 -101349239.48507714 0 0 0 -30422530.503622532 13002497.139410257 -222535.06997191906 0 -222535.06997191906 -99881528.767847776 0 0 0 -30407661.069953203 1492165.7628916502 288657.9892436862 0 288657.9892436862 -99917057.838833332 0 0 0 -34448712.226579547 96020.277982532978 -281210.44937194884 0 -281210.44937194884 -95551368.42866993 0 0 0 -33409371.852740586 -30979789.629886746 -19237671.406952061 0 -19237671.406952061 -83097052.324606299 0 0 0 -39926894.684072562 3975665.5913034678 -1610143.1317170262 0 -1610143.1317170262 -96938825.824617147 0 0 0 -32537106.081659913 -33980120.801837295 4510708.0918872431 0 4510708.0918872431 -88924490.428504795 0 0 0 -43016613.930619732 17203931.401553139 170284.180960536 0 170284.180960536 -100337576.46780896 0 0 0 -29096775.773189798 4692211.6453515291 980100.513383165 0 980100.513383165 -93367124.781279325 0 0 0 -31036219.597574711 17173115.950291082 494852.18291926384 0 494852.18291926384 -101152365.86218616 0 0 0 -29392737.469163254 6314688.1387988478 -1154040.897531122 0 -1154040.897531122 -99809645.475037247 0 0 0 -32723235.067683503 2319817.97607328 -242570.32652467489 0 -242570.32652467489 -100371577.28882712 0 0 0 -34318115.759463832 16108205.808841944 -103570.04367608241 0 -103570.04367608241 -99922039.101661205 0 0 0 -29334841.652486563 1493422.723955069 416802.31575810909 0 416802.31575810909 -96642487.33647339 0 0 0 -33302172.61438128 1538926.3386921387 -1029251.7916567326 0 -1029251.7916567326 -88476586.947118729 0 0 0 -30428181.212949324 -46827132.748450153 -10813389.883808244 0 -10813389.883808244 -86976295.137079924 0 0 0 -46831199.759935521 12902911.9936212 -1201920.7501571178 0 -1201920.7501571178 -100293254.8752194 0 0 0 -30586620.008559257 13235176.351046085 1298285.2679504007 0 1298285.2679504007 -99795894.328412056 0 0 0 -30296251.292078257 499673.11753559113 7726461.4518523254 0 7726461.4518523254 -99726278.719202161 0 0 0 -34729311.96058327 850009.74864333123 -7228772.6260313392 0 -7228772.6260313392 -99457270.771103039 0 0 0 -34512541.35786093 -10052297.47126627 38401192.128407247 0 38401192.128407247 -153277762.00908935 0 0 0 -57165520.818124473 -43100336.918732487 -38489816.924380496 0 -38489816.924380496 -118034107.12730327 0 0 0 -56397055.416112542 -43194626.746764876 38668587.214248523 0 38668587.214248523 -118352798.82903653 0 0 0 -56541598.951530494 -9826447.1794436574 -38226362.12589018 0 -38226362.12589018 -153064362.19126433 0 0 0 -57011783.279747784 1505656.445684433 205504.41829103231 0 205504.41829103231 -100441801.57186508 0 0 0 -34627650.794163227 2915652.3145404458 -46246.87179350853 0 -46246.87179350853 -100173455.50681734 0 0 0 -34040231.117297113 2824615.2446933985 43960.574504613876 0 43960.574504613876 -100251360.20069313 0 0 0 -34099360.734599948 1536670.3131375313 -169314.94928246737 0 -169314.94928246737 -100385252.09438229 0 0 0 -34597003.623435974 4692675.8299521804 -184383.19626784325 0 -184383.19626784325 -100447666.98743308 0 0 0 -33514246.905118525 6976862.7847821712 149113.57911923528 0 149113.57911923528 -100532620.05942678 0 0 0 -32744515.04612565 5419550.2904474735 -369543.43942534924 0 -369543.43942534924 -99231323.989199877 0 0 0 -32834120.794563532 -4923079.3964165449 11634007.0193744 0 11634007.0193744 -104261501.01633209 0 0 0 -38214603.144462049 9389082.2541818619 262470.34842711687 0 262470.34842711687 -99222929.763776302 0 0 0 -31441846.628358126 -32315299.698746122 -25269854.358471911 0 -25269854.358471911 -106603232.19827777 0 0 0 -48621486.163958378 -5062079.5857690871 15975928.144803442 0 15975928.144803442 -109589028.40021366 0 0 0 -40127887.795093998 -11747190.383831948 -25711496.176985957 0 -25711496.176985957 -95802941.862576842 0 0 0 -37642546.286243066 16397224.583047986 -726373.68396027386 0 -726373.68396027386 -101449499.62189794 0 0 0 -29768296.263597488 9673991.3561779261 1271353.3343928903 0 1271353.3343928903 -99996771.388668776 0 0 0 -31612973.011371732 17043499.725669622 815666.70116259158 0 815666.70116259158 -100259844.13501263 0 0 0 -29125720.543269873 11747239.36276722 -1781211.0850353241 0 -1781211.0850353241 -98893249.074740112 0 0 0 -30501103.399190426 6315291.978915289 -1349262.6502363086 0 -1349262.6502363086 -100876681.07087097 0 0 0 -33096486.182184443 -10859454.606043875 6110936.9162092656 0 6110936.9162092656 -97568599.11338985 0 0 0 -37949818.801801741 11128911.631208658 -154705.52890339494 0 -154705.52890339494 -101498845.21274769 0 0 0 -31629476.753538668 13141135.606359363 -190403.00736024976 0 -190403.00736024976 -100621541.67762613 0 0 0 -30618142.124943376 17203724.822344121 885027.15998470783 0 885027.15998470783 -101231829.88240258 0 0 0 -29409836.771020595 18582929.455598116 -100155.12570559978 0 -100155.12570559978 -100108182.73127174 0 0 0 -28533838.646485806 7736898.3282769918 2068004.2139229774 0 2068004.2139229774 -99299243.655019999 0 0 0 -32046820.864359975 7441125.6319802999 -2008494.9653680921 0 -2008494.9653680921 -99275357.896416426 0 0 0 -32141981.29255259 -13468708.5023655 -1235499.8680674583 0 -1235499.8680674583 -89070927.107733756 0 0 0 -35888872.463534743 17107103.119852662 864064.44276238978 0 864064.44276238978 -100807814.57666755 0 0 0 -29295249.009885192 15815294.176773071 -1354099.8320933878 0 -1354099.8320933878 -100456350.13021517 0 0 0 -29624369.58370471 16446105.098530054 1279649.9154129028 0 1279649.9154129028 -100623597.30564868 0 0 0 -29462122.272491455 6484931.7034930885 2405883.5243380666 0 2405883.5243380666 -99308799.098421335 0 0 0 -32488353.588224888 8084401.0293982029 -2083899.3049971983 0 -2083899.3049971983 -100426429.31306243 0 0 0 -32319709.899282455 14979073.653862715 -944135.06892800331 0 -944135.06892800331 -100182118.61845827 0 0 0 -29821065.737608433 10399647.52516222 1402057.5162950754 0 1402057.5162950754 -100169292.29743814 0 0 0 -31419375.670296669 4801195.622418344 3827070.0903957188 0 3827070.0903957188 -100648456.6943028 0 0 0 -33546541.375159502 -5526918.5282406211 -10135304.102836028 0 -10135304.102836028 -95270353.688631713 0 0 0 -35279045.275905311 9720575.6875227615 -380019.26871019602 0 -380019.26871019602 -100781075.22144587 0 0 0 -31871174.836873062 12831929.005786538 -789402.62605303526 0 -789402.62605303526 -100454514.01284266 0 0 0 -30667904.752469659 9923549.3140423298 1182185.714599669 0 1182185.714599669 -99287510.13335681 0 0 0 -31277386.286760092 1232116.7908037901 7352986.7689639628 0 7352986.7689639628 -102952818.14136887 0 0 0 -35602245.472697794 -12891450.877821088 -12056166.946770832 0 -12056166.946770832 -98212065.797436923 0 0 0 -38886230.836340308 17210583.392592907 -759340.88713657856 0 -759340.88713657856 -101483224.29202354 0 0 0 -29495424.31480062 10227277.502179861 -1672245.9405542016 0 -1672245.9405542016 -98249308.164121926 0 0 0 -30807710.731679797 -17916236.67849797 9334465.6774502881 0 9334465.6774502881 -98167531.450278878 0 0 0 -40629318.845071912 16369717.506076097 649548.00275114179 0 649548.00275114179 -99933938.558554649 0 0 0 -29247477.368367672 4525068.7060653567 -1427618.5972965658 0 -1427618.5972965658 -100096683.21613702 0 0 0 -33450065.078525126 12769240.465897799 1134439.6221636534 0 1134439.6221636534 -98956092.921791553 0 0 0 -30165398.359562874 13087671.813981056 -1067950.4995766282 0 -1067950.4995766282 -98997703.655309677 0 0 0 -30068511.144464731 -7364091.1263119578 -9621769.8920529038 0 -9621769.8920529038 -102914401.85556358 0 0 0 -38597472.543656409 -6085664.9597656131 8911748.3178975582 0 8911748.3178975582 -103258581.20361608 0 0 0 -38270486.157183647 18245525.854383111 104737.68265897036 0 104737.68265897036 -100959081.67826438 0 0 0 -28949744.538358212 11692582.186324596 646596.51080900431 0 646596.51080900431 -101102511.46339035 0 0 0 -31293475.246972919 12328409.959983468 149878.13583917171 0 149878.13583917171 -101029958.99479985 0 0 0 -31045542.162185788 14767268.837999821 -1402540.7950400114 0 -1402540.7950400114 -100324130.63012004 0 0 0 -29944901.627242088 16299263.917103052 1155649.4312533736 0 1155649.4312533736 -99651358.834107876 0 0 0 -29173233.220951796 13796730.05579865 -1684229.3691467047 0 -1684229.3691467047 -100174950.05664897 0 0 0 -30232377.000297546 15907477.753873825 1101561.3094964027 0 1101561.3094964027 -100483830.99760699 0 0 0 -29601723.635306358 927548.25702619553 5032725.7587179691 0 5032725.7587179691 -100630526.55797064 0 0 0 -34896042.405330539 3154367.8293730319 -3141315.7038795948 0 -3141315.7038795948 -101326817.13352063 0 0 0 -34360357.256451637 1720941.9651299715 4888076.3243874311 0 4888076.3243874311 -97611785.072679341 0 0 0 -33561795.087642223 7381055.3710185289 -3032259.5929885805 0 -3032259.5929885805 -100036376.70906085 0 0 0 -32429362.468314856 14399606.952972889 -495158.74125558138 0 -495158.74125558138 -99500634.287631989 0 0 0 -29785359.567130804 7375300.8341151476 1150396.1533722878 0 1150396.1533722878 -97934332.897374809 0 0 0 -31695661.222140908 3539025.4648681432 3349329.6607916653 0 3349329.6607916653 -98926600.294548839 0 0 0 -33385651.190388128 -29418448.604269594 -15291718.612640951 0 -15291718.612640951 -101345499.72392252 0 0 0 -45767381.914867222 17668235.503277302 -814357.82723570429 0 -814357.82723570429 -100317820.83707833 0 0 0 -28927354.866830349 16838977.669594288 -775473.63525646925 0 -775473.63525646925 -100575670.91721249 0 0 0 -29307842.636666775 12763672.355529878 1832899.9965248108 0 1832899.9965248108 -100387160.09614207 0 0 0 -30668220.709214356 13224783.796092391 1860866.7643319964 0 1860866.7643319964 -99070326.617461562 0 0 0 -30045939.987479329 9423381.4807606004 400201.646358639 0 400201.646358639 -100771253.62147686 0 0 0 -31971755.249250744 7208161.8157199919 1812009.4571906328 0 1812009.4571906328 -100933289.50851148 0 0 0 -32803794.692476958 -1164698.7530150115 -4367543.7718707118 0 -4367543.7718707118 -96447075.815267444 0 0 0 -34164121.098898828 -5905926.0624095798 -4657823.8153567016 0 -4657823.8153567016 -98703116.012410402 0 0 0 -36613164.726186991 3443544.9612953663 -819785.81763458252 0 -819785.81763458252 -97819819.361494541 0 0 0 -33031696.040069699 -30017369.476045333 10541525.389084086 0 10541525.389084086 -85379983.365402475 0 0 0 -40389073.494506724 16809946.334846258 221519.18441283703 0 221519.18441283703 -99861418.158028603 0 0 0 -29068015.138114214 3279255.9793522358 1380050.638828516 0 1380050.638828516 -95073259.516281903 0 0 0 -32127901.237925291 16448927.031326175 -1167206.7571250796 0 -1167206.7571250796 -100938260.60772252 0 0 0 -29571266.751738667 16384378.294192791 1241679.0830875039 0 1241679.0830875039 -100190109.60666537 0 0 0 -29332005.959365368 6958659.5301088095 2612999.2291664183 0 2612999.2291664183 -100739694.46215916 0 0 0 -32823362.226217628 6239230.9764088988 -2270109.3301761448 0 -2270109.3301761448 -100043851.3707521 0 0 0 -32831617.138020098 14503332.787064314 -1260993.4890965223 0 -1260993.4890965223 -99498120.19265151 0 0 0 -29748175.591955423 12896862.788173914 1457980.4368914366 0 1457980.4368914366 -100283156.03551674 0 0 0 -30585202.636570215 1935847.9628654122 4936551.6462763399 0 4936551.6462763399 -99870977.965616107 0 0 0 -34277295.500962675 -1361598.4051395059 -7495590.4664162695 0 -7495590.4664162695 -100744774.13833886 0 0 0 -35737230.390217364 16924925.649988174 558363.5979192853 0 558363.5979192853 -101565391.96498072 0 0 0 -29624163.210247517 -46915744.76526279 -7454903.7959108055 0 -7454903.7959108055 -87133717.257095963 0 0 0 -46917311.707825556 1947129.0221820793 -1254153.5884026289 0 -1254153.5884026289 -90131183.892307088 0 0 0 -30864419.204543855 1891728.1524743636 360635.56214559078 0 360635.56214559078 -95164051.662420586 0 0 0 -32645313.228481214 16989964.857135057 -86526.565949614931 0 -86526.565949614931 -99986584.805773258 0 0 0 -29048816.982023478 -11165618.689215465 13868020.127544925 0 13868020.127544925 -120978176.9705614 0 0 0 -46250328.480921909 -56624791.348843694 -37393156.865829192 0 -37393156.865829192 -105089041.63288125 0 0 0 -56599841.543603733 4425315.096363306 25175.276267775233 0 25175.276267775233 -100483484.25218487 0 0 0 -33620359.20453763 839890.93462586403 -58260.186067581177 0 -58260.186067581177 -99984390.275383472 0 0 0 -34700574.769265175 813310.57178014389 25274.234371542931 0 25274.234371542931 -99973069.364893556 0 0 0 -34705915.57758981 -56336639.085046165 37345007.5016478 0 37345007.5016478 -104553281.94279169 0 0 0 -56311472.359743245 4451373.6321659088 -19842.258817370566 0 -19842.258817370566 -100487951.66749477 0 0 0 -33612802.312365055 -11138396.527259646 -13801683.655505598 0 -13801683.655505598 -121052403.37798923 0 0 0 -46266779.966837108 8932297.0616264343 -1347998.8848857135 0 -1347998.8848857135 -98700482.300985813 0 0 0 -31418864.833775759 -19487928.741888389 13144644.673604801 0 13144644.673604801 -99356364.208633855 0 0 0 -41595502.532682776 15014731.537660658 725571.0303965807 0 725571.0303965807 -99376226.101716578 0 0 0 -29526523.097419441 3113633.1950331926 -2739491.0059939101 0 -2739491.0059939101 -99963671.213448405 0 0 0 -33897513.306445241 18474446.997770905 -119538.27706933022 0 -119538.27706933022 -101106918.46377277 0 0 0 -28921365.013100743 13228867.638575077 1180813.6767346859 0 1180813.6767346859 -100148368.69132614 0 0 0 -30421825.36846292 12382413.906049132 -876449.60236939788 0 -876449.60236939788 -100238322.7305162 0 0 0 -30749568.088563442 -3006384.09352386 -740256.95722907782 0 -740256.95722907782 -99724955.382415593 0 0 0 -35955968.816578805 15427967.956755877 -800901.73159837909 0 -800901.73159837909 -101403907.27493453 0 0 0 -30091578.761362553 7238760.7558487654 366989.08744631708 0 366989.08744631708 -100276661.34017479 0 0 0 -32563265.204514146 14264005.144888431 -68502.549250483513 0 -68502.549250483513 -101465104.901703 0 0 0 -30520384.914884895 16777606.581843972 -694739.48458194733 0 -694739.48458194733 -100367805.63686299 0 0 0 -29256569.669256568 10127837.146475792 1912072.2432813048 0 1912072.2432813048 -99512915.716609478 0 0 0 -31284777.499546766 7513134.9553588629 652067.83440428972 0 652067.83440428972 -100781882.90233243 0 0 0 -32644061.781440854 -8327710.034057498 -6754447.0359496027 0 -6754447.0359496027 -93501899.850503355 0 0 0 -35640363.459596306 16758159.505134344 -99883.639130234718 0 -99883.639130234718 -100099809.76232815 0 0 0 -29169577.590018272 461642.73723971844 776967.91403718293 0 776967.91403718293 -98340493.172987461 0 0 0 -34257597.652511835 423383.31295907497 -386606.43701734394 0 -386606.43701734394 -93941324.315196991 0 0 0 -32731279.350783348 -32569977.502388556 -8041780.6185130961 0 -8041780.6185130961 -79390759.008087292 0 0 0 -39186257.778666541 16719278.255941868 -1001649.550780654 0 -1001649.550780654 -100559261.71268177 0 0 0 -29343994.209858894 7106398.760768652 804929.37177708745 0 804929.37177708745 -101184563.24556828 0 0 0 -32927357.569679856 17773841.276004791 -734818.52601963282 0 -734818.52601963282 -101116922.49363875 0 0 0 -29170078.426172018 15543000.143064439 1277027.4010865092 0 1277027.4010865092 -100699598.66555274 0 0 0 -29804809.482870996 11952310.472831607 301532.05208852887 0 301532.05208852887 -101091160.10350764 0 0 0 -31198597.370736599 6346602.9974404573 -1024558.6211173087 0 -1024558.6211173087 -99809766.616242886 0 0 0 -32712107.26658082 -37350016.850763075 8936677.8527467102 0 8936677.8527467102 -84523974.927389681 0 0 0 -42655897.122353464 1517771.5616024733 -697494.26879370213 0 -697494.26879370213 -97717266.668085575 0 0 0 -33669823.287268996 2606846.0536518097 599339.73783892393 0 599339.73783892393 -91420996.88010788 0 0 0 -31084952.789259613 16478163.717457533 111490.41850924492 0 111490.41850924492 -100316794.40152645 0 0 0 -29343520.739424467 18720550.490908891 -96349.172625482082 0 -96349.172625482082 -100604582.29397726 0 0 0 -28659411.13107416 12160486.328915715 1755921.3054244816 0 1755921.3054244816 -100380368.82713246 0 0 0 -30876958.87437582 11953083.630280495 -1220960.2113730833 0 -1220960.2113730833 -100651043.59076619 0 0 0 -31044285.986170053 -1469964.0399990007 47285.140340447426 0 47285.140340447426 -95960710.521611482 0 0 0 -34100736.096563689 18036391.497318149 519850.03965324163 0 519850.03965324163 -100414464.08493543 0 0 0 -28832325.405666113 9258346.2372500896 292819.73473677039 0 292819.73473677039 -100006570.5071286 0 0 0 -31761878.494457424 12529468.276917338 -1812495.6258155704 0 -1812495.6258155704 -99453040.191823483 0 0 0 -30423250.170217156 -7538333.3032101393 3864132.0414485037 0 3864132.0414485037 -97720877.856278956 0 0 0 -36840723.905821174 13015048.313585281 -1486175.1027337313 0 -1486175.1027337313 -100209815.07225227 0 0 0 -30518168.36553359 14361649.60099721 1259583.7696425915 0 1259583.7696425915 -100291125.26780653 0 0 0 -30075316.483383417 1625554.4762126207 6461008.8267273605 0 6461008.8267273605 -97338528.489175677 0 0 0 -33499540.904537022 4573318.4292861819 -4850837.4525606632 0 -4850837.4525606632 -99303790.353346586 0 0 0 -33155665.173421204 17389617.933481336 8657.2984147667885 0 8657.2984147667885 -101549331.86005902 0 0 0 -29455899.874302268 14867856.31404531 485423.73833861947 0 485423.73833861947 -101488282.75844502 0 0 0 -30317149.255539894 17114748.628256783 -796740.17097353935 0 -796740.17097353935 -99895236.552759886 0 0 0 -28973170.773575798 11621058.137943864 1593469.9982031416 0 1593469.9982031416 -99465041.23940587 0 0 0 -30745394.085511684 6546719.086422801 1114460.3578690896 0 1114460.3578690896 -100406165.51751542 0 0 0 -32850806.250882447 -8502209.1359648537 -7479556.9486113191 0 -7479556.9486113191 -97077103.139129788 0 0 0 -36952759.296283051 -630716.54147589207 10352537.348937206 0 10352537.348937206 -100481253.76082385 0 0 0 -35389189.605804861 -10865067.355344445 -16831895.026366748 0 -16831895.026366748 -99257414.87248379 0 0 0 -38542868.779739916 14082067.540951371 -105278.79127627611 0 -105278.79127627611 -101562563.063308 0 0 0 -30618173.43282485 14958238.380509287 -687083.51370668411 0 -687083.51370668411 -101376764.83354026 0 0 0 -30246484.258560985 18004773.815980643 -192347.67542123795 0 -192347.67542123795 -100452473.7041443 0 0 0 -28856694.960857421 18272932.453548431 -286905.57181406021 0 -286905.57181406021 -100266516.03493559 0 0 0 -28697754.253485441 8473411.1595406532 2294641.9985932782 0 2294641.9985932782 -97695332.137955904 0 0 0 -31227672.342445612 9203121.2748675346 1926377.2787990868 0 1926377.2787990868 -98488866.359871387 0 0 0 -31250010.779751301 8006843.2760571241 -1254966.5093137249 0 -1254966.5093137249 -97537109.055289984 0 0 0 -31335593.022731423 8124933.6549702883 -1608769.6130925566 0 -1608769.6130925566 -98403170.480256796 0 0 0 -31597382.888850212 -20981143.225864865 -2132403.7643782198 0 -2132403.7643782198 -93408152.215917289 0 0 0 -40036253.404623754 -16311030.41671069 -3993702.4364916235 0 -3993702.4364916235 -93274141.044342846 0 0 0 -38354810.011368737 15705672.44619453 -548976.40511584282 0 -548976.40511584282 -99551275.201579511 0 0 0 -29345960.964384675 8185427.1532664299 1546257.1062001213 0 1546257.1062001213 -98103967.165186405 0 0 0 -31471489.004171848 5539489.9424636364 1507644.0890618749 0 1507644.0890618749 -97416551.348872423 0 0 0 -32156971.492243171 -24017108.776591867 -11867351.630354762 0 -11867351.630354762 -97175550.612499371 0 0 0 -42417430.786181927 11331178.861874342 -1259055.841214627 0 -1259055.841214627 -98490813.546806812 0 0 0 -30505872.1397264 13841027.039556324 822473.73180115223 0 822473.73180115223 -99452637.298919797 0 0 0 -29964063.590777338 -14722602.942358524 11616219.098698825 0 11616219.098698825 -102618769.3945509 0 0 0 -41069480.317918271 -851741.17915993929 -7182822.3281657621 0 -7182822.3281657621 -102141911.31062412 0 0 0 -36047778.371424496 3768326.4245404005 5471862.1992124505 0 5471862.1992124505 -100305398.78849912 0 0 0 -33787975.327385545 -11822387.705414839 -14488132.401653111 0 -14488132.401653111 -92492895.333435357 0 0 0 -36510349.063597597 18429056.183053255 122401.30061325431 0 122401.30061325431 -100396674.06787634 0 0 0 -28688666.259688139 9317799.3839036226 1776678.8756982684 0 1776678.8756982684 -98067610.541101038 0 0 0 -31062433.905019164 9689753.7081478238 -1900992.6029927135 0 -1900992.6029927135 -98322923.707989573 0 0 0 -31021609.499944627 -16675436.348064721 1721311.7805241495 0 1721311.7805241495 -94597050.819179058 0 0 0 -38945370.508535326 18308695.003918409 126013.64057403803 0 126013.64057403803 -101208518.17232418 0 0 0 -29014938.108942032 14179436.213538051 775808.05698633194 0 775808.05698633194 -101354404.07131326 0 0 0 -30511238.750221491 17566941.679383278 -506847.91147875786 0 -506847.91147875786 -99988500.23052454 0 0 0 -28847545.492899656 7836284.3091135621 1846561.5003763437 0 1846561.5003763437 -99677046.347720385 0 0 0 -32144266.713512361 6959839.2093121707 -518226.98685961962 0 -518226.98685961962 -99651893.347710907 0 0 0 -32442218.948439628 -11691353.711180687 -7023541.8150765188 0 -7023541.8150765188 -89077266.636715174 0 0 0 -35269017.121763527 13657203.606340289 -830472.59332987666 0 -830472.59332987666 -101500561.11278963 0 0 0 -30745175.127257228 16443205.040373087 -367120.47471314669 0 -367120.47471314669 -101589955.92909002 0 0 0 -29801362.811050773 14062069.610921547 -306888.99200451374 0 -306888.99200451374 -101740778.17331639 0 0 0 -30687547.996838048 17402600.209857821 -386397.32332980633 0 -386397.32332980633 -100259897.64147949 0 0 0 -29000054.101067662 9283204.6566541195 2180598.8791251183 0 2180598.8791251183 -97101334.1568048 0 0 0 -30736345.325052738 7772124.9804352522 -588532.36420461535 0 -588532.36420461535 -96807132.728603601 0 0 0 -31162252.711858869 -23749059.050380468 -5396512.3924765885 0 -5396512.3924765885 -95965085.410337061 0 0 0 -41899950.561251104 15442186.704008244 627242.21682733297 0 627242.21682733297 -101149819.90855542 0 0 0 -29997671.621591546 18423710.155789137 274462.67609727383 0 274462.67609727383 -100273059.78179121 0 0 0 -28647272.369100809 8884202.6981018186 1360582.0622099042 0 1360582.0622099042 -99661760.289592624 0 0 0 -31772145.157021582 9366250.5901008844 -2102839.9765136242 0 -2102839.9765136242 -99327857.631424308 0 0 0 -31486562.464463115 -10208079.968678176 2532918.4729432017 0 2532918.4729432017 -90762896.981756389 0 0 0 -35339841.932652056 3862381.4052686631 3384887.6393488646 0 3384887.6393488646 -99969404.438631445 0 0 0 -33637458.061676867 -763575.42454946041 6449325.652939707 0 6449325.652939707 -103580671.35941219 0 0 0 -36520486.374386489 -21203475.555181623 -17660848.026093584 0 -17660848.026093584 -90797431.984646648 0 0 0 -39200317.638939917 -28585382.625062108 -19631354.009930793 0 -19631354.009930793 -96169198.839164317 0 0 0 -43664103.512479261 15401097.717364073 74745.919522047043 0 74745.919522047043 -101466347.49520588 0 0 0 -30122837.422244787 -12182035.259791344 -15347884.003860682 0 -15347884.003860682 -108449684.74006385 0 0 0 -42221101.999949247 -17727350.959428683 18142337.479594439 0 18142337.479594439 -104618063.86562258 0 0 0 -42820895.188767955 12556583.407538967 -509603.15220105648 0 -509603.15220105648 -100492486.6306044 0 0 0 -30777566.128072903 13255650.354298562 -709706.92152607441 0 -709706.92152607441 -99305402.487126946 0 0 0 -30117413.246490031 6648262.5766088963 1106340.7531554541 0 1106340.7531554541 -99282301.107998371 0 0 0 -32421913.485986471 8120311.0404314995 1019253.6660130173 0 1019253.6660130173 -99272799.308636189 0 0 0 -31903370.893871784 -26658549.733140633 19106960.949658945 0 19106960.949658945 -95931365.490824208 0 0 0 -42906470.328387663 -396780.75276488066 -6422300.3072196245 0 -6422300.3072196245 -103256924.72151083 0 0 0 -36278796.915996492 5018229.3322765231 -754327.32681238651 0 -754327.32681238651 -99492083.942942858 0 0 0 -33065849.113733113 10957781.601275921 244144.99022421241 0 244144.99022421241 -100320800.25502968 0 0 0 -31277056.528813839 -19855155.970386073 16757995.093991995 0 16757995.093991995 -90345190.627117515 0 0 0 -38570121.309126258 3607273.7709702849 -3245176.5817903578 0 -3245176.5817903578 -101748125.91637325 0 0 0 -34349298.25089103 4566840.0376143456 -940238.94675171375 0 -940238.94675171375 -100089836.92209625 0 0 0 -33433048.909568787 12763655.348761559 476795.04175508022 0 476795.04175508022 -99650703.775655508 0 0 0 -30410466.949412823 14861219.189901829 -1412137.9165948629 0 -1412137.9165948629 -100152916.81025076 0 0 0 -29852094.167122245 14389967.133863688 -1236571.2148150206 0 -1236571.2148150206 -99755608.159152508 0 0 0 -29877974.358850718 14597889.974812746 1377576.459312737 0 1377576.459312737 -100483814.09480667 0 0 0 -30060073.441997766 14963722.181248426 1307257.5788297653 0 1307257.5788297653 -99137594.802776337 0 0 0 -29460855.417534828 4011076.2631650567 4394250.9622053504 0 4394250.9622053504 -99195215.870247602 0 0 0 -33314448.862478912 -995953.74868877232 6137742.30066365 0 6137742.30066365 -102166725.54099947 0 0 0 -36106937.751390889 4662430.2171445489 -4705356.3788471222 0 -4705356.3788471222 -99411652.764033079 0 0 0 -33162227.891410947 -49323.58127707243 -5165923.8609532192 0 -5165923.8609532192 -101280516.91757369 0 0 0 -35465444.17459774 7492495.1844863892 -1453100.9023732543 0 -1453100.9023732543 -98199698.972151041 0 0 0 -31747521.32568264 14489737.777736664 551717.74650037289 0 551717.74650037289 -100334908.4212718 0 0 0 -30045809.72523737 -24134160.937320232 11955133.038020495 0 11955133.038020495 -94720079.859645516 0 0 0 -41598984.278938025 4186379.8243878484 -2832678.4694376886 0 -2832678.4694376886 -99736040.047526717 0 0 0 -33442381.078098536 13883186.664360762 93299.033184468746 0 93299.033184468746 -101163494.89836478 0 0 0 -30548107.881901503 11848330.347167134 -278800.13727511466 0 -278800.13727511466 -101147346.84614301 0 0 0 -31254655.774641514 12629175.281519651 -158589.98613914847 0 -158589.98613914847 -100961710.23513007 0 0 0 -30916387.233763576 11189920.95263958 -744794.29022860527 0 -744794.29022860527 -99344058.675945759 0 0 0 -30853948.203157425 8549035.185819149 722783.44434154034 0 722783.44434154034 -100076463.60372925 0 0 0 -32034599.946268559 -354489.92959809303 8885626.5156804323 0 8885626.5156804323 -105498455.30030841 0 0 0 -37048530.830467284 -12934338.012712002 -16329125.263549328 0 -16329125.263549328 -93407031.536226809 0 0 0 -37219479.342128575 -19066848.050331339 28260685.407845963 0 28260685.407845963 -98035239.724224448 0 0 0 -40985730.721094519 -5286406.6343168318 -15647579.201247513 0 -15647579.201247513 -109132858.34971991 0 0 0 -40046742.744412869 8332084.0341665745 -1899588.5397119522 0 -1899588.5397119522 -97783357.97297287 0 0 0 -31307945.878582001 -23297349.576293185 7970614.5636028498 0 7970614.5636028498 -94946738.376585856 0 0 0 -41385430.78350763 16572863.817537785 424878.79533731937 0 424878.79533731937 -100253808.82223344 0 0 0 -29288330.751643419 5783255.30489254 -233915.790698722 0 -233915.790698722 -97828320.909120083 0 0 0 -32215772.961479783 -13538801.058439568 19340931.021714695 0 19340931.021714695 -97283007.082740694 0 0 0 -38787632.849413112 782175.30034601688 -11617920.892634511 0 -11617920.892634511 -102344154.8904528 0 0 0 -35546692.856537342 13320554.568734884 -90681.254068374634 0 -90681.254068374634 -100188898.12126923 0 0 0 -30403920.243386984 1477211.5737105838 216099.49464416504 0 216099.49464416504 -98591663.473200977 0 0 0 -33990058.164821602 1868944.6894601597 -104393.87016537786 0 -104393.87016537786 -86519592.558250412 0 0 0 -29627726.75407654 -48952440.292953007 -17239766.99249281 0 -17239766.99249281 -90919560.930539176 0 0 0 -48955200.428222254 17731104.094130278 -69810.012138485909 0 -69810.012138485909 -99958062.24779129 0 0 0 -28779435.353781462 2493412.0484924316 774522.73604851961 0 774522.73604851961 -95372034.006607294 0 0 0 -32507517.685340285 1670045.0988858938 -1055770.1896909773 0 -1055770.1896909773 -94727344.166030169 0 0 0 -32570054.673500419 -35714050.187519848 -2692109.6719044261 0 -2692109.6719044261 -83226498.521608546 0 0 0 -41629192.048194937 9375534.4063105583 297704.00727379322 0 297704.00727379322 -99392311.608798504 0 0 0 -31505872.020870745 5879028.1069904566 -636646.44219660759 0 -636646.44219660759 -100407060.93875003 0 0 0 -33084811.491115689 9395620.8250010014 320231.39213317633 0 320231.39213317633 -100277187.68352604 0 0 0 -31808548.400483608 15476958.317750216 -222963.08276557922 0 -222963.08276557922 -101602277.89861751 0 0 0 -30143861.853303432 3157756.6174240112 -1605537.8875580281 0 -1605537.8875580281 -96589583.559684992 0 0 0 -32701139.429791331 4445661.6202348471 -1457776.3351910859 0 -1457776.3351910859 -93521460.447801352 0 0 0 -31176529.589648247 8539814.0818296671 -163327.91340839863 0 -163327.91340839863 -99666527.683300018 0 0 0 -31894349.760514617 1545664.206815958 297579.35828614235 0 297579.35828614235 -100601126.77786684 0 0 0 -34669411.899868011 8621756.2541142628 90855.78048992157 0 90855.78048992157 -100644957.69998696 0 0 0 -32208120.506055482 3398869.8052647114 -346758.10379111022 0 -346758.10379111022 -99907331.946908474 0 0 0 -33777961.749575615 -2465843.0439371169 -9613186.6865538601 0 -9613186.6865538601 -107750540.88485062 0 0 0 -38575734.375075698 -34373758.138933703 24943232.310619507 0 24943232.310619507 -95471079.999654755 0 0 0 -45445693.348505974 8988998.5854856968 139421.73597204685 0 139421.73597204685 -99408366.272768021 0 0 0 -31646778.690548897 1788875.5962455273 -220740.78821834922 0 -220740.78821834922 -100282682.50624466 0 0 0 -34472832.418499708 6060340.0693439841 -4203198.2006192729 0 -4203198.2006192729 -97666213.842517495 0 0 0 -32062055.820610762 -37201427.883408196 27783407.876213498 0 27783407.876213498 -94385796.435860187 0 0 0 -46055528.511743933 5912708.1243633926 4139738.4621270597 0 4139738.4621270597 -97320354.016813636 0 0 0 -31992676.062357575 -36810101.602429621 -27691496.292019486 0 -27691496.292019486 -94276056.372135133 0 0 0 -45880155.291097656 -2212243.6260308027 9032995.2891459763 0 9032995.2891459763 -108304577.08402997 0 0 0 -38680887.248521328 -30661414.74435439 -24041465.814480834 0 -24041465.814480834 -93910693.292848408 0 0 0 -43600237.813020967 17483214.586879969 599167.79277032614 0 599167.79277032614 -101386613.44738293 0 0 0 -29366189.601176023 16626069.304534197 -6277.2144550681114 0 -6277.2144550681114 -101673479.20318854 0 0 0 -29766593.464529157 9743456.4807766676 -171483.60626423359 0 -171483.60626423359 -101541695.2457217 0 0 0 -32129383.567730665 10707375.274305344 -849584.45812690258 0 -849584.45812690258 -100478585.91286951 0 0 0 -31419923.72349751 10753168.945349619 -756472.63883447647 0 -756472.63883447647 -101282195.17140307 0 0 0 -31685159.179118589 5615554.152556017 701275.58325880766 0 701275.58325880766 -100793037.88393751 0 0 0 -33312119.305983528 7692666.6113460064 -1784147.8050473928 0 -1784147.8050473928 -99484905.006032944 0 0 0 -32127283.438140392 -14048039.560363814 9086707.9506677091 0 9086707.9506677091 -90349033.400907397 0 0 0 -36538975.536444917 16224158.051169276 532282.84821748734 0 532282.84821748734 -100083941.96824574 0 0 0 -29350924.370976806 6694549.0132445097 -777998.87660264969 0 -777998.87660264969 -99363086.385920763 0 0 0 -32433988.080436707 15112867.179336518 766660.1868596673 0 766660.1868596673 -101290837.94300437 0 0 0 -30162289.767283708 17889553.607617378 473048.91389420629 0 473048.91389420629 -100606583.63204098 0 0 0 -28950960.50854826 11155476.305492282 -2205965.5819119811 0 -2205965.5819119811 -99245184.874019623 0 0 0 -30831397.998984694 9459383.8962589502 440144.62109059095 0 440144.62109059095 -100192041.73447311 0 0 0 -31756430.243374944 -8169767.6725946069 2875449.4397215992 0 2875449.4397215992 -94716991.45097971 0 0 0 -36010365.693250984 8461783.5904464722 -56023.276302278042 0 -56023.276302278042 -99963883.750776291 0 0 0 -32025735.05611515 4504631.5795086622 191757.19000828266 0 191757.19000828266 -99034689.045438647 0 0 0 -33085520.113075376 8877393.2063894272 -253228.44068254903 0 -253228.44068254903 -100370386.68277502 0 0 0 -32022547.716734648 3508967.4428919796 487399.14265871048 0 487399.14265871048 -100511388.96925396 0 0 0 -33950847.534226514 10949589.698401928 -1316301.646910429 0 -1316301.646910429 -100090806.84044123 0 0 0 -31199425.999713898 14183690.718833745 1124891.6135458946 0 1124891.6135458946 -100192011.632254 0 0 0 -30102912.319697082 -3204642.5971082002 9530424.7605116814 0 9530424.7605116814 -95827005.650697261 0 0 0 -34661076.886731938 4649901.3487757444 -5379572.2244201154 0 -5379572.2244201154 -100322613.23577428 0 0 0 -33485449.160449505 11797994.730566382 -284457.29461663961 0 -284457.29461663961 -101542544.36291599 0 0 0 -31410592.371322274 12733765.494877577 -369989.64430302382 0 -369989.64430302382 -101668459.12906265 0 0 0 -31127142.771964669 9616948.6005671322 -453338.93442118168 0 -453338.93442118168 -100169491.57733983 0 0 0 -31693390.041870803 6401323.6276140213 610931.17969890684 0 610931.17969890684 -100162626.94899225 0 0 0 -32816456.162482262 10407677.52795577 -1198347.3860062957 0 -1198347.3860062957 -100288287.74402714 0 0 0 -31458213.575624704 12172400.41253984 1070140.1560395956 0 1070140.1560395956 -100047007.79681921 0 0 0 -30756112.584497809 -2275157.9642395377 10649972.674361259 0 10649972.674361259 -97376984.716368526 0 0 0 -34878249.938212812 1999327.9240082502 -8444291.3266076744 0 -8444291.3266076744 -98477669.750181794 0 0 0 -33767419.639160693 15115939.642808676 -1376230.6528745294 0 -1376230.6528745294 -101330296.64838362 0 0 0 -30175024.951951504 15794552.311787128 -1237817.4752743244 0 -1237817.4752743244 -100034960.55132365 0 0 0 -29484142.8838377 6716812.6769904494 1376551.2829779387 0 1376551.2829779387 -99041648.538756967 0 0 0 -32313692.551618278 2628655.3358877301 1711733.1996953785 0 1711733.1996953785 -100980249.66912913 0 0 0 -34423058.016634464 17451210.494422317 -149649.82529199123 0 -149649.82529199123 -100179869.38381863 0 0 0 -28955030.611288548 17616044.164003015 -254234.72482156754 0 -254234.72482156754 -99932932.710265636 0 0 0 -28810910.991191626 4639990.5853663683 1416155.2976072729 0 1416155.2976072729 -95533998.805094719 0 0 0 -31812902.876904845 3469719.9764838219 1275275.5075330734 0 1275275.5075330734 -98409943.49843049 0 0 0 -33229078.232681036 -36501604.948795378 -5354141.8208758868 0 -5354141.8208758868 -89909273.540392071 0 0 0 -44243807.471215621 -25401969.77505669 -6842088.9587824196 0 -6842088.9587824196 -83632925.005664811 0 0 0 -38162213.173252523 18153348.959065914 -300753.93671619892 0 -300753.93671619892 -101027722.32474017 0 0 0 -29006030.677986026 15376222.491832972 1108147.8017778099 0 1108147.8017778099 -101230004.69755459 0 0 0 -30048823.772002578 18325617.651551321 -312534.99512732029 0 -312534.99512732029 -101125390.41994277 0 0 0 -28979920.468937203 14520133.874057531 1094151.3728617951 0 1094151.3728617951 -100841071.0619483 0 0 0 -30212328.015761614 7319826.0300898552 -242843.14934194088 0 -242843.14934194088 -100215036.08847237 0 0 0 -32513323.520433903 3859024.9071955681 174285.46216732264 0 174285.46216732264 -100493713.43822956 0 0 0 -33822140.985862017 -26219650.928247213 28747071.229257487 0 28747071.229257487 -101613594.70038 0 0 0 -44741635.970019519 -4297410.8420872688 -11285567.70346117 0 -11285567.70346117 -104004438.16066468 0 0 0 -37905647.150963187 14984466.767622948 -344021.55506128073 0 -344021.55506128073 -99752696.926352739 0 0 0 -29668880.555555344 4997398.1549303532 1120533.7277345657 0 1120533.7277345657 -97794242.93935585 0 0 0 -32478895.674549103 4434079.6068556309 148786.11958912015 0 148786.11958912015 -94024863.683848619 0 0 0 -31356774.426947474 -34289392.801619709 -14417714.519733455 0 -14417714.519733455 -93781344.67222935 0 0 0 -44824758.11584717 18444372.449178457 -444292.56470936537 0 -444292.56470936537 -100425359.88310647 0 0 0 -28693345.601874828 12741938.159009933 1810578.6815419197 0 1810578.6815419197 -100658554.39710522 0 0 0 -30770815.683333397 10783825.926193714 -671207.14664044976 0 -671207.14664044976 -100467594.43954647 0 0 0 -31389318.979673386 -343901.12715810537 -3059537.447935015 0 -3059537.447935015 -95701791.368105173 0 0 0 -33615992.373342156 17517192.53248024 -359735.3500751853 0 -359735.3500751853 -101105640.82877874 0 0 0 -29255956.903704524 18029535.732249498 -698814.98644924164 0 -698814.98644924164 -100476942.28651953 0 0 0 -28856592.293994188 13977949.886062384 1669868.2840238214 0 1669868.2840238214 -100906526.67674494 0 0 0 -30425001.876739025 10544998.520222425 -112402.75437963009 0 -112402.75437963009 -101070278.07640266 0 0 0 -31683847.844663024 4046027.4900241494 -2283461.2020459771 0 -2283461.2020459771 -96721320.01979202 0 0 0 -32436352.385418832 18656750.892225504 -115475.85099297762 0 -115475.85099297762 -100503808.55598307 0 0 0 -28646470.182315111 12047484.841526628 1575142.0760670304 0 1575142.0760670304 -99787802.272639513 0 0 0 -30709111.100889325 11262586.776373327 -1562710.6209707856 0 -1562710.6209707856 -99538497.856207013 0 0 0 -30896568.877941728 -6998438.9176021814 -1682495.9922347963 0 -1682495.9922347963 -96751829.147903442 0 0 0 -36312593.822926968 18291646.564935565 -319717.09460872412 0 -319717.09460872412 -101143783.66339135 0 0 0 -28998247.984459519 14520265.601330042 1071139.3064690232 0 1071139.3064690232 -100612937.64499021 0 0 0 -30132435.21528101 18133635.894499987 -302707.28407049179 0 -302707.28407049179 -101032672.33687162 0 0 0 -29014662.754830033 15338192.492183208 1093913.4277271256 0 1093913.4277271256 -101040040.15004826 0 0 0 -29995646.680252552 17533528.647447228 -385844.68643391132 0 -385844.68643391132 -100003908.1343627 0 0 0 -28864632.820420384 6023511.5410170555 1699322.329837203 0 1699322.329837203 -99057298.790185452 0 0 0 -32561825.537209272 5570706.8728086948 -1397057.6346552968 0 -1397057.6346552968 -98417323.591045141 0 0 0 -32496315.851382732 -18391624.749988109 -7205456.3330703527 0 -7205456.3330703527 -87602654.580512315 0 0 0 -37097997.765675157 -34220979.366156034 1384510.7750113718 0 1384510.7750113718 -84395668.592594773 0 0 0 -41515826.785562769 3281640.5362994671 813225.988037467 0 813225.988037467 -93778863.681084633 0 0 0 -31674028.100674748 2500426.794146657 -1615258.6152822673 0 -1615258.6152822673 -96346738.666636467 0 0 0 -32846209.155371428 17658859.617009163 34187.862228274345 0 34187.862228274345 -100088242.9532485 0 0 0 -28850284.167683601 18404056.891584873 -281933.91315627098 0 -281933.91315627098 -100428549.06752491 0 0 0 -28708572.261579275 9506116.2910814285 2058892.9681847095 0 2058892.9681847095 -99406910.743909836 0 0 0 -31465278.058489799 8709210.2066903114 -1386558.1211569905 0 -1386558.1211569905 -99987168.740209341 0 0 0 -31947285.486731529 -9667678.3162181973 -2558023.8187798411 0 -2558023.8187798411 -91409881.177377462 0 0 0 -35377145.822758496 15666227.130211115 239953.59436005354 0 239953.59436005354 -101563132.88740957 0 0 0 -30063917.015019417 14995160.575858355 -944050.42344375327 0 -944050.42344375327 -100152234.35697126 0 0 0 -29804975.82338953 12917758.647718325 1342018.4953730702 0 1342018.4953730702 -98810176.991345614 0 0 0 -30062346.420269594 2606955.5601878855 5393868.3274665177 0 5393868.3274665177 -101935739.28457938 0 0 0 -34765074.303537063 -7898401.0037512779 -8406526.3883278575 0 -8406526.3883278575 -99895806.280403137 0 0 0 -37727972.549454033 18120786.464272261 459749.37235742807 0 459749.37235742807 -100070274.90151906 0 0 0 -28682320.953036308 17304802.469866872 491977.38457810879 0 491977.38457810879 -100464790.25666046 0 0 0 -29105995.725377798 8530342.8631950021 1104655.0254900157 0 1104655.0254900157 -99591484.791631699 0 0 0 -31871399.674952686 9850558.4208271503 -1954768.6115425229 0 -1954768.6115425229 -99394930.256185532 0 0 0 -31340530.142375469 10493471.65403223 -1932127.2131075263 0 -1932127.2131075263 -97981664.48233819 0 0 0 -30620867.489907146 7228885.8409771919 -92536.975615173578 0 -92536.975615173578 -99234009.263560891 0 0 0 -32201793.197904468 -10504005.438938648 5030587.4743714482 0 5030587.4743714482 -92682324.015326083 0 0 0 -36115215.308992654 -17727525.626503497 6078330.114989832 0 6078330.114989832 -97102754.277980357 0 0 0 -40190597.966569364 15635364.377367869 -1409002.1464322209 0 -1409002.1464322209 -101219992.70073882 0 0 0 -29954619.91317986 8453058.1501522064 1849783.5428532362 0 1849783.5428532362 -98426338.11873138 0 0 0 -31490647.989002705 17469078.484453201 930148.07898735255 0 930148.07898735255 -100706167.91104698 0 0 0 -29132981.299308062 7824758.4260060787 -378582.36801028252 0 -378582.36801028252 -98737274.429113388 0 0 0 -31819380.60108757 7579357.707911849 198718.12177157402 0 198718.12177157402 -99403147.103113651 0 0 0 -32138326.288320541 -18109806.761493899 21770340.883568078 0 21770340.883568078 -111181646.68169108 0 0 0 -45252008.70511476 -22572117.275321335 -21351475.798698835 0 -21351475.798698835 -110568461.67103845 0 0 0 -46599202.631225944 13725685.10905695 705435.84545662999 0 705435.84545662999 -101137787.675542 0 0 0 -30594235.898269892 5266574.4035827518 -1088797.6113989353 0 -1088797.6113989353 -97759466.695108294 0 0 0 -32372512.302033961 -32953668.010285795 14060868.83973505 0 14060868.83973505 -93233201.278040797 0 0 0 -44165404.250914291 15397510.502466202 359543.88146454096 0 359543.88146454096 -99886972.645484924 0 0 0 -29571311.750056744 3628674.2386157215 329118.3142619431 0 329118.3142619431 -94833470.185270488 0 0 0 -31921678.581329197 16498778.238091588 251090.9016135335 0 251090.9016135335 -101719630.27238321 0 0 0 -29827298.212002039 12284568.205554605 -330943.54071517289 0 -330943.54071517289 -100572193.10953546 0 0 0 -30900668.716393113 1450970.890586853 -494125.76553300023 0 -494125.76553300023 -98494314.833036423 0 0 0 -33965170.379857302 -37077582.920765124 15392911.771013994 0 15392911.771013994 -84029485.927021042 0 0 0 -42387474.096725151 14958492.504063249 333874.57933568954 0 333874.57933568954 -99566372.525494099 0 0 0 -29612758.007501006 129170.97768008709 1331959.7335935533 0 1331959.7335935533 -91845761.255268097 0 0 0 -32100806.597155809 17948382.41954717 -500387.84369909763 0 -500387.84369909763 -100603442.73859948 0 0 0 -28929271.111668259 17932969.462104201 -499461.23471045494 0 -499461.23471045494 -100638127.94378614 0 0 0 -28946805.46858871 13102385.684279919 1741892.8150673211 0 1741892.8150673211 -99262247.052358627 0 0 0 -30155951.478827477 11195076.766713262 2082774.0970667452 0 2082774.0970667452 -99566419.951217175 0 0 0 -30929970.11457634 9090763.5645602942 -26465.894715458155 0 -26465.894715458155 -100166108.95026755 0 0 0 -31876370.884997487 9024695.3637239933 -343387.09458333254 0 -343387.09458333254 -100632130.2418735 0 0 0 -32062602.207352281 -7514550.5481299162 -4104959.108006686 0 -4104959.108006686 -99417138.861204565 0 0 0 -37426091.293267131 -6675498.0344160795 -3289642.7230522335 0 -3289642.7230522335 -94588853.540078372 0 0 0 -35442523.051073074 17365448.893576145 -496952.98084431887 0 -496952.98084431887 -100400652.71322775 0 0 0 -29062321.336878061 10732628.269743919 1965021.1612545252 0 1965021.1612545252 -98211103.281997204 0 0 0 -30617466.254288554 7495055.1605432928 57029.117904663086 0 57029.117904663086 -98815688.568792582 0 0 0 -31962221.692887098 -16082028.019055396 -6399257.6597190574 0 -6399257.6597190574 -97159291.2557441 0 0 0 -39634461.746179849 18165998.00870204 -248213.37580066919 0 -248213.37580066919 -99976450.358069897 0 0 0 -28633658.322278738 6437003.7315586209 1678961.8297463059 0 1678961.8297463059 -97991740.955997825 0 0 0 -32044158.028553665 6518313.4772162437 -1448380.1181737781 0 -1448380.1181737781 -94791091.222664177 0 0 0 -30895472.210906625 -20972192.120668441 -4727517.8337391037 0 -4727517.8337391037 -87514033.924449116 0 0 0 -37970179.115791142 17412634.180310488 -247834.28081530333 0 -247834.28081530333 -100318454.85825396 0 0 0 -29017037.237280369 7061652.5351569951 1826440.3838194013 0 1826440.3838194013 -96263404.972748995 0 0 0 -31220613.353157371 5974921.118673861 -2076245.1824407578 0 -2076245.1824407578 -97616402.557970881 0 0 0 -32074518.503754079 -30916917.054135293 -6040783.6311048437 0 -6040783.6311048437 -93466993.21534586 0 0 0 -43534368.59431839 17978748.647924662 -456253.00143772364 0 -456253.00143772364 -100249032.01764917 0 0 0 -28794599.179403782 8977660.5230066776 2053106.1168009639 0 2053106.1168009639 -99209738.753021598 0 0 0 -31581227.380505085 8011161.2404477596 -1069824.083491683 0 -1069824.083491683 -99684256.553616643 0 0 0 -32085583.359609127 -12549985.873754948 -4477700.837229941 0 -4477700.837229941 -91031862.560027778 0 0 0 -36253646.95182395 13576493.346893579 -1221366.1330749989 0 -1221366.1330749989 -98765780.068280458 0 0 0 -29816250.352485389 14522083.90035677 1092489.7598220408 0 1092489.7598220408 -99513683.536052227 0 0 0 -29747059.872493267 -7114589.8375372887 8314590.4472307786 0 8314590.4472307786 -102039372.17394316 0 0 0 -38203886.704018235 -1647666.4698410481 -6440070.7121917009 0 -6440070.7121917009 -102911192.49117386 0 0 0 -36595600.636355326 11302152.476853371 -1840069.5440211222 0 -1840069.5440211222 -98859775.557360172 0 0 0 -30645168.078177452 18434264.207938358 304576.35884428024 0 304576.35884428024 -100342037.82409486 0 0 0 -28667720.765654638 -11828887.178530902 3178838.5262650251 0 3178838.5262650251 -96626756.038146019 0 0 0 -37959475.125836879 9891103.1528947353 1278174.6537593119 0 1278174.6537593119 -99130773.960179329 0 0 0 -31233884.78254962 2844359.6809737682 -972240.36068370938 0 -972240.36068370938 -98961340.447326899 0 0 0 -33640943.268223524 -31960021.585013401 12351602.606557604 0 12351602.606557604 -86288097.229975298 0 0 0 -41386841.585246041 15005953.138638854 186304.57161271572 0 186304.57161271572 -100306998.72803938 0 0 0 -29855365.956290364 3137226.8130165339 -381041.63064939529 0 -381041.63064939529 -94197177.532539606 0 0 0 -31870982.7518332 18503973.716828346 69741.998301692307 0 69741.998301692307 -101043181.96055889 0 0 0 -28888722.885305882 13019676.618711941 769176.79775893688 0 769176.79775893688 -100976926.77873239 0 0 0 -30785037.556007154 18363853.45949614 -95165.956029415131 0 -95165.956029415131 -100051087.15773296 0 0 0 -28590531.79438293 5625098.9453755617 1701221.2249326408 0 1701221.2249326408 -98008592.386173964 0 0 0 -32334222.704279423 5502525.6101287603 -2160006.6131116599 0 -2160006.6131116599 -98039595.504142046 0 0 0 -32387974.462904453 -20644084.640802972 -1593078.6157432199 0 -1593078.6157432199 -86294085.011232883 0 0 0 -37428359.378212519 16743550.149043351 -96336.008286833763 0 -96336.008286833763 -101496768.55821896 0 0 0 -29663626.443211406 11691444.859074354 -501342.94994223118 0 -501342.94994223118 -99050946.891505241 0 0 0 -30575825.711350918 6913102.3844147921 709478.54523074627 0 709478.54523074627 -99252896.373155594 0 0 0 -32318927.896059275 7093383.9822106361 -302738.977637887 0 -302738.977637887 -100580094.76798248 0 0 0 -32720348.775019884 5942424.398252666 374968.53763759136 0 374968.53763759136 -99605427.097035766 0 0 0 -32782050.944573939 -23296478.410388499 21346150.376898456 0 21346150.376898456 -103520063.19556201 0 0 0 -44385789.562082678 -7492400.0630815998 -14127912.863436073 0 -14127912.863436073 -107160761.13918079 0 0 0 -40128606.420791842 18116718.066206694 -511856.60784345865 0 -511856.60784345865 -100118519.00045538 0 0 0 -28700630.326987505 10729991.967790723 1696129.2968491316 0 1696129.2968491316 -99156302.376427412 0 0 0 -30949208.643022895 8914523.6283196211 -1137189.6216621399 0 -1137189.6216621399 -99466522.393890858 0 0 0 -31693199.56795001 -11171315.889616489 -6175445.5192427933 0 -6175445.5192427933 -94862652.131784379 0 0 0 -37111888.807490289 -208596.32334142923 11276896.586391211 0 11276896.586391211 -105080407.47798228 0 0 0 -36851151.33046338 -11838772.59298823 -20144649.300855696 0 -20144649.300855696 -95649340.863223523 0 0 0 -37620839.709674098 14323260.626529813 275788.33419296145 0 275788.33419296145 -101451962.86242175 0 0 0 -30495045.782562256 13307305.323163152 -313716.89810499549 0 -313716.89810499549 -101395444.96323609 0 0 0 -30830848.874025583 15559646.099009395 -1281558.6631628871 0 -1281558.6631628871 -100764469.65525436 0 0 0 -29821688.244685769 15651892.854983091 1305347.0405381918 0 1305347.0405381918 -99875499.822374821 0 0 0 -29478262.438587189 6429099.0550411344 3157183.7990190685 0 3157183.7990190685 -100086918.85062063 0 0 0 -32780236.92845279 5143060.8925873637 -3667675.6393626928 0 -3667675.6393626928 -98877608.638141513 0 0 0 -32807091.710943997 7450622.1797266006 -1585754.8544861525 0 -1585754.8544861525 -100983867.59521484 0 0 0 -32736635.895420849 18010974.865755036 -4102.8939900398254 0 -4102.8939900398254 -100195035.60741811 0 0 0 -28764421.259581849 5537229.6327267885 2107505.583641056 0 2107505.583641056 -96187874.872619629 0 0 0 -31727725.83396244 6134179.7124972343 -1508040.1328134695 0 -1508040.1328134695 -95423572.436053753 0 0 0 -31251287.453244448 -30099255.286101513 859942.90468513221 0 859942.90468513221 -90321502.321685195 0 0 0 -42147265.162725352 17984583.986515284 596438.06155705452 0 596438.06155705452 -100830225.23389995 0 0 0 -28995974.436584592 17684678.860075355 690437.62066227198 0 690437.62066227198 -101094692.94776487 0 0 0 -29193504.930691481 15534890.780496001 -531100.38783597946 0 -531100.38783597946 -101456185.56462204 0 0 0 -30072453.174443841 9051223.7369744778 58097.379178404808 0 58097.379178404808 -99936014.744195938 0 0 0 -31809676.85252738 1603911.4229819775 146405.52089476585 0 146405.52089476585 -99455023.985598564 0 0 0 -34247889.396915913 1304327.5660882986 3040386.9677895606 0 3040386.9677895606 -89163752.200100332 0 0 0 -30750798.621904273 -52588787.040588267 -26326115.384174637 0 -26326115.384174637 -97652350.783039659 0 0 0 -52584398.238269769 1598391.7396544311 -190916.95905780792 0 -190916.95905780792 -99361001.732005328 0 0 0 -34216913.49732291 -52943484.726759635 26366792.297634583 0 26366792.297634583 -98311948.607242361 0 0 0 -52939401.666900694 8839144.0097005367 -70072.899794165249 0 -70072.899794165249 -100133374.33459902 0 0 0 -31952980.613714218 1584371.7628270653 -3032256.6575594246 0 -3032256.6575594246 -88554516.960052326 0 0 0 -30439550.819028888 16751922.042280912 -1132271.7473213971 0 -1132271.7473213971 -100116665.24030709 0 0 0 -29177660.119309187 15098802.83628273 1418674.6558929086 0 1418674.6558929086 -100891449.01740551 0 0 0 -30027426.163392782 6220003.755807966 2405771.0114061534 0 2405771.0114061534 -100530972.25075692 0 0 0 -33008838.97323218 3369595.8437147737 -3720112.9680977464 0 -3720112.9680977464 -99834442.867274761 0 0 0 -33762696.458245993 18471952.062358916 77136.378854632378 0 77136.378854632378 -100182179.24980259 0 0 0 -28598579.515605152 7289670.7482249737 1779365.1010706276 0 1779365.1010706276 -98972193.082597971 0 0 0 -32088882.817030668 7259118.254540205 -2249668.9569573253 0 -2249668.9569573253 -98999254.873659134 0 0 0 -32109047.816691637 -14803557.49304314 908774.89446035028 0 908774.89446035028 -88267735.983878538 0 0 0 -36074952.716922566 15783249.007772923 -1441277.0793973804 0 -1441277.0793973804 -99865707.861132145 0 0 0 -29428860.598675966 15756208.948174953 1201994.0512148142 0 1201994.0512148142 -100713150.7736485 0 0 0 -29734929.638915777 3036697.6030313373 2604301.3138076812 0 2604301.3138076812 -100624150.52147269 0 0 0 -34155608.521454513 5131816.6731724143 -3426386.279453367 0 -3426386.279453367 -100615538.42892838 0 0 0 -33419302.614514649 3483279.1489078999 -872303.50186431408 0 -872303.50186431408 -97340339.612026215 0 0 0 -32849971.162091255 -39214251.70400618 11680386.054297589 0 11680386.054297589 -90332036.206152678 0 0 0 -45341200.768555596 3373159.6745034456 805812.88666677475 0 805812.88666677475 -90971285.884735346 0 0 0 -30659344.173581123 15812463.373743296 135766.65918064117 0 135766.65918064117 -99989974.057974577 0 0 0 -29462128.739481211 821573.04926776886 -445828.79318165779 0 -445828.79318165779 -97670590.044460058 0 0 0 -33897155.948317289 -46520537.689189218 13983874.421072192 0 13983874.421072192 -86392988.870719999 0 0 0 -46519734.29596822 14661331.533615589 170910.32518988513 0 170910.32518988513 -100222426.24719906 0 0 0 -29946383.149753571 1055224.7843507666 535172.51788318157 0 535172.51788318157 -85657132.222887248 0 0 0 -29610667.603487834 1217455.5232876348 1077865.3525364995 0 1077865.3525364995 -88140706.744107068 0 0 0 -30423137.927286763 16061929.010153294 144651.19018983841 0 144651.19018983841 -99886286.767767429 0 0 0 -29338525.215164661 -46105109.064202711 10738313.321710136 0 10738313.321710136 -85627600.190241084 0 0 0 -46106448.239055328 1377196.0582774538 -439817.45742344856 0 -439817.45742344856 -96297158.020574883 0 0 0 -33221986.686804209 9444107.5910012722 -329512.22044026852 0 -329512.22044026852 -99315149.501596928 0 0 0 -31454864.668708324 6274801.5718464851 485236.09276497364 0 485236.09276497364 -99022128.345813751 0 0 0 -32461564.37088871 -15247124.366001964 21288144.253790218 0 21288144.253790218 -99754269.022572756 0 0 0 -40250487.686001152 -5521523.2939648032 -18091068.053823024 0 -18091068.053823024 -110894736.20665085 0 0 0 -40745690.825215399 17389605.494760931 -759622.91771495342 0 -759622.91771495342 -100840026.80621338 0 0 0 -29207647.459008157 17598257.023402601 -913948.29057776928 0 -913948.29057776928 -100206444.15052718 0 0 0 -28912865.494493574 14678539.839141607 1738715.1421138793 0 1738715.1421138793 -99352051.108643055 0 0 0 -29635728.944325447 14425536.88600421 1559521.7228997424 0 1559521.7228997424 -100774243.48244762 0 0 0 -30222047.308754921 9507461.9624632597 1302984.5235766917 0 1302984.5235766917 -100766857.02299738 0 0 0 -31940788.271186948 7960317.9501675367 923826.75070818514 0 923826.75070818514 -101302707.66393995 0 0 0 -32669836.399820328 -3289413.7648812681 -2576265.1172535121 0 -2576265.1172535121 -100544726.12985995 0 0 0 -36341948.963159397 2918362.566074647 -3545427.7236513793 0 -3545427.7236513793 -98566917.586928815 0 0 0 -33476994.257298969 9978681.5101212263 -395560.3430441618 0 -395560.3430441618 -99351096.212896347 0 0 0 -31280345.145971417 9191700.9713094234 648565.53205960989 0 648565.53205960989 -98749870.455900669 0 0 0 -31345359.319607019 9669190.8079627752 -2071477.5648002625 0 -2071477.5648002625 -97549237.120363951 0 0 0 -30758016.209340334 17903411.661848307 342923.89565074444 0 342923.89565074444 -100521755.7348969 0 0 0 -28916420.425566912 -19986150.897490382 3698615.0388610065 0 3698615.0388610065 -95110195.097329795 0 0 0 -40283721.098187029 8227295.8613334894 1048565.4917237163 0 1048565.4917237163 -98148476.195194244 0 0 0 -31472413.116851211 9134105.8405011296 -335876.73120374978 0 -335876.73120374978 -100173842.43939447 0 0 0 -31863907.809612632 7694977.5261412859 -127879.51272371411 0 -127879.51272371411 -100827477.05068636 0 0 0 -32596374.833590746 17608965.487001181 477025.58625015616 0 477025.58625015616 -99899476.493459225 0 0 0 -28801678.85226059 7500751.9970784038 -1969024.1778180599 0 -1969024.1778180599 -99576217.336749524 0 0 0 -32226412.868885055 6704196.8998122066 841762.74648702145 0 841762.74648702145 -99164953.806927711 0 0 0 -32361264.917490497 -13638313.223953351 6546575.31363995 0 6546575.31363995 -89033103.999703079 0 0 0 -35934996.028279737 15110022.167049825 -623182.54092216492 0 -623182.54092216492 -101188021.25378478 0 0 0 -30127299.680357099 17155769.370188713 -943193.25836528838 0 -943193.25836528838 -101054505.2082181 0 0 0 -29364557.543310165 15532762.821909606 1447845.5645686388 0 1447845.5645686388 -100139982.44132566 0 0 0 -29612526.866795361 10016116.415356964 1367589.8244811296 0 1367589.8244811296 -100627666.86129826 0 0 0 -31714042.656079441 3804463.3223831654 -1861111.3476804793 0 -1861111.3476804793 -99405351.12362504 0 0 0 -33460310.730434775 17383483.713929385 780554.57586658001 0 780554.57586658001 -100645999.22709608 0 0 0 -29141880.429608256 12550814.205612659 -1815412.4151788652 0 -1815412.4151788652 -99414747.774801731 0 0 0 -30402376.749216318 9399286.4012863636 -1052883.6969794855 0 -1052883.6969794855 -100831607.09504199 0 0 0 -32001312.242814422 -4220758.4406189546 4548661.3904235065 0 4548661.3904235065 -95687305.069267571 0 0 0 -34967822.228460275 13274534.176171703 290102.75646418333 0 290102.75646418333 -101435932.32210739 0 0 0 -30856489.351077512 1678181.6524615288 1520253.9696069062 0 1520253.9696069062 -101028113.22754312 0 0 0 -34772476.051278472 14285761.150938272 -482338.98565652966 0 -482338.98565652966 -101792945.70584655 0 0 0 -30627514.594218016 16530755.416847706 1263903.9197075963 0 1263903.9197075963 -100771760.17278862 0 0 0 -29484351.664579153 15290397.509900808 -191750.21830904484 0 -191750.21830904484 -101472643.77110422 0 0 0 -30163786.191421032 17440810.409989119 -13337.450370367702 0 -13337.450370367702 -100080510.23564959 0 0 0 -28923894.938980818 1026972.6193120979 701187.66429787874 0 701187.66429787874 -93699956.472256079 0 0 0 -32435544.348530363 1657210.3978732286 -701878.14779579639 0 -701878.14779579639 -91691310.978769183 0 0 0 -31511935.203313522 -46099864.922406591 -1035928.1001582503 0 -1035928.1001582503 -85622893.747159764 0 0 0 -46102965.534348212 11643616.66888243 -2030157.5308346748 0 -2030157.5308346748 -99734197.591034651 0 0 0 -30831703.32275337 18517044.137882948 300161.77797695994 0 300161.77797695994 -100590479.40591431 0 0 0 -28725702.343810797 -5781595.273296237 1635548.0706343129 0 1635548.0706343129 -95567041.717714608 0 0 0 -35472022.946853757 10660887.420118451 1046509.4192905426 0 1046509.4192905426 -100288291.37653327 0 0 0 -31369591.384745121 7131396.6999458671 499861.55805247743 0 499861.55805247743 -98005663.745762229 0 0 0 -31805993.466035724 16755254.316440105 322551.84132957458 0 322551.84132957458 -101267398.73968315 0 0 0 -29579250.548135042 15324016.277282834 -107136.87022079527 0 -107136.87022079527 -101643148.17948771 0 0 0 -30211696.165771723 -40867044.818187371 -48439258.975413591 0 -48439258.975413591 -190146936.55408588 0 0 0 -80854893.480295628 -80259398.367392257 48831305.825666897 0 48831305.825666897 -149288197.48667935 0 0 0 -80341658.548925042 -40989892.116672747 48601217.670277476 0 48601217.670277476 -190091624.77400285 0 0 0 -80878530.911736444 -80145389.885285899 -48708292.72478845 0 -48708292.72478845 -149075033.15872118 0 0 0 -80227148.065402463 1364579.720500946 12444.797096077451 0 12444.797096077451 -100502783.56610584 0 0 0 -34698371.345962048 1156270.8102824688 -76555.679708480835 0 -76555.679708480835 -99701138.143853664 0 0 0 -34490703.566749811 1349145.634169817 13713.086273550987 0 13713.086273550987 -100414294.57453251 0 0 0 -34672802.129127026 1028230.2855244763 76445.6483720541 0 76445.6483720541 -99675162.145231009 0 0 0 -34526426.15089716 16252425.87138474 824651.23329687119 0 824651.23329687119 -101432740.38490963 0 0 0 -29813110.07973361 13650048.049154639 377950.46010786295 0 377950.46010786295 -101306403.13055634 0 0 0 -30679724.278490782 13256430.907773852 -373522.03232121468 0 -373522.03232121468 -101009379.6401794 0 0 0 -30713532.056341946 16682105.949931145 -175536.06332552433 0 -175536.06332552433 -100211707.56937265 0 0 0 -29235360.566804647 4175982.1504770517 1343553.905123055 0 1343553.905123055 -96474387.013919353 0 0 0 -32304441.702204823 4300338.3030446768 -956307.34906795621 0 -956307.34906795621 -91746049.625287056 0 0 0 -30605998.962784886 -38385181.580238596 -7838117.2682742495 0 -7838117.2682742495 -90340955.874861985 0 0 0 -45054148.109285221 15858858.358842134 -1094607.2598881721 0 -1094607.2598881721 -100471787.62687373 0 0 0 -29614525.243810892 13706321.365973234 1629682.9976366162 0 1629682.9976366162 -99676641.506540775 0 0 0 -30089612.049198627 5592616.1241984367 3339235.3706165776 0 3339235.3706165776 -101336465.0638653 0 0 0 -33510347.128883421 -544982.81362936646 -5353396.0528161824 0 -5353396.0528161824 -98133300.710630104 0 0 0 -34537399.233490802 13460958.597797688 319309.55184870958 0 319309.55184870958 -101219648.61127114 0 0 0 -30715541.504715625 8429313.3893288374 -906257.4896119386 0 -906257.4896119386 -100502608.27289236 0 0 0 -32225653.209247231 14759721.988232017 -248383.40548539162 0 -248383.40548539162 -99755691.637675285 0 0 0 -29748589.37730515 1090882.1557545662 408045.64349859953 0 408045.64349859953 -98941178.220170498 0 0 0 -34247603.622545719 14542305.468532324 -213870.78916484118 0 -213870.78916484118 -100384982.83225012 0 0 0 -30044937.077301025 2668866.0275945663 908221.48532676697 0 908221.48532676697 -98943433.525242567 0 0 0 -33696098.62417686 88670.706063568592 -965181.2855938673 0 -965181.2855938673 -92459383.184235454 0 0 0 -32329749.367360055 -35318931.613307349 -15441353.420509014 0 -15441353.420509014 -82758657.830349222 0 0 0 -41327156.305279799 2287595.9362466931 618142.03545880318 0 618142.03545880318 -94061678.921387613 0 0 0 -32120929.044799447 -33551113.124419063 -13285705.523084786 0 -13285705.523084786 -86838269.256345391 0 0 0 -42136283.83326754 6598232.1662213802 -607944.77812510729 0 -607944.77812510729 -98971639.998813629 0 0 0 -32330692.741407156 11706183.294876873 401444.58932590485 0 401444.58932590485 -99044311.693221569 0 0 0 -30568344.93942064 12075212.873702049 -1659329.5676299334 0 -1659329.5676299334 -100157283.45864916 0 0 0 -30828724.704731584 16848072.443528891 860885.79387202859 0 860885.79387202859 -99812961.543806076 0 0 0 -29037711.185096979 -4618175.7688173354 7000237.2570707053 0 7000237.2570707053 -97410043.105739594 0 0 0 -35709876.606094927 7362247.6565180123 -1664510.4744127989 0 -1664510.4744127989 -99821951.800693274 0 0 0 -32360896.450461298 -27493501.151863955 20712215.108204834 0 20712215.108204834 -103201218.17042699 0 0 0 -45743151.762801819 -1500866.4793781638 -8032280.9140511379 0 -8032280.9140511379 -101537096.26973498 0 0 0 -36063286.962189615 9987865.0309176445 -651934.39874374866 0 -651934.39874374866 -100705379.03402817 0 0 0 -31751129.901088655 18067279.376318097 152240.70216453075 0 152240.70216453075 -100310875.48501611 0 0 0 -28785258.638044238 7241439.2258847952 2131773.6062592566 0 2131773.6062592566 -96244153.667240143 0 0 0 -31150950.054474473 7747183.6267266273 -1833766.6740069687 0 -1833766.6740069687 -96472040.671179056 0 0 0 -31053699.96555829 -26057768.467698403 3217727.6287937388 0 3217727.6287937388 -93157561.301761523 0 0 0 -41725365.41931095 18718863.789613247 62589.300793886185 0 62589.300793886185 -100639188.14665675 0 0 0 -28672113.524965405 18429127.663482547 197025.4039388895 0 197025.4039388895 -101020465.68521118 0 0 0 -28906968.307604909 13072104.947800159 1161999.0799756348 0 1161999.0799756348 -101025855.36128545 0 0 0 -30783812.644719839 12108602.571231604 734259.44727110863 0 734259.44727110863 -100466223.15102911 0 0 0 -30925167.20292902 13237199.159058452 -1374888.1134597659 0 -1374888.1134597659 -101223057.31466436 0 0 0 -30795050.354462028 13608409.416349292 -1334359.263797164 0 -1334359.263797164 -100204078.78135538 0 0 0 -30308484.277752161 16174041.459685564 -371155.8456530571 0 -371155.8456530571 -99825295.528922081 0 0 0 -29277938.92423296 6349318.9462185502 1419707.9731118679 0 1419707.9731118679 -97526018.84829998 0 0 0 -31911844.965728462 5282993.4374929667 -597723.11348345876 0 -597723.11348345876 -95491973.725604296 0 0 0 -31573143.1008389 -29867389.206198096 -11273843.993261054 0 -11273843.993261054 -93688598.154787034 0 0 0 -43244595.576344788 16547689.85965848 -499533.38854706287 0 -499533.38854706287 -100350336.99384975 0 0 0 -29330926.496967077 8497552.5878000259 1874860.8390148878 0 1874860.8390148878 -97748761.558444262 0 0 0 -31237923.139725447 5944152.1225481033 451334.87768206 0 451334.87768206 -98145934.91182065 0 0 0 -32270623.976245403 -22662623.032426044 -7948682.5169982687 0 -7948682.5169982687 -94587960.449398547 0 0 0 -41037704.218638584 12582264.249276638 293598.48032429814 0 293598.48032429814 -101235390.80127811 0 0 0 -31028594.293200374 7450296.4232547283 -1551978.1276190877 0 -1551978.1276190877 -98263043.523057461 0 0 0 -31784461.484930754 16038117.490305185 516432.10255897045 0 516432.10255897045 -99499050.282392979 0 0 0 -29211326.477230549 -22903428.462172613 11274285.240465343 0 11274285.240465343 -93998493.588099599 0 0 0 -40915672.717595294 5335747.4047625065 -612532.45381876826 0 -612532.45381876826 -97960481.936808586 0 0 0 -32418657.086216092 11203311.54159832 -589253.28556871414 0 -589253.28556871414 -100386912.01399899 0 0 0 -31214260.165339947 8197932.0681121349 801165.19052660465 0 801165.19052660465 -99194087.465357065 0 0 0 -31848654.389035702 16877142.040595412 -980599.35632503033 0 -980599.35632503033 -99885414.445776224 0 0 0 -29052895.341813207 13196594.745869637 1831204.8288469911 0 1831204.8288469911 -100473463.48994279 0 0 0 -30546904.060425758 6899219.9233522415 1729171.4325559139 0 1729171.4325559139 -100363796.81189203 0 0 0 -32712601.910988927 -1218928.631870091 -4866261.5287128687 0 -4866261.5287128687 -98241621.672282815 0 0 0 -34811192.606453478 18097183.680865347 258794.53468763828 0 258794.53468763828 -101358549.8731643 0 0 0 -29141478.167304575 14762017.593793392 -158477.45820224285 0 -158477.45820224285 -100034100.00023651 0 0 0 -29845228.842255116 1127987.7996881295 408852.19184815884 0 408852.19184815884 -97338648.779391214 0 0 0 -33673731.342896074 1103987.9242443298 -699616.77543693781 0 -699616.77543693781 -85126823.402521402 0 0 0 -29407992.417397097 -46988272.876833312 -14082537.465556564 0 -14082537.465556564 -87257995.30253306 0 0 0 -46986193.862778224 5414144.704492569 176522.97941809893 0 176522.97941809893 -101126152.37394392 0 0 0 -33499202.684308052 17363814.209314346 35779.679005980492 0 35779.679005980492 -100066613.96796894 0 0 0 -28945979.915528774 997641.30691611767 758157.31824320555 0 758157.31824320555 -91272094.333400011 0 0 0 -31596058.559269309 816914.86237459257 -715264.44825530052 0 -715264.44825530052 -93402832.320790663 0 0 0 -32405071.11044557 -45613863.169064373 2191988.5290224166 0 2191988.5290224166 -84707282.118245736 0 0 0 -45612400.850558527 126137.37591457367 7537228.5400755703 0 7537228.5400755703 -100666722.38395452 0 0 0 -35189204.752814025 -27255929.18045792 -20607929.638434134 0 -20607929.638434134 -103398354.3236154 0 0 0 -45728999.226425648 6517184.0691363811 -320665.70301759243 0 -320665.70301759243 -98384556.756474137 0 0 0 -32153580.440568209 13760336.719585612 -361288.11352992058 0 -361288.11352992058 -101341101.89670351 0 0 0 -30653267.81199114 12125916.807713509 123428.62731927633 0 123428.62731927633 -101394081.5595392 0 0 0 -31243857.663138866 -10500.163521528244 1224335.1330917776 0 1224335.1330917776 -94567057.55029726 0 0 0 -33102145.199836731 17657120.211597145 107398.14159464836 0 107398.14159464836 -99848261.324061513 0 0 0 -28766899.389362395 -36018883.945579872 3781601.09702136 0 3781601.09702136 -80780548.006384209 0 0 0 -40879801.183187425 1124223.1932446957 -635860.93356983364 0 -635860.93356983364 -95570768.315382481 0 0 0 -33056290.792747974 17935209.658607721 -670939.5554214716 0 -670939.5554214716 -100626024.46002817 0 0 0 -28941785.180496931 15285879.445411801 1236955.8390225172 0 1236955.8390225172 -100579651.02957249 0 0 0 -29852820.054456353 9790231.9077005982 419971.97995996475 0 419971.97995996475 -101058937.57091892 0 0 0 -31944046.982126594 2236912.1636532545 -2230275.0616953373 0 -2230275.0616953373 -100261284.89396799 0 0 0 -34308530.455610216 16264691.867707074 1066212.285097003 0 1066212.285097003 -101199543.86555088 0 0 0 -29727198.199245393 16324666.169505954 411889.61042100191 0 411889.61042100191 -101245802.03257108 0 0 0 -29722397.552072883 16086380.579630613 -1057314.4164324999 0 -1057314.4164324999 -99722081.141671181 0 0 0 -29272495.196714163 12311637.465661526 1539700.1814638376 0 1539700.1814638376 -99707707.536514044 0 0 0 -30588624.524798155 5242081.5213959813 3051191.9511969388 0 3051191.9511969388 -100691034.89863205 0 0 0 -33407133.682032526 -5661168.8804804087 -7443721.0466745347 0 -7443721.0466745347 -97977162.013846636 0 0 0 -36273415.813014448 8897080.0923850536 -1271593.3740133643 0 -1271593.3740133643 -101229883.42460465 0 0 0 -32316481.166276813 15251749.853678703 -422976.03075706959 0 -422976.03075706959 -100277259.82914495 0 0 0 -29758928.491413116 5236375.9470057487 1242559.0759323239 0 1242559.0759323239 -99495213.523840904 0 0 0 -32990593.151891947 3851198.3727245331 670197.43849989772 0 670197.43849989772 -99507192.040109634 0 0 0 -33479597.783584714 -20617970.301664565 -12202144.104311675 0 -12202144.104311675 -88411575.62847212 0 0 0 -38160341.075547829 17842899.613615751 -146800.58439821005 0 -146800.58439821005 -100348024.44255733 0 0 0 -28876793.690129519 5981972.8991092443 2094816.6665045023 0 2094816.6665045023 -96553373.250321627 0 0 0 -31699990.122924328 -29675262.616862878 -2104211.4079587683 0 -2104211.4079587683 -91104332.873941183 0 0 0 -42272858.421781436 11388614.644773483 -203594.05253261328 0 -203594.05253261328 -101028893.19853902 0 0 0 -31374097.493818045 390748.32848489285 -972532.99603712559 0 -972532.99603712559 -95657905.421388388 0 0 0 -33343504.982516289 -34782648.492232472 173613.15401637554 0 173613.15401637554 -79318373.634356454 0 0 0 -39935357.744306125 3266616.341353178 -1321816.2148836255 0 -1321816.2148836255 -93974074.460973501 0 0 0 -31747610.341867208 -38294530.993424103 768883.10739739798 0 768883.10739739798 -86918545.579587087 0 0 0 -43824576.800553918 892486.31996011734 493051.02922260761 0 493051.02922260761 -94716131.030218363 0 0 0 -32838275.648590326 17774280.236577749 -19722.163093805313 0 -19722.163093805313 -99952006.663076401 0 0 0 -28762204.249274969 17742879.396526814 21583.697807908058 0 21583.697807908058 -100063497.8418541 0 0 0 -28812216.455864429 2410599.2569906712 1332714.6032338738 0 1332714.6032338738 -94459773.413933277 0 0 0 -32217210.954929948 18015735.656955242 -162131.68606191874 0 -162131.68606191874 -99977326.242353916 0 0 0 -28686556.704889536 3917740.1972084045 1484574.4563345909 0 1484574.4563345909 -97121156.683929682 0 0 0 -32621195.770352364 -26970000.719268166 -3537928.5741498768 0 -3537928.5741498768 -83497319.7669947 0 0 0 -38663562.170191996 16079272.945696115 -804803.10780745745 0 -804803.10780745745 -99609022.661147594 0 0 0 -29235412.400407791 10958644.110477328 1568460.8473320007 0 1568460.8473320007 -99168658.862299442 0 0 0 -30873505.163137794 5061467.5769724846 2200458.1807385683 0 2200458.1807385683 -99773885.387582541 0 0 0 -33149346.233713329 -12431635.63548249 -9697862.156315133 0 -9697862.156315133 -99036048.42072916 0 0 0 -39013689.419674098 12515683.315020084 36315.174323141575 0 36315.174323141575 -101402656.14109087 0 0 0 -31110440.489124775 18428148.263910413 294167.51535761356 0 294167.51535761356 -100780676.27607393 0 0 0 -28823384.804257512 13001978.48070395 -1626189.6936846673 0 -1626189.6936846673 -99630957.70845747 0 0 0 -30320142.729713678 10984684.301447511 777595.03347548842 0 777595.03347548842 -99809225.847119331 0 0 0 -31088589.540985227 -6946943.6843431294 2190559.6794273555 0 2190559.6794273555 -99604075.964679599 0 0 0 -37292856.877157956 15555766.786841989 -144496.64986419678 0 -144496.64986419678 -100149878.1442976 0 0 0 -29607938.97510922 566536.81696271896 640098.50399914384 0 640098.50399914384 -98997204.829102993 0 0 0 -34450733.804249287 310772.51887404919 -159457.5406832248 0 -159457.5406832248 -92688500.161180973 0 0 0 -32332204.674807429 -33829528.335727431 -11602346.334584638 0 -11602346.334584638 -80028682.773088247 0 0 0 -39850373.888085485 15899133.740430817 -259194.66143083572 0 -259194.66143083572 -99658772.0511439 0 0 0 -29315873.408749595 3468527.7909879684 804658.64517004602 0 804658.64517004602 -97472712.216031551 0 0 0 -32901464.548765182 3428662.5417637825 -1320198.9970450774 0 -1320198.9970450774 -92307070.450928688 0 0 0 -31107442.768207669 -36859217.437436014 -12669570.322748022 0 -12669570.322748022 -88554416.044383913 0 0 0 -43894771.718636975 3685120.9616701603 -1722800.5683914423 0 -1722800.5683914423 -96321114.628542542 0 0 0 -32422597.783405304 6018864.2741810083 -1364853.1769011021 0 -1364853.1769011021 -95504820.421002507 0 0 0 -31320084.651387572 17540723.833811879 175493.40175837278 0 175493.40175837278 -101207426.93350935 0 0 0 -29283346.08489418 18291489.394837022 -368336.45248454809 0 -368336.45248454809 -100797434.29774547 0 0 0 -28877080.716017842 12102728.369104028 1925285.8146538734 0 1925285.8146538734 -99419116.209149599 0 0 0 -30560735.744016051 10396119.334844649 -738518.89613819122 0 -738518.89613819122 -100558832.84280443 0 0 0 -31556949.727785885 -6455670.5880839825 -1926257.6651366651 0 -1926257.6651366651 -96564318.0564726 0 0 0 -36056996.025594801 16197769.276750088 -449956.77741378546 0 -449956.77741378546 -101383906.10187197 0 0 0 -29815147.888792753 16704360.652428508 -439025.57742583752 0 -439025.57742583752 -100040111.04873872 0 0 0 -29167512.638708234 5947291.8622844219 1545677.1608819366 0 1545677.1608819366 -99170144.84936595 0 0 0 -32627998.545478344 5385994.6014233828 -518699.09300866723 0 -518699.09300866723 -98597084.754764199 0 0 0 -32623881.553669333 -18956882.643800408 -9536447.1330618784 0 -9536447.1330618784 -88158607.248466477 0 0 0 -37490421.462293416 17301370.64183414 274503.21036200225 0 274503.21036200225 -101581795.0153265 0 0 0 -29498148.530722499 5699116.3903235197 -1448261.2791917324 0 -1448261.2791917324 -98966379.679142952 0 0 0 -32643542.151086926 -22488645.255162567 10876853.849823534 0 10876853.849823534 -89650296.695272207 0 0 0 -39248629.682652175 15434124.742343426 354908.3674737215 0 354908.3674737215 -100483345.45884848 0 0 0 -29767227.250776768 4863792.1519775987 -625996.41578865051 0 -625996.41578865051 -98065653.689068794 0 0 0 -32620651.537981808 16946817.227508307 -318999.92810103297 0 -318999.92810103297 -99743095.165589333 0 0 0 -28978697.278328657 4119120.2835520059 1301798.4040262103 0 1301798.4040262103 -98327394.614880621 0 0 0 -32972896.015965149 3874211.5955211073 -1177529.6125770807 0 -1177529.6125770807 -95939828.037657052 0 0 0 -32222965.754747495 -27137738.305478565 -9145405.0791770164 0 -9145405.0791770164 -86466464.021884322 0 0 0 -39761470.814576991 15796740.80364728 -248514.12985789776 0 -248514.12985789776 -100305408.59171629 0 0 0 -29578033.725824118 4013701.2246592045 1294920.8242856264 0 1294920.8242856264 -98536872.608220339 0 0 0 -33083109.984246254 3897856.3057691455 -146491.92909240723 0 -146491.92909240723 -95023141.737581015 0 0 0 -31893849.901134193 -30412495.607306659 -9970452.8050599955 0 -9970452.8050599955 -88583469.535879269 0 0 0 -41648587.800115094 18538772.698000908 -315442.76557207108 0 -315442.76557207108 -100185264.70706701 0 0 0 -28576272.203173161 11460340.893560946 1841890.4800150394 0 1841890.4800150394 -99346511.769395709 0 0 0 -30760159.806542099 10281331.663744509 -1266249.1803230643 0 -1266249.1803230643 -99317697.600313187 0 0 0 -31162728.077798903 -9470870.0704591274 -3232041.6883700788 0 -3232041.6883700788 -95973962.456623852 0 0 0 -36905691.384479016 18293303.34762454 374176.84249532223 0 374176.84249532223 -101089403.62975597 0 0 0 -28978635.098746061 18557162.738120079 396044.92460870743 0 396044.92460870743 -100601158.62114406 0 0 0 -28715398.559058428 15012237.434987545 -1083006.2841213346 0 -1083006.2841213346 -100459683.33788109 0 0 0 -29906606.06601274 11577408.34744823 94945.124626398087 0 94945.124626398087 -101181213.33030415 0 0 0 -31361331.7439996 13908635.488476992 -1546164.711653024 0 -1546164.711653024 -100953553.80099106 0 0 0 -30465721.409379959 12215626.662596226 587894.96827471256 0 587894.96827471256 -100988676.71680713 0 0 0 -31070567.518973589 11030661.851518251 -429952.98438996077 0 -429952.98438996077 -101147313.9351123 0 0 0 -31540828.229257904 10082149.794121951 236350.71106594801 0 236350.71106594801 -100539705.33968341 0 0 0 -31660144.44094649 3939718.538902998 1361385.3781096637 0 1361385.3781096637 -96858926.102296054 0 0 0 -32521722.647187591 1930156.3426566124 474193.94301442523 0 474193.94301442523 -100194804.4230845 0 0 0 -34392626.828149796 12503004.466972589 -409275.64755940437 0 -409275.64755940437 -101018356.4101274 0 0 0 -30980373.180104136 11577609.849206924 -54755.819629743695 0 -54755.819629743695 -101345617.42058706 0 0 0 -31418802.649982929 4114844.0297785401 -1135710.5315093994 0 -1135710.5315093994 -93586373.055312514 0 0 0 -31315035.158936918 -35873717.260519668 -1295514.8693938367 0 -1295514.8693938367 -87765538.165260643 0 0 0 -43273739.399023116 3101964.2281861305 -1757414.2601806521 0 -1757414.2601806521 -96490543.230679512 0 0 0 -32686002.650872469 -29508503.063372806 -1020400.7356161596 0 -1020400.7356161596 -84380898.32728374 0 0 0 -39861290.486729786 17633420.239886999 -60699.952356755733 0 -60699.952356755733 -100214219.85255814 0 0 0 -28903279.864434958 3374587.2857957482 1642584.3972099423 0 1642584.3972099423 -96100404.520255208 0 0 0 -32454036.03206104 18063770.810719252 -41817.338494300842 0 -41817.338494300842 -99985181.776865959 0 0 0 -28672493.838151217 3682605.4538733959 1241701.6964003444 0 1241701.6964003444 -96062285.535219908 0 0 0 -32332888.02847147 15972505.001621485 -1101334.1319451332 0 -1101334.1319451332 -99774125.78441751 0 0 0 -29330567.273978472 14817187.330231667 1420625.7274208665 0 1420625.7274208665 -100106121.6493597 0 0 0 -29851127.011694908 2723384.0818575621 3671592.3305836469 0 3671592.3305836469 -100853154.96921921 0 0 0 -34345419.810576558 -1253471.6237363964 -5290371.2029154003 0 -5290371.2029154003 -102079562.28722528 0 0 0 -36166561.868836656 3853435.0052256286 77681.702304303646 0 77681.702304303646 -96584910.354109347 0 0 0 -32456016.372109264 18544204.133847713 138755.13475528359 0 138755.13475528359 -100854513.16060209 0 0 0 -28808608.159363985 18677894.179136515 221879.01269490318 0 221879.01269490318 -100558252.08063984 0 0 0 -28658125.265526056 12723769.586759813 -1661554.2650201321 0 -1661554.2650201321 -100694220.67187051 0 0 0 -30789657.87978863 12270652.865525365 -1657441.8884636164 0 -1657441.8884636164 -99604474.735684156 0 0 0 -30566837.654555678 11939501.238515437 1119404.7914065719 0 1119404.7914065719 -99952949.653322339 0 0 0 -30804706.945182264 11807345.518703377 1185473.3028769493 0 1185473.3028769493 -100626589.23916398 0 0 0 -31086735.302161418 -261241.71281296015 1280303.3022565402 0 1280303.3022565402 -96214090.981533647 0 0 0 -33766366.443021297 -6385113.4738274813 293432.13099057972 0 293432.13099057972 -98632920.211396933 0 0 0 -36756311.789828598 13424270.589013219 -545682.03856873512 0 -545682.03856873512 -101070595.36531758 0 0 0 -30676213.671706557 18737509.770105124 113805.3515329361 0 113805.3515329361 -100477607.70035601 0 0 0 -28609034.275587797 10955105.229688764 1655041.2042860985 0 1655041.2042860985 -99706562.592983484 0 0 0 -31063010.077152967 11464541.507424235 -1716903.1032163501 0 -1716903.1032163501 -100026428.38396096 0 0 0 -30996660.406787992 -6487131.061502099 1372799.9409960359 0 1372799.9409960359 -95975130.124205947 0 0 0 -35861791.414997816 -1976383.2730912566 770462.46029195189 0 770462.46029195189 -99382018.23532474 0 0 0 -35475440.527945518 16522654.646450996 -995215.05032080412 0 -995215.05032080412 -100798938.86115909 0 0 0 -29496699.475147724 15106629.376002431 1631132.1696310639 0 1631132.1696310639 -99474976.269173384 0 0 0 -29528921.412609816 7609978.1044219732 2492458.6739151776 0 2492458.6739151776 -101353625.26353061 0 0 0 -32810276.505687952 736146.60241276026 -3348014.6822654307 0 -3348014.6822654307 -99694370.296026707 0 0 0 -34635378.292764783 13199917.869415879 -156857.28897213936 0 -156857.28897213936 -101402151.85624337 0 0 0 -30870781.895389438 387824.19115996361 -536150.61915928125 0 -536150.61915928125 -99041614.27028513 0 0 0 -34528826.52769351 -32984670.346793495 11821538.234549405 0 11821538.234549405 -78772184.643424243 0 0 0 -39114899.246576205 15814855.93963027 144615.88864147663 0 144615.88864147663 -99987352.538289547 0 0 0 -29460373.809530497 63824.235744953156 556400.73038744926 0 556400.73038744926 -92722814.760219812 0 0 0 -32430646.683566332 15623630.395233154 -938701.17298305035 0 -938701.17298305035 -100686773.52695131 0 0 0 -29772100.096101522 11624370.03161335 1682068.5587580204 0 1682068.5587580204 -99471336.515723944 0 0 0 -30746438.269438863 6182233.2704464793 2737286.5044867396 0 2737286.5044867396 -101311664.23606944 0 0 0 -33295300.837968111 -5358796.7943245769 -7385813.4939896911 0 -7385813.4939896911 -95392931.817384899 0 0 0 -35263105.014098287 18362308.221389771 304762.43191196769 0 304762.43191196769 -100878513.64473772 0 0 0 -28880671.898171902 13191894.294339618 575525.47465980053 0 575525.47465980053 -101062626.1457375 0 0 0 -30754756.14798943 10998952.447685122 -35815.258318156004 0 -35815.258318156004 -101043836.25378168 0 0 0 -31515709.33213377 16518677.935848236 849243.77291134 0 849243.77291134 -100875065.88748026 0 0 0 -29524735.78307128 16658837.250062585 -317026.39097559452 0 -317026.39097559452 -100288249.5609901 0 0 0 -29270294.308824778 6903490.831223011 1699006.4895681143 0 1699006.4895681143 -96990744.434869766 0 0 0 -31530538.761276007 6071444.7286324501 -686581.54929688573 0 -686581.54929688573 -95073048.455780029 0 0 0 -31150561.304501653 -30965089.899868459 -8245686.6541482583 0 -8245686.6541482583 -94283620.438264966 0 0 0 -43837048.618346706 16815908.90104568 874934.2547314316 0 874934.2547314316 -101399180.04747415 0 0 0 -29604144.901249886 
</DataArray>
</CellData>
</Piece>
</UnstructuredGrid>
</VTKFile>
