<?xml version="1.0"?>
<VTKFile type="UnstructuredGrid" version="0.1" byte_order="LittleEndian">
<UnstructuredGrid>
<Piece NumberOfPoints="84" NumberOfCells="28">
<Points>
<DataArray type="Float64" NumberOfComponents="3" format="ascii">
0 1 0 0.29166666666684449 0.7083333333334445 0 0.33333333333472032 1 0 0 0 0 0.29166666666652658 0.2916666666668038 0 0 0.33333333333472032 0 0 1 0 0 0.66666666666759111 0 0.29166666666684449 0.7083333333334445 0 0 0 0 0.33333333333250248 0 0 0.29166666666652658 0.2916666666668038 0 1 1 0 0.66666666666759111 1 0 0.70833333333346027 0.70833333333323512 0 1 1 0 0.70833333333346027 0.70833333333323512 0 1 0.66666666666578889 0 1 0 0 1 0.33333333333250248 0 0.70833333333327586 0.2916666666665107 0 1 0 0 0.70833333333327586 0.2916666666665107 0 0.66666666666578889 0 0 0.50000000000004996 0.49999999999997519 0 0.29166666666652658 0.2916666666668038 0 0.49999999999981742 0.1726190476194705 0 0.50000000000004996 0.49999999999997519 0 0.29166666666684449 0.7083333333334445 0 0.17261904761971569 0.50000000000021494 0 0.50000000000004996 0.49999999999997519 0 0.17261904761971569 0.50000000000021494 0 0.29166666666652658 0.2916666666668038 0 0.50000000000004996 0.49999999999997519 0 0.50000000000021227 0.82738095238030207 0 0.29166666666684449 0.7083333333334445 0 0.50000000000004996 0.49999999999997519 0 0.49999999999981742 0.1726190476194705 0 0.70833333333327586 0.2916666666665107 0 0.50000000000004996 0.49999999999997519 0 0.82738095238054699 0.49999999999982031 0 0.70833333333346027 0.70833333333323512 0 0.50000000000004996 0.49999999999997519 0 0.70833333333327586 0.2916666666665107 0 0.82738095238054699 0.49999999999982031 0 0.50000000000004996 0.49999999999997519 0 0.70833333333346027 0.70833333333323512 0 0.50000000000021227 0.82738095238030207 0 0.33333333333250248 0 0 0.66666666666578889 0 0 0.49999999999981742 0.1726190476194705 0 1 0.33333333333250248 0 1 0.66666666666578889 0 0.82738095238054699 0.49999999999982031 0 0 0.66666666666759111 0 0 0.33333333333472032 0 0.17261904761971569 0.50000000000021494 0 0.66666666666759111 1 0 0.33333333333472032 1 0 0.50000000000021227 0.82738095238030207 0 0 0.66666666666759111 0 0.17261904761971569 0.50000000000021494 0 0.29166666666684449 0.7083333333334445 0 0.66666666666759111 1 0 0.50000000000021227 0.82738095238030207 0 0.70833333333346027 0.70833333333323512 0 0.33333333333250248 0 0 0.49999999999981742 0.1726190476194705 0 0.29166666666652658 0.2916666666668038 0 1 0.33333333333250248 0 0.82738095238054699 0.49999999999982031 0 0.70833333333327586 0.2916666666665107 0 0 0.33333333333472032 0 0.29166666666652658 0.2916666666668038 0 0.17261904761971569 0.50000000000021494 0 0.33333333333472032 1 0 0.29166666666684449 0.7083333333334445 0 0.50000000000021227 0.82738095238030207 0 0.66666666666578889 0 0 0.70833333333327586 0.2916666666665107 0 0.49999999999981742 0.1726190476194705 0 1 0.66666666666578889 0 0.70833333333346027 0.70833333333323512 0 0.82738095238054699 0.49999999999982031 0 
</DataArray>
</Points>
<Cells>
<DataArray type="UInt32" Name="connectivity" format="ascii">
0 1 2 3 4 5 6 7 8 9 10 11 12 13 14 15 16 17 18 19 20 21 22 23 24 25 26 27 28 29 30 31 32 33 34 35 36 37 38 39 40 41 42 43 44 45 46 47 48 49 50 51 52 53 54 55 56 57 58 59 60 61 62 63 64 65 66 67 68 69 70 71 72 73 74 75 76 77 78 79 80 81 82 83 
</DataArray>
<DataArray type="UInt32" Name="offsets" format="ascii">
3 6 9 12 15 18 21 24 27 30 33 36 39 42 45 48 51 54 57 60 63 66 69 72 75 78 81 84 
</DataArray>
<DataArray type="UInt32" Name="types" format="ascii">
5 5 5 5 5 5 5 5 5 5 5 5 5 5 5 5 5 5 5 5 5 5 5 5 5 5 5 5 
</DataArray>
</Cells>
<PointData Scalars="" Vectors="displacement," Tensors="">
<DataArray type="Float64" Name="displacement" NumberOfComponents="3" format="ascii">
1.4582632553207878e-05 -0.87706223726925392 0 0.097388538639091249 -0.62588303034052473 0 0.11765600982056573 -0.88482839073814601 0 -4.2685164826552496e-06 -0.00030357035780975575 0 0.094052835523148748 -0.25817191159351577 0 -1.967576019271203e-06 -0.29345196363421322 0 1.4582632553207878e-05 -0.87706223726925392 0 -3.1894820161120245e-06 -0.58571092160533977 0 0.097388538639091249 -0.62588303034052473 0 -4.2685164826552496e-06 -0.00030357035780975575 0 0.10710361690699179 -0.00030412621590226752 0 0.094052835523148762 -0.25817191159351577 0 0.31896118382005556 -0.92736503820529925 0 0.22762476109673277 -0.90567765365269515 0 0.22722489584687275 -0.64158675834765844 0 0.31896118382005556 -0.92736503820529925 0 0.22722489584687275 -0.64158675834765844 0 0.30276332403192974 -0.61576733798252081 0 0.29768674574419995 -0.00029014789041802711 0 0.29709302905791124 -0.30626440046514675 0 0.22146002339384022 -0.26452007213481998 0 0.29768674574419995 -0.00029014789041802711 0 0.22146002339384022 -0.26452007213481998 0 0.20850505779120035 -0.00029901465998395909 0 0.16094003228471079 -0.44686037082985897 0 0.094052835523148762 -0.25817191159351571 0 0.15892482403391581 -0.15455080748023747 0 0.16094003228471079 -0.44686037082985897 0 0.097388538639091249 -0.62588303034052473 0 0.056578277076440073 -0.44052106564938603 0 0.16094003228471079 -0.44686037082985897 0 0.056578277076440073 -0.44052106564938603 0 0.094052835523148762 -0.25817191159351577 0 0.16094003228471079 -0.44686037082985897 0 0.16711680790032774 -0.73955147514141883 0 0.097388538639091249 -0.62588303034052473 0 0.16094003228471079 -0.44686037082985897 0 0.15892482403391581 -0.15455080748023747 0 0.22146002339384022 -0.26452007213481998 0 0.16094003228471079 -0.44686037082985897 0 0.25613809879727556 -0.45619076283088278 0 0.22722489584687275 -0.64158675834765844 0 0.16094003228471079 -0.44686037082985897 0 0.22146002339384022 -0.26452007213481998 0 0.25613809879727556 -0.45619076283088278 0 0.16094003228471079 -0.44686037082985897 0 0.22722489584687275 -0.64158675834765844 0 0.16711680790032776 -0.73955147514141872 0 0.10710361690699179 -0.00030412621590222545 0 0.20850505779120035 -0.00029901465998395909 0 0.15892482403391581 -0.15455080748023747 0 0.29709302905791124 -0.30626440046514675 0 0.30276332403192974 -0.61576733798252081 0 0.25613809879727556 -0.45619076283088278 0 -3.1894820161120245e-06 -0.58571092160533977 0 -1.967576019271203e-06 -0.29345196363421322 0 0.056578277076440073 -0.44052106564938603 0 0.22762476109673277 -0.90567765365269515 0 0.11765600982056573 -0.88482839073814601 0 0.16711680790032776 -0.73955147514141872 0 -3.1894820161120245e-06 -0.58571092160533977 0 0.056578277076440073 -0.44052106564938603 0 0.097388538639091249 -0.62588303034052473 0 0.22762476109673277 -0.90567765365269515 0 0.16711680790032776 -0.73955147514141872 0 0.22722489584687275 -0.64158675834765844 0 0.10710361690699179 -0.00030412621590222545 0 0.15892482403391581 -0.15455080748023747 0 0.094052835523148762 -0.25817191159351577 0 0.29709302905791124 -0.30626440046514675 0 0.25613809879727556 -0.45619076283088278 0 0.22146002339384022 -0.26452007213481998 0 -1.967576019271203e-06 -0.29345196363421322 0 0.094052835523148762 -0.25817191159351577 0 0.056578277076440073 -0.44052106564938603 0 0.11765600982056573 -0.88482839073814601 0 0.097388538639091249 -0.62588303034052473 0 0.16711680790032776 -0.73955147514141872 0 0.20850505779120035 -0.00029901465998395909 0 0.22146002339384022 -0.26452007213481998 0 0.15892482403391581 -0.15455080748023747 0 0.30276332403192974 -0.61576733798252081 0 0.22722489584687275 -0.64158675834765844 0 0.25613809879727556 -0.45619076283088278 0 
</DataArray>
</PointData>
<CellData Scalars="displacement_divergence," Vectors="" Tensors="stress,">
<DataArray type="Float64" Name="stress" NumberOfComponents="9" format="ascii">
0.14644800375452049 -0.0017615592894897336 0 -0.0017615592894897336 -0.88472582482595552 0 0 0 -0.14765556421428705 0.11401477976314167 -0.0019449768527071143 0 -0.0019449768527071143 -0.88758503404416378 0 0 0 -0.15471405085620443 0.12821488116216709 -0.0053394909679356228 0 -0.0053394909679356228 -0.87841914116171538 0 0 0 -0.1500408519999096 0.11143785154603919 0.00048173988295938233 0 0.00048173988295938233 -0.89309716161261121 0 0 0 -0.15633186201331439 0.050357772531941292 -0.010227919133566472 0 -0.010227919133566472 -0.9402741939169359 0 0 0 -0.17798328427699894 0.03581395708604096 0.0014897645017588612 0 0.0014897645017588612 -0.96478932392210881 0 0 0 -0.18579507336721357 0.033429914281723629 -0.0057386412278757071 0 -0.0057386412278757071 -0.94781206072797963 0 0 0 -0.18287642928925121 0.045632135250955663 0.0025928757595655308 0 0.0025928757595655308 -0.93224255840573644 0 0 0 -0.17732208463095617 0.10187198582251229 -0.002781754617480009 0 -0.002781754617480009 -0.90460788693079353 0 0 0 -0.16054718022165626 0.11012178847955628 -0.0023471418014281431 0 -0.0023471418014281431 -0.88775336691686157 0 0 0 -0.15552631568746106 0.10799166430311274 -0.0071178651541163552 0 -0.0071178651541163552 -0.89627386362259998 0 0 0 -0.15765643986389749 0.11156093423764074 -0.0066092811381495142 0 -0.0066092811381495142 -0.90339964379731419 0 0 0 -0.15836774191193465 0.081592545014959689 -0.0047849454637998168 0 -0.0047849454637998168 -0.90967774713267779 0 0 0 -0.16561704042354367 0.071377981050591344 -0.00046649280247133595 0 -0.00046649280247133595 -0.9260998314138349 0 0 0 -0.17094437007264862 0.072059373660992965 -0.0117538510218409 0 -0.0117538510218409 -0.92337426097217423 0 0 0 -0.17026297746223626 0.084211702947047273 -0.0090754733095699258 0 -0.0090754733095699258 -0.91023695161995977 0 0 0 -0.1652050497345825 0.089787639891451887 0.0027110124767213951 0 0.0027110124767213951 -0.90836745148697784 0 0 0 -0.16371596231910518 0.023948052512841544 -0.0045589398186698382 0 -0.0045589398186698382 -0.96120966661371954 0 0 0 -0.1874523228201756 0.12064947914939825 -0.002269582973190909 0 -0.002269582973190909 -0.88314687387368818 0 0 0 -0.15249947894485796 0.1160082906053197 -0.012728805227386021 0 -0.012728805227386021 -0.91057622853271614 0 0 0 -0.15891358758547924 0.12482549683069655 -0.0025165243893777722 0 -0.0025165243893777722 -0.88871519192038639 0 0 0 -0.1527779390179379 0.096466552277911344 -0.0020797726141073003 0 -0.0020797726141073003 -0.92670873060962133 0 0 0 -0.16604843566634198 0.099876221569511453 -0.003670890437923402 0 -0.003670890437923402 -0.89725591787621151 0 0 0 -0.15947593926134002 0.031426886049823327 0.0029870633235993815 0 0.0029870633235993815 -0.94291853154193472 0 0 0 -0.18229832909842228 0.11522599376098974 0.00014224182569985699 0 0.00014224182569985699 -0.88558322466443351 0 0 0 -0.15407144618068869 0.11193880238249321 -0.0075370213695051813 0 -0.0075370213695051813 -0.8906162438829841 0 0 0 -0.1557354883000982 0.081260730883209412 -0.0039286852460518329 0 -0.0039286852460518329 -0.92167950161676893 0 0 0 -0.16808375414671189 0.035490218970952392 -0.013336472743851913 0 -0.013336472743851913 -0.94312915337157976 0 0 0 -0.1815277868801255 
</DataArray>
<DataArray type="Float64" Name="displacement_divergence" format="ascii">
-0.53156003117143324 -0.55697058308233593 -0.54014706719967431 -0.56279470324793179 -0.64073982339719615 -0.66886226412196859 -0.65835514544130425 -0.63835950467144187 -0.57796984879796276 -0.55989473647485943 -0.56756318351003054 -0.57012387088296446 -0.59622134552475692 -0.61539973226153544 -0.61294671886405039 -0.59473817904449633 -0.58937746434877869 -0.67482836215263187 -0.54899812420148886 -0.57208891530772554 -0.55000058046457667 -0.59777436839883125 -0.57411338134082424 -0.65627398475432042 -0.55465720625047954 -0.56064775788035348 -0.60510151492816289 -0.65350003276845214 
</DataArray>
</CellData>
</Piece>
</UnstructuredGrid>
</VTKFile>
