<?xml version="1.0"?>
<VTKFile type="UnstructuredGrid" version="0.1" byte_order="LittleEndian">
<UnstructuredGrid>
<Piece NumberOfPoints="84" NumberOfCells="28">
<Points>
<DataArray type="Float64" NumberOfComponents="3" format="ascii">
0 0 0 0.29166666666652658 0.2916666666668038 0 0 0.33333333333472032 0 0 0 0 0.33333333333250248 0 0 0.29166666666652658 0.2916666666668038 0 0.33333333333250248 0 0 0.66666666666578889 0 0 0.49999999999981742 0.1726190476194705 0 0.33333333333250248 0 0 0.49999999999981742 0.1726190476194705 0 0.29166666666652658 0.2916666666668038 0 0.50000000000004996 0.49999999999997519 0 0.17261904761971569 0.50000000000021494 0 0.29166666666652658 0.2916666666668038 0 0.50000000000004996 0.49999999999997519 0 0.29166666666652658 0.2916666666668038 0 0.49999999999981742 0.1726190476194705 0 0 0.33333333333472032 0 0.29166666666652658 0.2916666666668038 0 0.17261904761971569 0.50000000000021494 0 0 0.66666666666759111 0 0 0.33333333333472032 0 0.17261904761971569 0.50000000000021494 0 0 0.66666666666759111 0 0.17261904761971569 0.50000000000021494 0 0.29166666666684449 0.7083333333334445 0 0 1 0 0.29166666666684449 0.7083333333334445 0 0.33333333333472032 1 0 0 1 0 0 0.66666666666759111 0 0.29166666666684449 0.7083333333334445 0 0.33333333333472032 1 0 0.29166666666684449 0.7083333333334445 0 0.50000000000021227 0.82738095238030207 0 0.50000000000004996 0.49999999999997519 0 0.29166666666684449 0.7083333333334445 0 0.17261904761971569 0.50000000000021494 0 0.50000000000004996 0.49999999999997519 0 0.50000000000021227 0.82738095238030207 0 0.29166666666684449 0.7083333333334445 0 0.50000000000004996 0.49999999999997519 0 0.82738095238054699 0.49999999999982031 0 0.70833333333346027 0.70833333333323512 0 0.50000000000004996 0.49999999999997519 0 0.70833333333346027 0.70833333333323512 0 0.50000000000021227 0.82738095238030207 0 0.66666666666759111 1 0 0.50000000000021227 0.82738095238030207 0 0.70833333333346027 0.70833333333323512 0 0.66666666666759111 1 0 0.33333333333472032 1 0 0.50000000000021227 0.82738095238030207 0 1 1 0 0.70833333333346027 0.70833333333323512 0 1 0.66666666666578889 0 1 1 0 0.66666666666759111 1 0 0.70833333333346027 0.70833333333323512 0 1 0.66666666666578889 0 0.70833333333346027 0.70833333333323512 0 0.82738095238054699 0.49999999999982031 0 1 0.33333333333250248 0 1 0.66666666666578889 0 0.82738095238054699 0.49999999999982031 0 1 0.33333333333250248 0 0.82738095238054699 0.49999999999982031 0 0.70833333333327586 0.2916666666665107 0 1 0 0 0.70833333333327586 0.2916666666665107 0 0.66666666666578889 0 0 1 0 0 1 0.33333333333250248 0 0.70833333333327586 0.2916666666665107 0 0.66666666666578889 0 0 0.70833333333327586 0.2916666666665107 0 0.49999999999981742 0.1726190476194705 0 0.50000000000004996 0.49999999999997519 0 0.70833333333327586 0.2916666666665107 0 0.82738095238054699 0.49999999999982031 0 0.50000000000004996 0.49999999999997519 0 0.49999999999981742 0.1726190476194705 0 0.70833333333327586 0.2916666666665107 0 
</DataArray>
</Points>
<Cells>
<DataArray type="UInt32" Name="connectivity" format="ascii">
0 1 2 3 4 5 6 7 8 9 10 11 12 13 14 15 16 17 18 19 20 21 22 23 24 25 26 27 28 29 30 31 32 33 34 35 36 37 38 39 40 41 42 43 44 45 46 47 48 49 50 51 52 53 54 55 56 57 58 59 60 61 62 63 64 65 66 67 68 69 70 71 72 73 74 75 76 77 78 79 80 81 82 83 
</DataArray>
<DataArray type="UInt32" Name="offsets" format="ascii">
3 6 9 12 15 18 21 24 27 30 33 36 39 42 45 48 51 54 57 60 63 66 69 72 75 78 81 84 
</DataArray>
<DataArray type="UInt32" Name="types" format="ascii">
5 5 5 5 5 5 5 5 5 5 5 5 5 5 5 5 5 5 5 5 5 5 5 5 5 5 5 5 
</DataArray>
</Cells>
<PointData Scalars="" Vectors="displacement," Tensors="">
<DataArray type="Float64" Name="displacement" NumberOfComponents="3" format="ascii">
-7.6961285771426682e-09 -0.0003000083661834947 0 0.070043622263916763 -0.2802617660321518 0 -3.6928139601051016e-09 -0.32025308242833928 0 -7.6961285771426682e-09 -0.0003000083661834947 0 0.080048738859871266 -0.00030000804084766102 0 0.070043622263916777 -0.2802617660321518 0 0.080048738859871266 -0.00030000804084761537 0 0.1600836917780285 -0.00029999539636298871 0 0.12006866173998856 -0.16599493803483409 0 0.080048738859871266 -0.00030000804084761537 0 0.12006866173998856 -0.16599493803483409 0 0.070043622263916777 -0.2802617660321518 0 0.12007314276328399 -0.48024324997687795 0 0.041456472842472711 -0.48023035447353107 0 0.070043622263916777 -0.2802617660321518 0 0.12007314276328399 -0.48024324997687795 0 0.070043622263916777 -0.28026176603215175 0 0.12006866173998856 -0.16599493803483409 0 -3.6928139601051016e-09 -0.32025308242833928 0 0.070043622263916777 -0.2802617660321518 0 0.041456472842472711 -0.48023035447353107 0 -7.4390455640994731e-09 -0.64020326278447137 0 -3.6928139601051016e-09 -0.32025308242833928 0 0.041456472842472711 -0.48023035447353107 0 -7.4390455640994731e-09 -0.64020326278447137 0 0.041456472842472711 -0.48023035447353107 0 0.070050552340440886 -0.68020481227459906 0 2.9959847397836895e-08 -0.96015023831976376 0 0.070050552340440886 -0.68020481227459906 0 0.080071037017714883 -0.96016751658958188 0 2.9959847397836895e-08 -0.96015023831976376 0 -7.4390455640994731e-09 -0.64020326278447137 0 0.070050552340440886 -0.68020481227459906 0 0.080071037017714883 -0.96016751658958188 0 0.070050552340440886 -0.68020481227459906 0 0.12008584983331461 -0.79449199114056024 0 0.12007314276328399 -0.48024324997687795 0 0.070050552340440886 -0.68020481227459906 0 0.041456472842472711 -0.48023035447353107 0 0.12007314276328399 -0.48024324997687795 0 0.12008584983331459 -0.79449199114056024 0 0.070050552340440886 -0.68020481227459906 0 0.12007314276328399 -0.48024324997687795 0 0.19866986929618685 -0.48026175031635049 0 0.17010077846717217 -0.68023685419285429 0 0.12007314276328399 -0.48024324997687795 0 0.17010077846717217 -0.68023685419285429 0 0.12008584983331461 -0.79449199114056024 0 0.16012292127752245 -0.96021089671349202 0 0.12008584983331461 -0.79449199114056024 0 0.17010077846717217 -0.68023685419285429 0 0.16012292127752245 -0.96021089671349202 0 0.080071037017714883 -0.96016751658958188 0 0.12008584983331461 -0.79449199114056024 0 0.24013886169401932 -0.96025191513293184 0 0.17010077846717217 -0.68023685419285429 0 0.24010757562207954 -0.64026381301121638 0 0.24013886169401932 -0.96025191513293184 0 0.16012292127752245 -0.96021089671349202 0 0.17010077846717217 -0.68023685419285429 0 0.24010757562207954 -0.64026381301121638 0 0.17010077846717217 -0.68023685419285429 0 0.19866986929618685 -0.48026175031635049 0 0.24009573170327533 -0.32027849211511983 0 0.24010757562207954 -0.64026381301121638 0 0.19866986929618685 -0.48026175031635049 0 0.24009573170327533 -0.32027849211511983 0 0.19866986929618685 -0.48026175031635049 0 0.17008836427337268 -0.2802742291240925 0 0.24009554359642848 -0.0002999847593954114 0 0.17008836427337268 -0.2802742291240925 0 0.1600836917780285 -0.00029999539636298871 0 0.24009554359642848 -0.0002999847593954114 0 0.24009573170327533 -0.32027849211511983 0 0.17008836427337268 -0.2802742291240925 0 0.1600836917780285 -0.00029999539636298871 0 0.17008836427337268 -0.2802742291240925 0 0.12006866173998856 -0.16599493803483409 0 0.12007314276328399 -0.48024324997687795 0 0.17008836427337268 -0.2802742291240925 0 0.19866986929618685 -0.48026175031635049 0 0.12007314276328399 -0.48024324997687795 0 0.12006866173998856 -0.16599493803483409 0 0.17008836427337268 -0.2802742291240925 0 
</DataArray>
</PointData>
<CellData Scalars="displacement_divergence," Vectors="" Tensors="stress,">
<DataArray type="Float64" Name="stress" NumberOfComponents="9" format="ascii">
0.00020530097666027203 -4.0205138787108297e-06 0 -4.0205138787108297e-06 -0.9998020311959116 0 0 0 -0.19991934604385025 0.00019890952018319918 1.3957258191166989e-06 0 1.3957258191166989e-06 -0.99981369387175989 0 0 0 -0.19992295687031533 0.0001476466902720075 5.9209594476397967e-06 0 5.9209594476397967e-06 -0.99984632471601809 0 0 0 -0.19993973560514922 0.00016902743450505908 -7.3063321369137846e-06 0 -7.3063321369137846e-06 -0.9998237135533623 0 0 0 -0.19993093722377145 0.00018917611129859457 -1.4951359858222635e-05 0 -1.4951359858222635e-05 -0.99981909454883811 0 0 0 -0.19992598368750797 0.00017396966328803165 -4.8677515828154938e-06 0 -4.8677515828154938e-06 -0.99983750012841222 0 0 0 -0.19993270609302485 0.00020838353828078748 8.0676490935016609e-07 0 8.0676490935016609e-07 -0.99979618252922631 0 0 0 -0.19991755979818904 0.00022114750303187103 -5.2712607898630637e-06 0 -5.2712607898630637e-06 -0.99978902673854253 0 0 0 -0.19991357584710212 0.00022893928108669304 -5.9701225013641945e-06 0 -5.9701225013641945e-06 -0.99980025878406709 0 0 0 -0.19991426390059597 0.00027426682857900619 -5.0138447127423547e-06 0 -5.0138447127423547e-06 -0.9997905209048632 0 0 0 -0.19990325081525684 0.00023677792778206762 -1.1635464077675017e-05 0 -1.1635464077675017e-05 -0.99977510406861614 0 0 0 -0.19990766522816675 0.00019541142167864289 -1.5457640966998198e-05 0 -1.5457640966998198e-05 -0.9998049692513904 0 0 0 -0.19992191156594233 0.00019385502888935591 -4.013405442315765e-06 0 -4.013405442315765e-06 -0.9998003788784755 0 0 0 -0.19992130476991726 0.00019498041408928926 -1.364607028020437e-05 0 -1.364607028020437e-05 -0.9998336131464679 0 0 0 -0.19992772654647575 0.00011008471820306287 -4.7188470311097648e-07 0 -4.7188470311097648e-07 -0.99988163518370632 0 0 0 -0.19995431009310072 0.00013563452854792324 -1.8092497562571808e-05 0 -1.8092497562571808e-05 -0.99984844961785369 0 0 0 -0.19994256301786117 0.00015976022137531576 -4.4284957599893815e-06 0 -4.4284957599893815e-06 -0.99988289656480811 0 0 0 -0.19994462726868656 0.00020041682674798444 -2.7361293321555244e-05 0 -2.7361293321555244e-05 -0.99984688594199067 0 0 0 -0.19992929382304836 5.070695234077327e-05 2.7196124681161393e-06 0 2.7196124681161393e-06 -0.99995014238964286 0 0 0 -0.1999798870874604 7.2972986230879222e-05 -1.6793935373364125e-05 0 -1.6793935373364125e-05 -0.99990736326406138 0 0 0 -0.19996687805556612 5.0304952540658476e-05 -2.3057481469634933e-05 0 -2.3057481469634933e-05 -0.99991178668709324 0 0 0 -0.19997229634691061 3.2913565632123735e-05 -7.8901815832033151e-06 0 -7.8901815832033151e-06 -0.99994589940903444 0 0 0 -0.19998259716868044 4.2845065334751187e-05 4.8818294018926345e-06 0 4.8818294018926345e-06 -0.99991187524347258 0 0 0 -0.19997380603562759 6.4044101106932423e-05 4.5718931716965229e-06 0 4.5718931716965229e-06 -0.99989197132293817 0 0 0 -0.19996558544436627 4.5887361119413428e-05 -9.6928265983509121e-06 0 -9.6928265983509121e-06 -0.99992136364885131 0 0 0 -0.19997509525754639 0.00012873345417917931 -7.7764109613354115e-06 0 -7.7764109613354115e-06 -0.9998726102861295 0 0 0 -0.19994877536639008 0.00011146802033173975 -2.1791501367718347e-05 0 -2.1791501367718347e-05 -0.99987610197519161 0 0 0 -0.19995292679097199 0.00012812503011269197 -8.652191887725813e-06 0 -8.652191887725813e-06 -0.99984896128670586 0 0 0 -0.19994416725131867 
</DataArray>
<DataArray type="Float64" Name="displacement_divergence" format="ascii">
-0.71970964575786089 -0.7197226447331353 -0.71978304817853711 -0.7197513740055772 -0.71973354127502831 -0.71975774193488928 -0.7197032152734808 -0.71968887304956752 -0.71969135004214602 -0.71965170293492431 -0.71966759482140052 -0.71971888163739195 -0.71971669717170172 -0.7197398155673127 -0.71983551633516241 -0.71979322686429992 -0.71980065816727157 -0.71974545776297472 -0.71992759351485724 -0.71988076100003839 -0.71990026684887809 -0.71993734980724966 -0.71990570172825874 -0.71987610759971843 -0.71991034292716705 -0.7198155913190043 -0.71983053644749917 -0.71979900210474701 
</DataArray>
</CellData>
</Piece>
</UnstructuredGrid>
</VTKFile>
