<?xml version="1.0"?>
<VTKFile type="UnstructuredGrid" version="0.1" byte_order="LittleEndian">
<UnstructuredGrid>
<Piece NumberOfPoints="84" NumberOfCells="28">
<Points>
<DataArray type="Float64" NumberOfComponents="3" format="ascii">
0 1 0 0.29166666666684449 0.7083333333334445 0 0.33333333333472032 1 0 0 0 0 0.29166666666652658 0.2916666666668038 0 0 0.33333333333472032 0 0 1 0 0 0.66666666666759111 0 0.29166666666684449 0.7083333333334445 0 0 0 0 0.33333333333250248 0 0 0.29166666666652658 0.2916666666668038 0 1 1 0 0.66666666666759111 1 0 0.70833333333346027 0.70833333333323512 0 1 1 0 0.70833333333346027 0.70833333333323512 0 1 0.66666666666578889 0 1 0 0 1 0.33333333333250248 0 0.70833333333327586 0.2916666666665107 0 1 0 0 0.70833333333327586 0.2916666666665107 0 0.66666666666578889 0 0 0.50000000000004996 0.49999999999997519 0 0.29166666666652658 0.2916666666668038 0 0.49999999999981742 0.1726190476194705 0 0.50000000000004996 0.49999999999997519 0 0.29166666666684449 0.7083333333334445 0 0.17261904761971569 0.50000000000021494 0 0.50000000000004996 0.49999999999997519 0 0.17261904761971569 0.50000000000021494 0 0.29166666666652658 0.2916666666668038 0 0.50000000000004996 0.49999999999997519 0 0.50000000000021227 0.82738095238030207 0 0.29166666666684449 0.7083333333334445 0 0.50000000000004996 0.49999999999997519 0 0.49999999999981742 0.1726190476194705 0 0.70833333333327586 0.2916666666665107 0 0.50000000000004996 0.49999999999997519 0 0.82738095238054699 0.49999999999982031 0 0.70833333333346027 0.70833333333323512 0 0.50000000000004996 0.49999999999997519 0 0.70833333333327586 0.2916666666665107 0 0.82738095238054699 0.49999999999982031 0 0.50000000000004996 0.49999999999997519 0 0.70833333333346027 0.70833333333323512 0 0.50000000000021227 0.82738095238030207 0 0.33333333333250248 0 0 0.66666666666578889 0 0 0.49999999999981742 0.1726190476194705 0 1 0.33333333333250248 0 1 0.66666666666578889 0 0.82738095238054699 0.49999999999982031 0 0 0.66666666666759111 0 0 0.33333333333472032 0 0.17261904761971569 0.50000000000021494 0 0.66666666666759111 1 0 0.33333333333472032 1 0 0.50000000000021227 0.82738095238030207 0 0 0.66666666666759111 0 0.17261904761971569 0.50000000000021494 0 0.29166666666684449 0.7083333333334445 0 0.66666666666759111 1 0 0.50000000000021227 0.82738095238030207 0 0.70833333333346027 0.70833333333323512 0 0.33333333333250248 0 0 0.49999999999981742 0.1726190476194705 0 0.29166666666652658 0.2916666666668038 0 1 0.33333333333250248 0 0.82738095238054699 0.49999999999982031 0 0.70833333333327586 0.2916666666665107 0 0 0.33333333333472032 0 0.29166666666652658 0.2916666666668038 0 0.17261904761971569 0.50000000000021494 0 0.33333333333472032 1 0 0.29166666666684449 0.7083333333334445 0 0.50000000000021227 0.82738095238030207 0 0.66666666666578889 0 0 0.70833333333327586 0.2916666666665107 0 0.49999999999981742 0.1726190476194705 0 1 0.66666666666578889 0 0.70833333333346027 0.70833333333323512 0 0.82738095238054699 0.49999999999982031 0 
</DataArray>
</Points>
<Cells>
<DataArray type="UInt32" Name="connectivity" format="ascii">
0 1 2 3 4 5 6 7 8 9 10 11 12 13 14 15 16 17 18 19 20 21 22 23 24 25 26 27 28 29 30 31 32 33 34 35 36 37 38 39 40 41 42 43 44 45 46 47 48 49 50 51 52 53 54 55 56 57 58 59 60 61 62 63 64 65 66 67 68 69 70 71 72 73 74 75 76 77 78 79 80 81 82 83 
</DataArray>
<DataArray type="UInt32" Name="offsets" format="ascii">
3 6 9 12 15 18 21 24 27 30 33 36 39 42 45 48 51 54 57 60 63 66 69 72 75 78 81 84 
</DataArray>
<DataArray type="UInt32" Name="types" format="ascii">
5 5 5 5 5 5 5 5 5 5 5 5 5 5 5 5 5 5 5 5 5 5 5 5 5 5 5 5 
</DataArray>
</Cells>
<PointData Scalars="" Vectors="displacement," Tensors="">
<DataArray type="Float64" Name="displacement" NumberOfComponents="3" format="ascii">
-0.0011779200028712736 -0.0032954095595480941 0 -0.00051540248065332084 -0.0021979603151696921 0 -0.00041579018104122219 -0.003242944847380011 0 -1.1666005206310482e-06 -1.1361484897587967e-06 0 -0.00036304723970252836 -0.00069208268666864198 0 -0.00096660692255536701 -0.001132200072558787 0 -0.0011779200028712736 -0.0032954095595480941 0 -0.001125889354657143 -0.0021409143972805729 0 -0.00051540248065332084 -0.0021979603151696921 0 -1.1666005206310482e-06 -1.1361484897587967e-06 0 4.0017939844621904e-07 -7.568934462680268e-07 0 -0.00036304723970252819 -0.00069208268666864177 0 0.0011779200043859244 -0.0032954095601441715 0 0.00041579018235437534 -0.0032429448474654405 0 0.00051540248156709651 -0.0021979603152299993 0 0.0011779200043859244 -0.0032954095601441715 0 0.00051540248156709651 -0.0021979603152299993 0 0.0011258893557761921 -0.0021409143977316725 0 1.1666005213294781e-06 -1.1361484901991164e-06 0 0.00096660692293523839 -0.0011322000729566133 0 0.00036304723968521538 -0.00069208268673571691 0 1.1666005213294781e-06 -1.1361484901991164e-06 0 0.00036304723968521538 -0.00069208268673571691 0 -4.0017939876404718e-07 -7.5689344654833276e-07 0 9.0801145841102459e-14 -0.0013820297223212966 0 -0.00036304723970252814 -0.00069208268666864155 0 -8.0635081037560665e-14 -0.00034219773774434411 0 9.0801145841102459e-14 -0.0013820297223212966 0 -0.00051540248065332084 -0.0021979603151696921 0 -0.00075138637898675283 -0.0015077678017483664 0 9.0801145841102459e-14 -0.0013820297223212966 0 -0.00075138637898675283 -0.0015077678017483664 0 -0.00036304723970252819 -0.00069208268666864177 0 9.0801145841102459e-14 -0.0013820297223212966 0 4.7500015290898972e-13 -0.0026028375968617876 0 -0.00051540248065332084 -0.0021979603151696921 0 9.0801145841102459e-14 -0.0013820297223212966 0 -8.0635081037560665e-14 -0.00034219773774434411 0 0.00036304723968521538 -0.00069208268673571691 0 9.0801145841102459e-14 -0.0013820297223212966 0 0.00075138637961667928 -0.0015077678019371561 0 0.00051540248156709651 -0.0021979603152299993 0 9.0801145841102459e-14 -0.0013820297223212966 0 0.00036304723968521538 -0.00069208268673571691 0 0.00075138637961667928 -0.0015077678019371561 0 9.0801145841102459e-14 -0.0013820297223212966 0 0.00051540248156709651 -0.0021979603152299993 0 4.7500031770595971e-13 -0.0026028375968617872 0 4.0017939844627827e-07 -7.5689344626791414e-07 0 -4.0017939876404718e-07 -7.5689344654833276e-07 0 -8.0635081037560665e-14 -0.00034219773774434411 0 0.00096660692293523839 -0.0011322000729566133 0 0.0011258893557761921 -0.0021409143977316725 0 0.00075138637961667928 -0.0015077678019371561 0 -0.001125889354657143 -0.0021409143972805729 0 -0.00096660692255536701 -0.001132200072558787 0 -0.00075138637898675283 -0.0015077678017483664 0 0.00041579018235437534 -0.0032429448474654405 0 -0.00041579018104122219 -0.003242944847380011 0 4.7500031770595971e-13 -0.0026028375968617872 0 -0.001125889354657143 -0.0021409143972805729 0 -0.00075138637898675283 -0.0015077678017483664 0 -0.00051540248065332084 -0.0021979603151696921 0 0.00041579018235437534 -0.0032429448474654405 0 4.7500031770595971e-13 -0.0026028375968617872 0 0.00051540248156709651 -0.0021979603152299993 0 4.0017939844627827e-07 -7.5689344626791414e-07 0 -8.0635081037560665e-14 -0.00034219773774434411 0 -0.00036304723970252819 -0.00069208268666864177 0 0.00096660692293523839 -0.0011322000729566133 0 0.00075138637961667928 -0.0015077678019371561 0 0.00036304723968521538 -0.00069208268673571691 0 -0.00096660692255536701 -0.001132200072558787 0 -0.00036304723970252819 -0.00069208268666864177 0 -0.00075138637898675283 -0.0015077678017483664 0 -0.00041579018104122219 -0.003242944847380011 0 -0.00051540248065332084 -0.0021979603151696921 0 4.7500031770595971e-13 -0.0026028375968617872 0 -4.0017939876404718e-07 -7.5689344654833276e-07 0 0.00036304723968521538 -0.00069208268673571691 0 -8.0635081037560665e-14 -0.00034219773774434411 0 0.0011258893557761921 -0.0021409143977316725 0 0.00051540248156709651 -0.0021979603152299993 0 0.00075138637961667928 -0.0015077678019371561 0 
</DataArray>
</PointData>
<CellData Scalars="" Vectors="" Tensors="stress,">
<DataArray type="Float64" Name="stress" NumberOfComponents="9" format="ascii">
14953467.138942987 1722949.5438122451 0 1722949.5438122451 -102880101.91228539 0 0 0 -30774322.170669824 -7432356.3560118079 -18720887.533675604 0 -18720887.533675604 -108407938.72071302 0 0 0 -40544103.276853696 10852529.102664761 1431056.9212923497 0 1431056.9212923497 -100725114.6927857 0 0 0 -31455404.95654235 -55098589.517848492 -12442961.946783999 0 -12442961.946783999 -102594542.80498968 0 0 0 -55192596.312993363 14953467.158790469 -1722949.5447206446 0 -1722949.5447206446 -102880101.91087419 0 0 0 -30774322.163229316 10852529.130925447 -1431056.9236182123 0 -1431056.9236182123 -100725114.69037485 0 0 0 -31455404.945807248 -7432356.3317267969 18720887.535421807 0 18720887.535421807 -108407938.74501291 0 0 0 -40544103.276858889 -55098589.523114845 12442961.946204513 0 12442961.946204513 -102594542.8149429 0 0 0 -55192596.318320215 1402164.4079943635 -1355317.0862791035 0 -1355317.0862791035 -96974651.841380149 0 0 0 -33450370.601685029 17033702.892779544 2052846.2022520676 0 2052846.2022520676 -99517057.417575806 0 0 0 -28869174.083678707 13220469.613052651 -1684444.188419315 0 -1684444.188419315 -106598776.36562443 0 0 0 -32682407.363400117 20193409.35095337 1874537.0278413445 0 1874537.0278413445 -103865491.70512262 0 0 0 -29285228.823959231 1402164.4119998983 1355317.0934632495 0 1355317.0934632495 -96974651.839229241 0 0 0 -33450370.599530261 17033702.958803236 -2052846.1866208524 0 -2052846.1866208524 -99517057.373160541 0 0 0 -28869174.045025051 13220469.666465327 1684444.2058068961 0 1684444.2058068961 -106598776.34465526 0 0 0 -32682407.337366477 20193409.401542664 -1874537.00732705 0 -1874537.00732705 -103865491.67787656 0 0 0 -29285228.796716899 -46257429.734831475 -0.0046703884290764108 0 -0.0046703884290764108 -85769450.856593817 0 0 0 -46209408.206998847 3410466.6070285598 -2682432.1225865781 0 -2682432.1225865781 -91275686.421618551 0 0 0 -30752826.935106501 3410466.5803561658 2682432.1308086067 0 2682432.1308086067 -91275686.431179225 0 0 0 -30752826.94778809 21580605.097114682 0.0078196616790737819 0 0.0078196616790737819 -102478367.11623013 0 0 0 -28314216.706690371 9794627.3153426349 2334094.9397877455 0 2334094.9397877455 -101978531.30138868 0 0 0 -32264366.395116121 23548429.888872296 -1001938.0794814974 0 -1001938.0794814974 -98057529.035964489 0 0 0 -26078184.701482266 -5498913.4823758379 -7318914.5155439749 0 -7318914.5155439749 -74336405.705872312 0 0 0 -27942361.71588685 7508349.7607456818 -2919347.7543752939 0 -2919347.7543752939 -98246184.329216197 0 0 0 -31758242.098964684 7508349.7152912915 2919347.767994063 0 2919347.767994063 -98246184.356257111 0 0 0 -31758242.124338061 23548429.863716319 1001938.0902301967 0 1001938.0902301967 -98057529.045333773 0 0 0 -26078184.71356608 -5498913.4526949488 7318914.5116720237 0 7318914.5116720237 -74336405.696024477 0 0 0 -27942361.702051796 9794627.3538692594 -2334094.9343980532 0 -2334094.9343980532 -101978531.28589761 0 0 0 -32264366.376209915 
</DataArray>
</CellData>
</Piece>
</UnstructuredGrid>
</VTKFile>
