<?xml version="1.0"?>
<VTKFile type="UnstructuredGrid" version="0.1" byte_order="LittleEndian">
<UnstructuredGrid>
<Piece NumberOfPoints="500" NumberOfCells="250">
<Points>
<DataArray type="Float64" NumberOfComponents="3" format="ascii">
0 0 -0.24899999999999739 0 0 -0.25 0 0 -0.2479999999999947 0 0 -0.24899999999999739 0 0 -0.24699999999999209 0 0 -0.2479999999999947 0 0 -0.24599999999998939 0 0 -0.24699999999999209 0 0 -0.24499999999998681 0 0 -0.24599999999998939 0 0 -0.2439999999999842 0 0 -0.24499999999998681 0 0 -0.2419999999999789 0 0 -0.24299999999998159 0 0 -0.24299999999998159 0 0 -0.2439999999999842 0 0 -0.2339999999999578 0 0 -0.23499999999996049 0 0 -0.23499999999996049 0 0 -0.2359999999999631 0 0 -0.2359999999999631 0 0 -0.23699999999996571 0 0 -0.23699999999996571 0 0 -0.2379999999999684 0 0 -0.2379999999999684 0 0 -0.23899999999997101 0 0 -0.23899999999997101 0 0 -0.2399999999999736 0 0 -0.2399999999999736 0 0 -0.24099999999997629 0 0 -0.24099999999997629 0 0 -0.2419999999999789 0 0 -0.22699999999993939 0 0 -0.227999999999942 0 0 -0.227999999999942 0 0 -0.22899999999994469 0 0 -0.22899999999994469 0 0 -0.2299999999999473 0 0 -0.2299999999999473 0 0 -0.23099999999994991 0 0 -0.23099999999994991 0 0 -0.23199999999995249 0 0 -0.23199999999995249 0 0 -0.23299999999995519 0 0 -0.23299999999995519 0 0 -0.2339999999999578 0 0 -0.22499999999993411 0 0 -0.2259999999999367 0 0 -0.2259999999999367 0 0 -0.22699999999993939 0 0 -0.22399999999993139 0 0 -0.22499999999993411 0 0 -0.22299999999992881 0 0 -0.22399999999993139 0 0 -0.2219999999999262 0 0 -0.22299999999992881 0 0 -0.22099999999992359 0 0 -0.2219999999999262 0 0 -0.2199999999999209 0 0 -0.22099999999992359 0 0 -0.21899999999991829 0 0 -0.2199999999999209 0 0 -0.21799999999991571 0 0 -0.21899999999991829 0 0 -0.21699999999991301 0 0 -0.21799999999991571 0 0 -0.21499999999990771 0 0 -0.2159999999999104 0 0 -0.2159999999999104 0 0 -0.21699999999991301 0 0 -0.21299999999990249 0 0 -0.2139999999999051 0 0 -0.2139999999999051 0 0 -0.21499999999990771 0 0 -0.21199999999989991 0 0 -0.21299999999990249 0 0 -0.21099999999989719 0 0 -0.21199999999989991 0 0 -0.2099999999998946 0 0 -0.21099999999989719 0 0 -0.20899999999989191 0 0 -0.2099999999998946 0 0 -0.2079999999998893 0 0 -0.20899999999989191 0 0 -0.20699999999988669 0 0 -0.2079999999998893 0 0 -0.20299999999987611 0 0 -0.20399999999987881 0 0 -0.20399999999987881 0 0 -0.20499999999988139 0 0 -0.20499999999988139 0 0 -0.205999999999884 0 0 -0.205999999999884 0 0 -0.20699999999988669 0 0 -0.1879999999998366 0 0 -0.18899999999983921 0 0 -0.18999999999984191 0 0 -0.19099999999984449 0 0 -0.18899999999983921 0 0 -0.18999999999984191 0 0 -0.1919999999998471 0 0 -0.19299999999984971 0 0 -0.19099999999984449 0 0 -0.1919999999998471 0 0 -0.1939999999998524 0 0 -0.19499999999985501 0 0 -0.19299999999984971 0 0 -0.1939999999998524 0 0 -0.1959999999998577 0 0 -0.19699999999986029 0 0 -0.19499999999985501 0 0 -0.1959999999998577 0 0 -0.19799999999986301 0 0 -0.19899999999986559 0 0 -0.19699999999986029 0 0 -0.19799999999986301 0 0 -0.1999999999998682 0 0 -0.20099999999987081 0 0 -0.19899999999986559 0 0 -0.1999999999998682 0 0 -0.2019999999998735 0 0 -0.20299999999987611 0 0 -0.20099999999987081 0 0 -0.2019999999998735 0 0 -0.13099999999968631 0 0 -0.13199999999968889 0 0 -0.13199999999968889 0 0 -0.13299999999969159 0 0 -0.1299999999996837 0 0 -0.13099999999968631 0 0 -0.12899999999968109 0 0 -0.1299999999996837 0 0 -0.1279999999996784 0 0 -0.12899999999968109 0 0 -0.12699999999967579 0 0 -0.1279999999996784 0 0 -0.12599999999967451 0 0 -0.12699999999967579 0 0 -0.12499999999967321 0 0 -0.12599999999967451 0 0 -0.13999999999971011 0 0 -0.14099999999971269 0 0 -0.13899999999970741 0 0 -0.13999999999971011 0 0 -0.1379999999997048 0 0 -0.13899999999970741 0 0 -0.13699999999970211 0 0 -0.1379999999997048 0 0 -0.1359999999996995 0 0 -0.13699999999970211 0 0 -0.13499999999969689 0 0 -0.1359999999996995 0 0 -0.13299999999969159 0 0 -0.1339999999996942 0 0 -0.1339999999996942 0 0 -0.13499999999969689 0 0 -0.14599999999972579 0 0 -0.14699999999972849 0 0 -0.14699999999972849 0 0 -0.1479999999997311 0 0 -0.14499999999972321 0 0 -0.14599999999972579 0 0 -0.1439999999997206 0 0 -0.14499999999972321 0 0 -0.14299999999971799 0 0 -0.1439999999997206 0 0 -0.1419999999997153 0 0 -0.14299999999971799 0 0 -0.14099999999971269 0 0 -0.1419999999997153 0 0 -0.15499999999974959 0 0 -0.1559999999997522 0 0 -0.15399999999974701 0 0 -0.15499999999974959 0 0 -0.15299999999974431 0 0 -0.15399999999974701 0 0 -0.1519999999997417 0 0 -0.15299999999974431 0 0 -0.15099999999973901 0 0 -0.1519999999997417 0 0 -0.1499999999997364 0 0 -0.15099999999973901 0 0 -0.1479999999997311 0 0 -0.14899999999973379 0 0 -0.14899999999973379 0 0 -0.1499999999997364 0 0 -0.161999999999768 0 0 -0.16299999999977069 0 0 -0.16299999999977069 0 0 -0.1639999999997733 0 0 -0.16099999999976539 0 0 -0.161999999999768 0 0 -0.1599999999997628 0 0 -0.16099999999976539 0 0 -0.15899999999976011 0 0 -0.1599999999997628 0 0 -0.1579999999997575 0 0 -0.15899999999976011 0 0 -0.15699999999975489 0 0 -0.1579999999997575 0 0 -0.1559999999997522 0 0 -0.15699999999975489 0 0 -0.17099999999979171 0 0 -0.1719999999997944 0 0 -0.1699999999997891 0 0 -0.17099999999979171 0 0 -0.16899999999978649 0 0 -0.1699999999997891 0 0 -0.16799999999978391 0 0 -0.16899999999978649 0 0 -0.16699999999978121 0 0 -0.16799999999978391 0 0 -0.1659999999997786 0 0 -0.16699999999978121 0 0 -0.1639999999997733 0 0 -0.16499999999977599 0 0 -0.16499999999977599 0 0 -0.1659999999997786 0 0 -0.1779999999998102 0 0 -0.17899999999981281 0 0 -0.17899999999981281 0 0 -0.1799999999998155 0 0 -0.17699999999980759 0 0 -0.1779999999998102 0 0 -0.17599999999980501 0 0 -0.17699999999980759 0 0 -0.17499999999980231 0 0 -0.17599999999980501 0 0 -0.1739999999997997 0 0 -0.17499999999980231 0 0 -0.17299999999979701 0 0 -0.1739999999997997 0 0 -0.1719999999997944 0 0 -0.17299999999979701 0 0 -0.18699999999983391 0 0 -0.1879999999998366 0 0 -0.1859999999998313 0 0 -0.18699999999983391 0 0 -0.18499999999982869 0 0 -0.1859999999998313 0 0 -0.183999999999826 0 0 -0.18499999999982869 0 0 -0.18299999999982339 0 0 -0.183999999999826 0 0 -0.18199999999982069 0 0 -0.18299999999982339 0 0 -0.1799999999998155 0 0 -0.18099999999981811 0 0 -0.18099999999981811 0 0 -0.18199999999982069 0 0 -0.067999999999836705 0 0 -0.068999999999833792 0 0 -0.068999999999833792 0 0 -0.069999999999830878 0 0 -0.066999999999839618 0 0 -0.067999999999836705 0 0 -0.065999999999842532 0 0 -0.066999999999839618 0 0 -0.064999999999845445 0 0 -0.065999999999842532 0 0 -0.063999999999848373 0 0 -0.064999999999845445 0 0 -0.062999999999851286 0 0 -0.063999999999848373 0 0 -0.07699999999981047 0 0 -0.077999999999807557 0 0 -0.075999999999813383 0 0 -0.07699999999981047 0 0 -0.074999999999816297 0 0 -0.075999999999813383 0 0 -0.07399999999981921 0 0 -0.074999999999816297 0 0 -0.072999999999822124 0 0 -0.07399999999981921 0 0 -0.071999999999825051 0 0 -0.072999999999822124 0 0 -0.069999999999830878 0 0 -0.070999999999827965 0 0 -0.070999999999827965 0 0 -0.071999999999825051 0 0 -0.083999999999790062 0 0 -0.084999999999787149 0 0 -0.084999999999787149 0 0 -0.085999999999784235 0 0 -0.082999999999792975 0 0 -0.083999999999790062 0 0 -0.081999999999795889 0 0 -0.082999999999792975 0 0 -0.080999999999798802 0 0 -0.081999999999795889 0 0 -0.07999999999980173 0 0 -0.080999999999798802 0 0 -0.078999999999804643 0 0 -0.07999999999980173 0 0 -0.077999999999807557 0 0 -0.078999999999804643 0 0 -0.092999999999763827 0 0 -0.093999999999760914 0 0 -0.091999999999766741 0 0 -0.092999999999763827 0 0 -0.090999999999769654 0 0 -0.091999999999766741 0 0 -0.089999999999772567 0 0 -0.090999999999769654 0 0 -0.088999999999775481 0 0 -0.089999999999772567 0 0 -0.087999999999778394 0 0 -0.088999999999775481 0 0 -0.085999999999784235 0 0 -0.086999999999781322 0 0 -0.086999999999781322 0 0 -0.087999999999778394 0 0 -0.099999999999743419 0 0 -0.10099999999974051 0 0 -0.10099999999974051 0 0 -0.10199999999973761 0 0 -0.098999999999746333 0 0 -0.099999999999743419 0 0 -0.097999999999749246 0 0 -0.098999999999746333 0 0 -0.096999999999752159 0 0 -0.097999999999749246 0 0 -0.095999999999755073 0 0 -0.096999999999752159 0 0 -0.094999999999758 0 0 -0.095999999999755073 0 0 -0.093999999999760914 0 0 -0.094999999999758 0 0 -0.1079999999997201 0 0 -0.1089999999997172 0 0 -0.106999999999723 0 0 -0.1079999999997201 0 0 -0.1059999999997259 0 0 -0.106999999999723 0 0 -0.1049999999997288 0 0 -0.1059999999997259 0 0 -0.10399999999973179 0 0 -0.1049999999997288 0 0 -0.10199999999973761 0 0 -0.10299999999973471 0 0 -0.10299999999973471 0 0 -0.10399999999973179 0 0 -0.1149999999996997 0 0 -0.1159999999996968 0 0 -0.1159999999996968 0 0 -0.11699999999969379 0 0 -0.1139999999997026 0 0 -0.1149999999996997 0 0 -0.1129999999997055 0 0 -0.1139999999997026 0 0 -0.1119999999997084 0 0 -0.1129999999997055 0 0 -0.1109999999997113 0 0 -0.1119999999997084 0 0 -0.1099999999997143 0 0 -0.1109999999997113 0 0 -0.1089999999997172 0 0 -0.1099999999997143 0 0 -0.1239999999996748 0 0 -0.12499999999967321 0 0 -0.1229999999996764 0 0 -0.1239999999996748 0 0 -0.1219999999996793 0 0 -0.1229999999996764 0 0 -0.1209999999996822 0 0 -0.1219999999996793 0 0 -0.11999999999968509 0 0 -0.1209999999996822 0 0 -0.11899999999968799 0 0 -0.11999999999968509 0 0 -0.11699999999969379 0 0 -0.11799999999969089 0 0 -0.11799999999969089 0 0 -0.11899999999968799 0 0 -0.047999999999895078 0 0 -0.048999999999892158 0 0 -0.046999999999897998 0 0 -0.047999999999895078 0 0 -0.049999999999889237 0 0 -0.050999999999886317 0 0 -0.048999999999892158 0 0 -0.049999999999889237 0 0 -0.051999999999883403 0 0 -0.052999999999880483 0 0 -0.050999999999886317 0 0 -0.051999999999883403 0 0 -0.053999999999877563 0 0 -0.054999999999874642 0 0 -0.052999999999880483 0 0 -0.053999999999877563 0 0 -0.055999999999871722 0 0 -0.056999999999868801 0 0 -0.054999999999874642 0 0 -0.055999999999871722 0 0 -0.057999999999865881 0 0 -0.058999999999862961 0 0 -0.056999999999868801 0 0 -0.057999999999865881 0 0 -0.059999999999860047 0 0 -0.060999999999857127 0 0 -0.058999999999862961 0 0 -0.059999999999860047 0 0 -0.061999999999854213 0 0 -0.062999999999851286 0 0 -0.060999999999857127 0 0 -0.061999999999854213 0 0 -0.042999999999909673 0 0 -0.043999999999906753 0 0 -0.043999999999906753 0 0 -0.044999999999903832 0 0 -0.044999999999903832 0 0 -0.045999999999900919 0 0 -0.045999999999900919 0 0 -0.046999999999897998 0 0 -0.041999999999912593 0 0 -0.042999999999909673 0 0 -0.040999999999915507 0 0 -0.041999999999912593 0 0 -0.039999999999918427 0 0 -0.040999999999915507 0 0 -0.038999999999921348 0 0 -0.039999999999918427 0 0 -0.037999999999924268 0 0 -0.038999999999921348 0 0 -0.036999999999927188 0 0 -0.037999999999924268 0 0 -0.034999999999933022 0 0 -0.035999999999930102 0 0 -0.035999999999930102 0 0 -0.036999999999927188 0 0 -0.032999999999938787 0 0 -0.033999999999935943 0 0 -0.033999999999935943 0 0 -0.034999999999933022 0 0 -0.031999999999941367 0 0 -0.032999999999938787 0 0 -0.03099999999994377 0 0 -0.031999999999941367 0 0 -0.02999999999994565 0 0 -0.03099999999994377 0 0 -0.028999999999947419 0 0 -0.02999999999994565 0 0 -0.027999999999948951 0 0 -0.028999999999947419 0 0 -0.02699999999995048 0 0 -0.027999999999948951 0 0 -0.02599999999995202 0 0 -0.02699999999995048 0 0 -0.024999999999953549 0 0 -0.02599999999995202 0 0 -0.022999999999956611 0 0 -0.023999999999955082 0 0 -0.023999999999955082 0 0 -0.024999999999953549 0 0 -0.01599999999996761 0 0 -0.0169999999999659 0 0 -0.0169999999999659 0 0 -0.01799999999996427 0 0 -0.01799999999996427 0 0 -0.018999999999962731 0 0 -0.018999999999962731 0 0 -0.019999999999961209 0 0 -0.019999999999961209 0 0 -0.020999999999959669 0 0 -0.020999999999959669 0 0 -0.02199999999995814 0 0 -0.02199999999995814 0 0 -0.022999999999956611 0 0 -0.007999999999984719 0 0 -0.008999999999982581 0 0 -0.008999999999982581 0 0 -0.0099999999999804221 0 0 -0.0099999999999804221 0 0 -0.010999999999978201 0 0 -0.010999999999978201 0 0 -0.011999999999975971 0 0 -0.011999999999975971 0 0 -0.01299999999997375 0 0 -0.01299999999997375 0 0 -0.01399999999997158 0 0 -0.01399999999997158 0 0 -0.014999999999969531 0 0 -0.014999999999969531 0 0 -0.01599999999996761 0 0 -0.0059999999999886811 0 0 -0.0069999999999867156 0 0 -0.0069999999999867156 0 0 -0.007999999999984719 0 0 -0.004999999999990571 0 0 -0.0059999999999886811 0 0 -0.0039999999999924488 0 0 -0.004999999999990571 0 0 -0.0029999999999943271 0 0 -0.0039999999999924488 0 0 -0.001999999999996204 0 0 -0.0029999999999943271 0 0 -0.00099999999999810158 0 0 -0.001999999999996204 0 0 0 0 0 -0.00099999999999810158 
</DataArray>
</Points>
<Cells>
<DataArray type="UInt32" Name="connectivity" format="ascii">
0 1 2 3 4 5 6 7 8 9 10 11 12 13 14 15 16 17 18 19 20 21 22 23 24 25 26 27 28 29 30 31 32 33 34 35 36 37 38 39 40 41 42 43 44 45 46 47 48 49 50 51 52 53 54 55 56 57 58 59 60 61 62 63 64 65 66 67 68 69 70 71 72 73 74 75 76 77 78 79 80 81 82 83 84 85 86 87 88 89 90 91 92 93 94 95 96 97 98 99 100 101 102 103 104 105 106 107 108 109 110 111 112 113 114 115 116 117 118 119 120 121 122 123 124 125 126 127 128 129 130 131 132 133 134 135 136 137 138 139 140 141 142 143 144 145 146 147 148 149 150 151 152 153 154 155 156 157 158 159 160 161 162 163 164 165 166 167 168 169 170 171 172 173 174 175 176 177 178 179 180 181 182 183 184 185 186 187 188 189 190 191 192 193 194 195 196 197 198 199 200 201 202 203 204 205 206 207 208 209 210 211 212 213 214 215 216 217 218 219 220 221 222 223 224 225 226 227 228 229 230 231 232 233 234 235 236 237 238 239 240 241 242 243 244 245 246 247 248 249 250 251 252 253 254 255 256 257 258 259 260 261 262 263 264 265 266 267 268 269 270 271 272 273 274 275 276 277 278 279 280 281 282 283 284 285 286 287 288 289 290 291 292 293 294 295 296 297 298 299 300 301 302 303 304 305 306 307 308 309 310 311 312 313 314 315 316 317 318 319 320 321 322 323 324 325 326 327 328 329 330 331 332 333 334 335 336 337 338 339 340 341 342 343 344 345 346 347 348 349 350 351 352 353 354 355 356 357 358 359 360 361 362 363 364 365 366 367 368 369 370 371 372 373 374 375 376 377 378 379 380 381 382 383 384 385 386 387 388 389 390 391 392 393 394 395 396 397 398 399 400 401 402 403 404 405 406 407 408 409 410 411 412 413 414 415 416 417 418 419 420 421 422 423 424 425 426 427 428 429 430 431 432 433 434 435 436 437 438 439 440 441 442 443 444 445 446 447 448 449 450 451 452 453 454 455 456 457 458 459 460 461 462 463 464 465 466 467 468 469 470 471 472 473 474 475 476 477 478 479 480 481 482 483 484 485 486 487 488 489 490 491 492 493 494 495 496 497 498 499 
</DataArray>
<DataArray type="UInt32" Name="offsets" format="ascii">
2 4 6 8 10 12 14 16 18 20 22 24 26 28 30 32 34 36 38 40 42 44 46 48 50 52 54 56 58 60 62 64 66 68 70 72 74 76 78 80 82 84 86 88 90 92 94 96 98 100 102 104 106 108 110 112 114 116 118 120 122 124 126 128 130 132 134 136 138 140 142 144 146 148 150 152 154 156 158 160 162 164 166 168 170 172 174 176 178 180 182 184 186 188 190 192 194 196 198 200 202 204 206 208 210 212 214 216 218 220 222 224 226 228 230 232 234 236 238 240 242 244 246 248 250 252 254 256 258 260 262 264 266 268 270 272 274 276 278 280 282 284 286 288 290 292 294 296 298 300 302 304 306 308 310 312 314 316 318 320 322 324 326 328 330 332 334 336 338 340 342 344 346 348 350 352 354 356 358 360 362 364 366 368 370 372 374 376 378 380 382 384 386 388 390 392 394 396 398 400 402 404 406 408 410 412 414 416 418 420 422 424 426 428 430 432 434 436 438 440 442 444 446 448 450 452 454 456 458 460 462 464 466 468 470 472 474 476 478 480 482 484 486 488 490 492 494 496 498 500 
</DataArray>
<DataArray type="UInt32" Name="types" format="ascii">
3 3 3 3 3 3 3 3 3 3 3 3 3 3 3 3 3 3 3 3 3 3 3 3 3 3 3 3 3 3 3 3 3 3 3 3 3 3 3 3 3 3 3 3 3 3 3 3 3 3 3 3 3 3 3 3 3 3 3 3 3 3 3 3 3 3 3 3 3 3 3 3 3 3 3 3 3 3 3 3 3 3 3 3 3 3 3 3 3 3 3 3 3 3 3 3 3 3 3 3 3 3 3 3 3 3 3 3 3 3 3 3 3 3 3 3 3 3 3 3 3 3 3 3 3 3 3 3 3 3 3 3 3 3 3 3 3 3 3 3 3 3 3 3 3 3 3 3 3 3 3 3 3 3 3 3 3 3 3 3 3 3 3 3 3 3 3 3 3 3 3 3 3 3 3 3 3 3 3 3 3 3 3 3 3 3 3 3 3 3 3 3 3 3 3 3 3 3 3 3 3 3 3 3 3 3 3 3 3 3 3 3 3 3 3 3 3 3 3 3 3 3 3 3 3 3 3 3 3 3 3 3 3 3 3 3 3 3 3 3 3 3 3 3 3 3 3 3 3 3 
</DataArray>
</Cells>
<PointData Scalars="" Vectors="displacement," Tensors="">
<DataArray type="Float64" Name="displacement" NumberOfComponents="3" format="ascii">
0 0 -1.666624581768036e-07 0 0 -8.3333333333293038e-08 0 0 -2.4999158302032112e-07 0 0 -1.666624581768036e-07 0 0 -3.3332070786383177e-07 0 0 -2.4999158302032112e-07 0 0 -4.1664983270734937e-07 0 0 -3.3332070786383177e-07 0 0 -4.999789575508577e-07 0 0 -4.1664983270734937e-07 0 0 -5.8330808239436846e-07 0 0 -4.999789575508577e-07 0 0 -7.4996633208139676e-07 0 0 -6.6663720723787901e-07 0 0 -6.6663720723787901e-07 0 0 -5.8330808239436846e-07 0 0 -1.4165993308295032e-06 0 0 -1.3332702059859851e-06 0 0 -1.3332702059859851e-06 0 0 -1.2499410811424741e-06 0 0 -1.2499410811424741e-06 0 0 -1.166611956298963e-06 0 0 -1.166611956298963e-06 0 0 -1.0832828314554447e-06 0 0 -1.0832828314554447e-06 0 0 -9.9995370661193382e-07 0 0 -9.9995370661193382e-07 0 0 -9.1662458176842538e-07 0 0 -9.1662458176842538e-07 0 0 -8.3329545692490763e-07 0 0 -8.3329545692490763e-07 0 0 -7.4996633208139676e-07 0 0 -1.9999032047340945e-06 0 0 -1.9165740798905828e-06 0 0 -1.9165740798905828e-06 0 0 -1.8332449550470643e-06 0 0 -1.8332449550470643e-06 0 0 -1.7499158302035532e-06 0 0 -1.7499158302035532e-06 0 0 -1.666586705360042e-06 0 0 -1.666586705360042e-06 0 0 -1.5832575805165332e-06 0 0 -1.5832575805165332e-06 0 0 -1.4999284556730147e-06 0 0 -1.4999284556730147e-06 0 0 -1.4165993308295032e-06 0 0 -2.1665614544211222e-06 0 0 -2.0832323295776135e-06 0 0 -2.0832323295776135e-06 0 0 -1.9999032047340945e-06 0 0 -2.2498905792646428e-06 0 0 -2.1665614544211222e-06 0 0 -2.3332197041081516e-06 0 0 -2.2498905792646428e-06 0 0 -2.4165488289516629e-06 0 0 -2.3332197041081516e-06 0 0 -2.4998779537951746e-06 0 0 -2.4165488289516629e-06 0 0 -2.5832070786386926e-06 0 0 -2.4998779537951746e-06 0 0 -2.6665362034822048e-06 0 0 -2.5832070786386926e-06 0 0 -2.749865328325714e-06 0 0 -2.6665362034822048e-06 0 0 -2.8331944531692333e-06 0 0 -2.749865328325714e-06 0 0 -2.9998527028562652e-06 0 0 -2.9165235780127454e-06 0 0 -2.9165235780127454e-06 0 0 -2.8331944531692333e-06 0 0 -3.1665109525432908e-06 0 0 -3.0831818276997778e-06 0 0 -3.0831818276997778e-06 0 0 -2.9998527028562652e-06 0 0 -3.2498400773868012e-06 0 0 -3.1665109525432908e-06 0 0 -3.3331692022303231e-06 0 0 -3.2498400773868012e-06 0 0 -3.4164983270738327e-06 0 0 -3.3331692022303231e-06 0 0 -3.4998274519173507e-06 0 0 -3.4164983270738327e-06 0 0 -3.5831565767608629e-06 0 0 -3.4998274519173507e-06 0 0 -3.6664857016043746e-06 0 0 -3.5831565767608629e-06 0 0 -3.9998022009784354e-06 0 0 -3.916473076134917e-06 0 0 -3.916473076134917e-06 0 0 -3.8331439512914061e-06 0 0 -3.8331439512914061e-06 0 0 -3.7498148264478939e-06 0 0 -3.7498148264478939e-06 0 0 -3.6664857016043746e-06 0 0 -5.2497390736311696e-06 0 0 -5.1664099487876545e-06 0 0 -5.0830808239441352e-06 0 0 -4.9997516991006235e-06 0 0 -5.1664099487876545e-06 0 0 -5.0830808239441352e-06 0 0 -4.9164225742571084e-06 0 0 -4.8330934494135924e-06 0 0 -4.9997516991006235e-06 0 0 -4.9164225742571084e-06 0 0 -4.7497643245700714e-06 0 0 -4.6664351997265588e-06 0 0 -4.8330934494135924e-06 0 0 -4.7497643245700714e-06 0 0 -4.5831060748830403e-06 0 0 -4.4997769500395295e-06 0 0 -4.6664351997265588e-06 0 0 -4.5831060748830403e-06 0 0 -4.4164478251960076e-06 0 0 -4.3331187003524959e-06 0 0 -4.4997769500395295e-06 0 0 -4.4164478251960076e-06 0 0 -4.2497895755089825e-06 0 0 -4.166460450665469e-06 0 0 -4.3331187003524959e-06 0 0 -4.2497895755089825e-06 0 0 -4.083131325821948e-06 0 0 -3.9998022009784354e-06 0 0 -4.166460450665469e-06 0 0 -4.083131325821948e-06 0 0 -9.9994991897122531e-06 0 0 -9.9161700648687185e-06 0 0 -9.9161700648687185e-06 0 0 -9.8328409400251738e-06 0 0 -1.0082828314555791e-05 0 0 -9.9994991897122531e-06 0 0 -1.0166157439399327e-05 0 0 -1.0082828314555791e-05 0 0 -1.0249486564242874e-05 0 0 -1.0166157439399327e-05 0 0 -1.0332815689086413e-05 0 0 -1.0249486564242874e-05 0 0 -1.0416144813929841e-05 0 0 -1.0332815689086413e-05 0 0 -1.0499473938773276e-05 0 0 -1.0416144813929841e-05 0 0 -9.2495370661204097e-06 0 0 -9.1662079412768802e-06 0 0 -9.3328661909639493e-06 0 0 -9.2495370661204097e-06 0 0 -9.4161953158074839e-06 0 0 -9.3328661909639493e-06 0 0 -9.4995244406510236e-06 0 0 -9.4161953158074839e-06 0 0 -9.5828535654945599e-06 0 0 -9.4995244406510236e-06 0 0 -9.6661826903380928e-06 0 0 -9.5828535654945599e-06 0 0 -9.8328409400251738e-06 0 0 -9.7495118151816358e-06 0 0 -9.7495118151816358e-06 0 0 -9.6661826903380928e-06 0 0 -8.7495623170592157e-06 0 0 -8.6662331922156777e-06 0 0 -8.6662331922156777e-06 0 0 -8.5829040673721465e-06 0 0 -8.8328914419027435e-06 0 0 -8.7495623170592157e-06 0 0 -8.9162205667462764e-06 0 0 -8.8328914419027435e-06 0 0 -8.9995496915898076e-06 0 0 -8.9162205667462764e-06 0 0 -9.0828788164333456e-06 0 0 -8.9995496915898076e-06 0 0 -9.1662079412768802e-06 0 0 -9.0828788164333456e-06 0 0 -7.9996001934674332e-06 0 0 -7.9162710686239071e-06 0 0 -8.0829293183109576e-06 0 0 -7.9996001934674332e-06 0 0 -8.1662584431544905e-06 0 0 -8.0829293183109576e-06 0 0 -8.2495875679980183e-06 0 0 -8.1662584431544905e-06 0 0 -8.3329166928415546e-06 0 0 -8.2495875679980183e-06 0 0 -8.4162458176850824e-06 0 0 -8.3329166928415546e-06 0 0 -8.5829040673721465e-06 0 0 -8.4995749425286119e-06 0 0 -8.4995749425286119e-06 0 0 -8.4162458176850824e-06 0 0 -7.4162963195627419e-06 0 0 -7.3329671947192107e-06 0 0 -7.3329671947192107e-06 0 0 -7.249638069875688e-06 0 0 -7.4996254444062689e-06 0 0 -7.4162963195627419e-06 0 0 -7.5829545692497916e-06 0 0 -7.4996254444062689e-06 0 0 -7.6662836940933237e-06 0 0 -7.5829545692497916e-06 0 0 -7.7496128189368481e-06 0 0 -7.6662836940933237e-06 0 0 -7.8329419437803742e-06 0 0 -7.7496128189368481e-06 0 0 -7.9162710686239071e-06 0 0 -7.8329419437803742e-06 0 0 -6.6663341959710238e-06 0 0 -6.5830050711274952e-06 0 0 -6.7496633208145457e-06 0 0 -6.6663341959710238e-06 0 0 -6.8329924456580684e-06 0 0 -6.7496633208145457e-06 0 0 -6.9163215705015878e-06 0 0 -6.8329924456580684e-06 0 0 -6.9996506953451156e-06 0 0 -6.9163215705015878e-06 0 0 -7.0829798201886375e-06 0 0 -6.9996506953451156e-06 0 0 -7.249638069875688e-06 0 0 -7.1663089450321585e-06 0 0 -7.1663089450321585e-06 0 0 -7.0829798201886375e-06 0 0 -6.0830303220663698e-06 0 0 -5.9997011972228505e-06 0 0 -5.9997011972228505e-06 0 0 -5.9163720723793244e-06 0 0 -6.1663594469098875e-06 0 0 -6.0830303220663698e-06 0 0 -6.2496885717534034e-06 0 0 -6.1663594469098875e-06 0 0 -6.3330176965969295e-06 0 0 -6.2496885717534034e-06 0 0 -6.416346821440448e-06 0 0 -6.3330176965969295e-06 0 0 -6.499675946283975e-06 0 0 -6.416346821440448e-06 0 0 -6.5830050711274952e-06 0 0 -6.499675946283975e-06 0 0 -5.3330681984746924e-06 0 0 -5.2497390736311696e-06 0 0 -5.4163973233182092e-06 0 0 -5.3330681984746924e-06 0 0 -5.4997264481617251e-06 0 0 -5.4163973233182092e-06 0 0 -5.5830555730052478e-06 0 0 -5.4997264481617251e-06 0 0 -5.6663846978487663e-06 0 0 -5.5830555730052478e-06 0 0 -5.7497138226922916e-06 0 0 -5.6663846978487663e-06 0 0 -5.9163720723793244e-06 0 0 -5.8330429475358067e-06 0 0 -5.8330429475358067e-06 0 0 -5.7497138226922916e-06 0 0 -1.5249234054829845e-05 0 0 -1.5165904929986732e-05 0 0 -1.5165904929986732e-05 0 0 -1.5082575805143617e-05 0 0 -1.5332563179672962e-05 0 0 -1.5249234054829845e-05 0 0 -1.5415892304516074e-05 0 0 -1.5332563179672962e-05 0 0 -1.5499221429359188e-05 0 0 -1.5415892304516074e-05 0 0 -1.5582550554202306e-05 0 0 -1.5499221429359188e-05 0 0 -1.566587967904543e-05 0 0 -1.5582550554202306e-05 0 0 -1.449927193124184e-05 0 0 -1.4415942806398732e-05 0 0 -1.4582601056084948e-05 0 0 -1.449927193124184e-05 0 0 -1.4665930180928057e-05 0 0 -1.4582601056084948e-05 0 0 -1.4749259305771168e-05 0 0 -1.4665930180928057e-05 0 0 -1.4832588430614279e-05 0 0 -1.4749259305771168e-05 0 0 -1.4915917555457389e-05 0 0 -1.4832588430614279e-05 0 0 -1.5082575805143617e-05 0 0 -1.4999246680300503e-05 0 0 -1.4999246680300503e-05 0 0 -1.4915917555457389e-05 0 0 -1.3915968057340101e-05 0 0 -1.3832638932497001e-05 0 0 -1.3832638932497001e-05 0 0 -1.37493098076539e-05 0 0 -1.3999297182183204e-05 0 0 -1.3915968057340101e-05 0 0 -1.4082626307026307e-05 0 0 -1.3999297182183204e-05 0 0 -1.4165955431869413e-05 0 0 -1.4082626307026307e-05 0 0 -1.4249284556712517e-05 0 0 -1.4165955431869413e-05 0 0 -1.4332613681555625e-05 0 0 -1.4249284556712517e-05 0 0 -1.4415942806398732e-05 0 0 -1.4332613681555625e-05 0 0 -1.3166005933752234e-05 0 0 -1.3082676808909141e-05 0 0 -1.3249335058595326e-05 0 0 -1.3166005933752234e-05 0 0 -1.333266418343842e-05 0 0 -1.3249335058595326e-05 0 0 -1.3415993308281511e-05 0 0 -1.333266418343842e-05 0 0 -1.3499322433124607e-05 0 0 -1.3415993308281511e-05 0 0 -1.3582651557967703e-05 0 0 -1.3499322433124607e-05 0 0 -1.37493098076539e-05 0 0 -1.36659806828108e-05 0 0 -1.36659806828108e-05 0 0 -1.3582651557967703e-05 0 0 -1.2582702059850621e-05 0 0 -1.2499372935007535e-05 0 0 -1.2499372935007535e-05 0 0 -1.2416043810164449e-05 0 0 -1.2666031184693708e-05 0 0 -1.2582702059850621e-05 0 0 -1.2749360309536792e-05 0 0 -1.2666031184693708e-05 0 0 -1.2832689434379878e-05 0 0 -1.2749360309536792e-05 0 0 -1.2916018559222963e-05 0 0 -1.2832689434379878e-05 0 0 -1.2999347684066051e-05 0 0 -1.2916018559222963e-05 0 0 -1.3082676808909141e-05 0 0 -1.2999347684066051e-05 0 0 -1.1916069061105944e-05 0 0 -1.1832739936262857e-05 0 0 -1.199939818594903e-05 0 0 -1.1916069061105944e-05 0 0 -1.2082727310792115e-05 0 0 -1.199939818594903e-05 0 0 -1.2166056435635203e-05 0 0 -1.2082727310792115e-05 0 0 -1.2249385560478278e-05 0 0 -1.2166056435635203e-05 0 0 -1.2416043810164449e-05 0 0 -1.2332714685321364e-05 0 0 -1.2332714685321364e-05 0 0 -1.2249385560478278e-05 0 0 -1.1332765187204336e-05 0 0 -1.1249436062361249e-05 0 0 -1.1249436062361249e-05 0 0 -1.1166106937518175e-05 0 0 -1.1416094312047423e-05 0 0 -1.1332765187204336e-05 0 0 -1.1499423436890511e-05 0 0 -1.1416094312047423e-05 0 0 -1.15827525617336e-05 0 0 -1.1499423436890511e-05 0 0 -1.1666081686576687e-05 0 0 -1.15827525617336e-05 0 0 -1.1749410811419769e-05 0 0 -1.1666081686576687e-05 0 0 -1.1832739936262857e-05 0 0 -1.1749410811419769e-05 0 0 -1.0582803063616468e-05 0 0 -1.0499473938773276e-05 0 0 -1.0666132188459661e-05 0 0 -1.0582803063616468e-05 0 0 -1.0749461313302746e-05 0 0 -1.0666132188459661e-05 0 0 -1.0832790438145834e-05 0 0 -1.0749461313302746e-05 0 0 -1.0916119562988919e-05 0 0 -1.0832790438145834e-05 0 0 -1.0999448687832003e-05 0 0 -1.0916119562988919e-05 0 0 -1.1166106937518175e-05 0 0 -1.1082777812675089e-05 0 0 -1.1082777812675089e-05 0 0 -1.0999448687832003e-05 0 0 -1.6915816551692246e-05 0 0 -1.6832487426849131e-05 0 0 -1.699914567653536e-05 0 0 -1.6915816551692246e-05 0 0 -1.6749158302006013e-05 0 0 -1.6665829177162899e-05 0 0 -1.6832487426849131e-05 0 0 -1.6749158302006013e-05 0 0 -1.6582500052319781e-05 0 0 -1.6499170927476656e-05 0 0 -1.6665829177162899e-05 0 0 -1.6582500052319781e-05 0 0 -1.6415841802633535e-05 0 0 -1.6332512677790411e-05 0 0 -1.6499170927476656e-05 0 0 -1.6415841802633535e-05 0 0 -1.6249183552947293e-05 0 0 -1.6165854428104171e-05 0 0 -1.6332512677790411e-05 0 0 -1.6249183552947293e-05 0 0 -1.608252530326105e-05 0 0 -1.5999196178417929e-05 0 0 -1.6165854428104171e-05 0 0 -1.608252530326105e-05 0 0 -1.5915867053574808e-05 0 0 -1.5832537928731683e-05 0 0 -1.5999196178417929e-05 0 0 -1.5915867053574808e-05 0 0 -1.5749208803888555e-05 0 0 -1.566587967904543e-05 0 0 -1.5832537928731683e-05 0 0 -1.5749208803888555e-05 0 0 -1.7332462175907818e-05 0 0 -1.7249133051064703e-05 0 0 -1.7249133051064703e-05 0 0 -1.7165803926221592e-05 0 0 -1.7165803926221592e-05 0 0 -1.7082474801378478e-05 0 0 -1.7082474801378478e-05 0 0 -1.699914567653536e-05 0 0 -1.7415791300750932e-05 0 0 -1.7332462175907818e-05 0 0 -1.7499120425594047e-05 0 0 -1.7415791300750932e-05 0 0 -1.7582449550437155e-05 0 0 -1.7499120425594047e-05 0 0 -1.7665778675280262e-05 0 0 -1.7582449550437155e-05 0 0 -1.7749107800123366e-05 0 0 -1.7665778675280262e-05 0 0 -1.7832436924966474e-05 0 0 -1.7749107800123366e-05 0 0 -1.7999095174652683e-05 0 0 -1.7915766049809582e-05 0 0 -1.7915766049809582e-05 0 0 -1.7832436924966474e-05 0 0 -1.8165753424338891e-05 0 0 -1.8082424299495784e-05 0 0 -1.8082424299495784e-05 0 0 -1.7999095174652683e-05 0 0 -1.8249082549182026e-05 0 0 -1.8165753424338891e-05 0 0 -1.8332411674025171e-05 0 0 -1.8249082549182026e-05 0 0 -1.841574079886836e-05 0 0 -1.8332411674025171e-05 0 0 -1.8499069923711556e-05 0 0 -1.841574079886836e-05 0 0 -1.8582399048554772e-05 0 0 -1.8499069923711556e-05 0 0 -1.8665728173397985e-05 0 0 -1.8582399048554772e-05 0 0 -1.8749057298241201e-05 0 0 -1.8665728173397985e-05 0 0 -1.883238642308441e-05 0 0 -1.8749057298241201e-05 0 0 -1.8999044672770822e-05 0 0 -1.8915715547927613e-05 0 0 -1.8915715547927613e-05 0 0 -1.883238642308441e-05 0 0 -1.958234854667326e-05 0 0 -1.9499019421830068e-05 0 0 -1.9499019421830068e-05 0 0 -1.9415690296986869e-05 0 0 -1.9415690296986869e-05 0 0 -1.9332361172143659e-05 0 0 -1.9332361172143659e-05 0 0 -1.9249032047300447e-05 0 0 -1.9249032047300447e-05 0 0 -1.9165702922457237e-05 0 0 -1.9165702922457237e-05 0 0 -1.9082373797614028e-05 0 0 -1.9082373797614028e-05 0 0 -1.8999044672770822e-05 0 0 -2.0248981545418488e-05 0 0 -2.0165652420575336e-05 0 0 -2.0165652420575336e-05 0 0 -2.0082323295732187e-05 0 0 -2.0082323295732187e-05 0 0 -1.9998994170889046e-05 0 0 -1.9998994170889046e-05 0 0 -1.9915665046045898e-05 0 0 -1.9915665046045898e-05 0 0 -1.9832335921202749e-05 0 0 -1.9832335921202749e-05 0 0 -1.9749006796359594e-05 0 0 -1.9749006796359594e-05 0 0 -1.9665677671516432e-05 0 0 -1.9665677671516432e-05 0 0 -1.958234854667326e-05 0 0 -2.0415639795104818e-05 0 0 -2.0332310670261649e-05 0 0 -2.0332310670261649e-05 0 0 -2.0248981545418488e-05 0 0 -2.0498968919948e-05 0 0 -2.0415639795104818e-05 0 0 -2.0582298044791176e-05 0 0 -2.0498968919948e-05 0 0 -2.0665627169634344e-05 0 0 -2.0582298044791176e-05 0 0 -2.0748956294477516e-05 0 0 -2.0665627169634344e-05 0 0 -2.0832285419320685e-05 0 0 -2.0748956294477516e-05 0 0 -2.091561454416385e-05 0 0 -2.0832285419320685e-05 
</DataArray>
</PointData>
<CellData Scalars="" Vectors="" Tensors="stress,">
<DataArray type="Float64" Name="stress" NumberOfComponents="9" format="ascii">
-3333.1649937317234 0 0 0 -3333.1649937317234 0 0 0 -9999.4949811951738 -3333.1649937317243 0 0 0 -3333.1649937317243 0 0 0 -9999.4949811951701 -3333.164993731727 0 0 0 -3333.164993731727 0 0 0 -9999.4949811951847 -3333.164993731727 0 0 0 -3333.164993731727 0 0 0 -9999.494981195181 -3333.1649937317234 0 0 0 -3333.1649937317234 0 0 0 -9999.494981195181 -3333.1649937317343 0 0 0 -3333.1649937317343 0 0 0 -9999.4949811952029 -3333.1649937317306 0 0 0 -3333.1649937317306 0 0 0 -9999.4949811952101 -3333.1649937317234 0 0 0 -3333.1649937317234 0 0 0 -9999.4949811951665 -3333.1649937317488 0 0 0 -3333.1649937317488 0 0 0 -9999.4949811952247 -3333.1649937317416 0 0 0 -3333.1649937317416 0 0 0 -9999.4949811952247 -3333.1649937317416 0 0 0 -3333.1649937317416 0 0 0 -9999.4949811952247 -3333.1649937317561 0 0 0 -3333.1649937317561 0 0 0 -9999.4949811952829 -3333.1649937317416 0 0 0 -3333.1649937317416 0 0 0 -9999.4949811952101 -3333.164993731727 0 0 0 -3333.164993731727 0 0 0 -9999.4949811951956 -3333.1649937317343 0 0 0 -3333.1649937317343 0 0 0 -9999.4949811951956 -3333.1649937317379 0 0 0 -3333.1649937317379 0 0 0 -9999.4949811952101 -3333.1649937317707 0 0 0 -3333.1649937317707 0 0 0 -9999.494981195312 -3333.1649937317561 0 0 0 -3333.1649937317561 0 0 0 -9999.4949811952829 -3333.1649937317416 0 0 0 -3333.1649937317416 0 0 0 -9999.4949811952538 -3333.1649937317561 0 0 0 -3333.1649937317561 0 0 0 -9999.4949811952538 -3333.1649937317343 0 0 0 -3333.1649937317343 0 0 0 -9999.4949811952247 -3333.1649937317561 0 0 0 -3333.1649937317561 0 0 0 -9999.4949811952829 -3333.1649937317634 0 0 0 -3333.1649937317634 0 0 0 -9999.494981195312 -3333.1649937317416 0 0 0 -3333.1649937317416 0 0 0 -9999.4949811952247 -3333.1649937317852 0 0 0 -3333.1649937317852 0 0 0 -9999.4949811953411 -3333.1649937317561 0 0 0 -3333.1649937317561 0 0 0 -9999.4949811952829 -3333.1649937317416 0 0 0 -3333.1649937317416 0 0 0 -9999.4949811951956 -3333.1649937317561 0 0 0 -3333.1649937317561 0 0 0 -9999.494981195312 -3333.1649937317707 0 0 0 -3333.1649937317707 0 0 0 -9999.494981195312 -3333.1649937317416 0 0 0 -3333.1649937317416 0 0 0 -9999.4949811951956 -3333.1649937317852 0 0 0 -3333.1649937317852 0 0 0 -9999.494981195312 -3333.1649937317561 0 0 0 -3333.1649937317561 0 0 0 -9999.494981195312 -3333.1649937317998 0 0 0 -3333.1649937317998 0 0 0 -9999.4949811954284 -3333.1649937318143 0 0 0 -3333.1649937318143 0 0 0 -9999.4949811954284 -3333.1649937317852 0 0 0 -3333.1649937317852 0 0 0 -9999.4949811953702 -3333.1649937318289 0 0 0 -3333.1649937318289 0 0 0 -9999.4949811954284 -3333.1649937317998 0 0 0 -3333.1649937317998 0 0 0 -9999.4949811954284 -3333.1649937318143 0 0 0 -3333.1649937318143 0 0 0 -9999.4949811954284 -3333.1649937317998 0 0 0 -3333.1649937317998 0 0 0 -9999.4949811954284 -3333.1649937317707 0 0 0 -3333.1649937317707 0 0 0 -9999.4949811953702 -3333.1649937317416 0 0 0 -3333.1649937317416 0 0 0 -9999.4949811952538 -3333.1649937317998 0 0 0 -3333.1649937317998 0 0 0 -9999.4949811953702 -3333.1649937317707 0 0 0 -3333.1649937317707 0 0 0 -9999.494981195312 -3333.1649937317707 0 0 0 -3333.1649937317707 0 0 0 -9999.494981195312 -3333.1649937318289 0 0 0 -3333.1649937318289 0 0 0 -9999.4949811954866 -3333.1649937317998 0 0 0 -3333.1649937317998 0 0 0 -9999.4949811953702 -3333.1649937317998 0 0 0 -3333.1649937317998 0 0 0 -9999.4949811953702 -3333.1649937319162 0 0 0 -3333.1649937319162 0 0 0 -9999.4949811957777 -3333.164993731858 0 0 0 -3333.164993731858 0 0 0 -9999.4949811955448 -3333.1649937317998 0 0 0 -3333.1649937317998 0 0 0 -9999.4949811954284 -3333.1649937319453 0 0 0 -3333.1649937319453 0 0 0 -9999.4949811957777 -3333.1649937319162 0 0 0 -3333.1649937319162 0 0 0 -9999.4949811957777 -3333.1649937317998 0 0 0 -3333.1649937317998 0 0 0 -9999.4949811954284 -3333.1649937318871 0 0 0 -3333.1649937318871 0 0 0 -9999.4949811955448 -3333.1649937318289 0 0 0 -3333.1649937318289 0 0 0 -9999.4949811955448 -3333.1649937317707 0 0 0 -3333.1649937317707 0 0 0 -9999.494981195312 -3333.164993731858 0 0 0 -3333.164993731858 0 0 0 -9999.4949811955448 -3333.1649937318289 0 0 0 -3333.1649937318289 0 0 0 -9999.4949811954284 -3333.1649937318289 0 0 0 -3333.1649937318289 0 0 0 -9999.4949811954866 -3333.1649937318289 0 0 0 -3333.1649937318289 0 0 0 -9999.4949811955448 -3333.1649937317998 0 0 0 -3333.1649937317998 0 0 0 -9999.4949811954284 -3333.164993731858 0 0 0 -3333.164993731858 0 0 0 -9999.494981195603 -3333.1649937328184 0 0 0 -3333.1649937328184 0 0 0 -9999.494981198106 -3333.1649937328184 0 0 0 -3333.1649937328184 0 0 0 -9999.4949811983388 -3333.1649937328184 0 0 0 -3333.1649937328184 0 0 0 -9999.4949811985716 -3333.1649937327602 0 0 0 -3333.1649937327602 0 0 0 -9999.494981198106 -3333.1649937328766 0 0 0 -3333.1649937328766 0 0 0 -9999.4949811988045 -3333.1649937329348 0 0 0 -3333.1649937329348 0 0 0 -9999.4949811988045 -3333.1649937328184 0 0 0 -3333.1649937328184 0 0 0 -9999.4949811985716 -3333.1649937330512 0 0 0 -3333.1649937330512 0 0 0 -9999.4949811990373 -3333.1649937325856 0 0 0 -3333.1649937325856 0 0 0 -9999.4949811976403 -3333.1649937326438 0 0 0 -3333.1649937326438 0 0 0 -9999.4949811978731 -3333.164993732702 0 0 0 -3333.164993732702 0 0 0 -9999.494981198106 -3333.1649937325856 0 0 0 -3333.1649937325856 0 0 0 -9999.4949811978731 -3333.1649937327602 0 0 0 -3333.1649937327602 0 0 0 -9999.4949811983388 -3333.1649937326438 0 0 0 -3333.1649937326438 0 0 0 -9999.4949811978731 -3333.1649937328184 0 0 0 -3333.1649937328184 0 0 0 -9999.4949811983388 -3333.1649937327602 0 0 0 -3333.1649937327602 0 0 0 -9999.4949811983388 -3333.1649937325274 0 0 0 -3333.1649937325274 0 0 0 -9999.4949811976403 -3333.1649937325274 0 0 0 -3333.1649937325274 0 0 0 -9999.4949811976403 -3333.1649937324692 0 0 0 -3333.1649937324692 0 0 0 -9999.4949811976403 -3333.1649937326438 0 0 0 -3333.1649937326438 0 0 0 -9999.4949811978731 -3333.1649937325274 0 0 0 -3333.1649937325274 0 0 0 -9999.4949811976403 -3333.1649937325274 0 0 0 -3333.1649937325274 0 0 0 -9999.4949811976403 -3333.164993732702 0 0 0 -3333.164993732702 0 0 0 -9999.494981198106 -3333.1649937323527 0 0 0 -3333.1649937323527 0 0 0 -9999.4949811970582 -3333.1649937323527 0 0 0 -3333.1649937323527 0 0 0 -9999.4949811971746 -3333.1649937322945 0 0 0 -3333.1649937322945 0 0 0 -9999.4949811969418 -3333.1649937324109 0 0 0 -3333.1649937324109 0 0 0 -9999.4949811971746 -3333.1649937324692 0 0 0 -3333.1649937324692 0 0 0 -9999.4949811974075 -3333.1649937324109 0 0 0 -3333.1649937324109 0 0 0 -9999.4949811972911 -3333.1649937324109 0 0 0 -3333.1649937324109 0 0 0 -9999.4949811971746 -3333.1649937324692 0 0 0 -3333.1649937324692 0 0 0 -9999.4949811974075 -3333.1649937322945 0 0 0 -3333.1649937322945 0 0 0 -9999.4949811968254 -3333.1649937321781 0 0 0 -3333.1649937321781 0 0 0 -9999.4949811965926 -3333.1649937323527 0 0 0 -3333.1649937323527 0 0 0 -9999.4949811971746 -3333.1649937322945 0 0 0 -3333.1649937322945 0 0 0 -9999.4949811969418 -3333.1649937322945 0 0 0 -3333.1649937322945 0 0 0 -9999.4949811969418 -3333.1649937322945 0 0 0 -3333.1649937322945 0 0 0 -9999.4949811968254 -3333.1649937322945 0 0 0 -3333.1649937322945 0 0 0 -9999.4949811970582 -3333.1649937323527 0 0 0 -3333.1649937323527 0 0 0 -9999.4949811969418 -3333.1649937321781 0 0 0 -3333.1649937321781 0 0 0 -9999.4949811964761 -3333.1649937321781 0 0 0 -3333.1649937321781 0 0 0 -9999.4949811965926 -3333.1649937321781 0 0 0 -3333.1649937321781 0 0 0 -9999.4949811965926 -3333.1649937321781 0 0 0 -3333.1649937321781 0 0 0 -9999.4949811965926 -3333.1649937321199 0 0 0 -3333.1649937321199 0 0 0 -9999.4949811964761 -3333.1649937321781 0 0 0 -3333.1649937321781 0 0 0 -9999.4949811965926 -3333.1649937322363 0 0 0 -3333.1649937322363 0 0 0 -9999.494981196709 -3333.1649937321781 0 0 0 -3333.1649937321781 0 0 0 -9999.4949811964761 -3333.1649937320617 0 0 0 -3333.1649937320617 0 0 0 -9999.4949811962433 -3333.1649937320908 0 0 0 -3333.1649937320908 0 0 0 -9999.4949811962433 -3333.1649937320326 0 0 0 -3333.1649937320326 0 0 0 -9999.4949811960105 -3333.1649937320326 0 0 0 -3333.1649937320326 0 0 0 -9999.4949811960105 -3333.1649937320908 0 0 0 -3333.1649937320908 0 0 0 -9999.4949811962433 -3333.1649937320326 0 0 0 -3333.1649937320326 0 0 0 -9999.4949811961269 -3333.1649937321199 0 0 0 -3333.1649937321199 0 0 0 -9999.4949811962433 -3333.1649937321199 0 0 0 -3333.1649937321199 0 0 0 -9999.4949811963597 -3333.1649937319453 0 0 0 -3333.1649937319453 0 0 0 -9999.4949811958941 -3333.1649937319744 0 0 0 -3333.1649937319744 0 0 0 -9999.4949811958941 -3333.1649937319453 0 0 0 -3333.1649937319453 0 0 0 -9999.4949811958941 -3333.1649937319453 0 0 0 -3333.1649937319453 0 0 0 -9999.4949811957777 -3333.1649937320326 0 0 0 -3333.1649937320326 0 0 0 -9999.4949811961269 -3333.1649937320326 0 0 0 -3333.1649937320326 0 0 0 -9999.4949811961269 -3333.1649937320035 0 0 0 -3333.1649937320035 0 0 0 -9999.4949811961269 -3333.1649937320035 0 0 0 -3333.1649937320035 0 0 0 -9999.4949811958941 -3333.1649937342154 0 0 0 -3333.1649937342154 0 0 0 -9999.4949812025297 -3333.1649937343318 0 0 0 -3333.1649937343318 0 0 0 -9999.4949812029954 -3333.1649937344482 0 0 0 -3333.1649937344482 0 0 0 -9999.4949812032282 -3333.164993734099 0 0 0 -3333.164993734099 0 0 0 -9999.4949812025297 -3333.1649937343318 0 0 0 -3333.1649937343318 0 0 0 -9999.4949812027626 -3333.1649937344482 0 0 0 -3333.1649937344482 0 0 0 -9999.4949812034611 -3333.1649937347975 0 0 0 -3333.1649937347975 0 0 0 -9999.4949812039267 -3333.164993734099 0 0 0 -3333.164993734099 0 0 0 -9999.4949812020641 -3333.1649937339826 0 0 0 -3333.1649937339826 0 0 0 -9999.4949812020641 -3333.164993734099 0 0 0 -3333.164993734099 0 0 0 -9999.4949812022969 -3333.164993734099 0 0 0 -3333.164993734099 0 0 0 -9999.4949812025297 -3333.1649937342154 0 0 0 -3333.1649937342154 0 0 0 -9999.4949812022969 -3333.164993734099 0 0 0 -3333.164993734099 0 0 0 -9999.4949812025297 -3333.1649937343318 0 0 0 -3333.1649937343318 0 0 0 -9999.4949812027626 -3333.1649937342154 0 0 0 -3333.1649937342154 0 0 0 -9999.4949812029954 -3333.1649937337497 0 0 0 -3333.1649937337497 0 0 0 -9999.4949812011328 -3333.1649937337497 0 0 0 -3333.1649937337497 0 0 0 -9999.4949812013656 -3333.1649937337497 0 0 0 -3333.1649937337497 0 0 0 -9999.4949812015984 -3333.1649937338661 0 0 0 -3333.1649937338661 0 0 0 -9999.4949812013656 -3333.1649937339826 0 0 0 -3333.1649937339826 0 0 0 -9999.4949812018313 -3333.1649937339826 0 0 0 -3333.1649937339826 0 0 0 -9999.4949812018313 -3333.1649937339826 0 0 0 -3333.1649937339826 0 0 0 -9999.4949812020641 -3333.1649937339826 0 0 0 -3333.1649937339826 0 0 0 -9999.4949812020641 -3333.1649937334005 0 0 0 -3333.1649937334005 0 0 0 -9999.4949812002014 -3333.1649937334005 0 0 0 -3333.1649937334005 0 0 0 -9999.4949812002014 -3333.1649937335169 0 0 0 -3333.1649937335169 0 0 0 -9999.4949812004343 -3333.1649937332841 0 0 0 -3333.1649937332841 0 0 0 -9999.4949811999686 -3333.1649937335169 0 0 0 -3333.1649937335169 0 0 0 -9999.4949812006671 -3333.1649937336333 0 0 0 -3333.1649937336333 0 0 0 -9999.4949812006671 -3333.1649937337497 0 0 0 -3333.1649937337497 0 0 0 -9999.4949812008999 -3333.1649937336333 0 0 0 -3333.1649937336333 0 0 0 -9999.4949812008999 -3333.1649937331094 0 0 0 -3333.1649937331094 0 0 0 -9999.4949811995029 -3333.1649937330512 0 0 0 -3333.1649937330512 0 0 0 -9999.4949811992701 -3333.1649937332259 0 0 0 -3333.1649937332259 0 0 0 -9999.4949811995029 -3333.1649937330512 0 0 0 -3333.1649937330512 0 0 0 -9999.4949811992701 -3333.1649937331676 0 0 0 -3333.1649937331676 0 0 0 -9999.4949811995029 -3333.1649937331094 0 0 0 -3333.1649937331094 0 0 0 -9999.4949811992701 -3333.1649937332259 0 0 0 -3333.1649937332259 0 0 0 -9999.4949811997358 -3333.1649937333423 0 0 0 -3333.1649937333423 0 0 0 -9999.4949811999686 -3333.1649937331676 0 0 0 -3333.1649937331676 0 0 0 -9999.4949811995029 -3333.1649937331094 0 0 0 -3333.1649937331094 0 0 0 -9999.4949811992701 -3333.1649937331094 0 0 0 -3333.1649937331094 0 0 0 -9999.4949811992701 -3333.1649937331094 0 0 0 -3333.1649937331094 0 0 0 -9999.4949811995029 -3333.164993732993 0 0 0 -3333.164993732993 0 0 0 -9999.4949811990373 -3333.1649937331094 0 0 0 -3333.1649937331094 0 0 0 -9999.4949811992701 -3333.1649937331676 0 0 0 -3333.1649937331676 0 0 0 -9999.4949811995029 -3333.1649937331676 0 0 0 -3333.1649937331676 0 0 0 -9999.4949811995029 -3333.164993732993 0 0 0 -3333.164993732993 0 0 0 -9999.4949811988045 -3333.1649937331094 0 0 0 -3333.1649937331094 0 0 0 -9999.4949811995029 -3333.1649937331676 0 0 0 -3333.1649937331676 0 0 0 -9999.4949811992701 -3333.1649937332259 0 0 0 -3333.1649937332259 0 0 0 -9999.4949811997358 -3333.1649937331676 0 0 0 -3333.1649937331676 0 0 0 -9999.4949811995029 -3333.1649937332841 0 0 0 -3333.1649937332841 0 0 0 -9999.4949811999686 -3333.1649937331094 0 0 0 -3333.1649937331094 0 0 0 -9999.4949811995029 -3333.1649937330512 0 0 0 -3333.1649937330512 0 0 0 -9999.4949811990373 -3333.164993732993 0 0 0 -3333.164993732993 0 0 0 -9999.4949811990373 -3333.1649937331094 0 0 0 -3333.1649937331094 0 0 0 -9999.4949811992701 -3333.1649937331676 0 0 0 -3333.1649937331676 0 0 0 -9999.4949811995029 -3333.1649937330512 0 0 0 -3333.1649937330512 0 0 0 -9999.4949811992701 -3333.1649937330512 0 0 0 -3333.1649937330512 0 0 0 -9999.4949811990373 -3333.1649937330512 0 0 0 -3333.1649937330512 0 0 0 -9999.4949811992701 -3333.1649937331094 0 0 0 -3333.1649937331094 0 0 0 -9999.4949811992701 -3333.1649937343318 0 0 0 -3333.1649937343318 0 0 0 -9999.4949812029954 -3333.1649937343318 0 0 0 -3333.1649937343318 0 0 0 -9999.4949812027626 -3333.1649937343318 0 0 0 -3333.1649937343318 0 0 0 -9999.4949812027626 -3333.1649937344482 0 0 0 -3333.1649937344482 0 0 0 -9999.4949812034611 -3333.164993734681 0 0 0 -3333.164993734681 0 0 0 -9999.4949812041596 -3333.1649937344482 0 0 0 -3333.1649937344482 0 0 0 -9999.4949812034611 -3333.1649937347975 0 0 0 -3333.1649937347975 0 0 0 -9999.4949812041596 -3333.1649937345646 0 0 0 -3333.1649937345646 0 0 0 -9999.4949812036939 -3333.1649937345646 0 0 0 -3333.1649937345646 0 0 0 -9999.4949812036939 -3333.1649937344482 0 0 0 -3333.1649937344482 0 0 0 -9999.4949812034611 -3333.1649937345646 0 0 0 -3333.1649937345646 0 0 0 -9999.4949812036939 -3333.1649937345646 0 0 0 -3333.1649937345646 0 0 0 -9999.4949812036939 -3333.1649937347975 0 0 0 -3333.1649937347975 0 0 0 -9999.4949812041596 -3333.1649937345646 0 0 0 -3333.1649937345646 0 0 0 -9999.4949812036939 -3333.164993734681 0 0 0 -3333.164993734681 0 0 0 -9999.4949812043924 -3333.1649937347975 0 0 0 -3333.1649937347975 0 0 0 -9999.4949812043924 -3333.1649937343318 0 0 0 -3333.1649937343318 0 0 0 -9999.4949812027626 -3333.1649937342154 0 0 0 -3333.1649937342154 0 0 0 -9999.4949812025297 -3333.1649937343318 0 0 0 -3333.1649937343318 0 0 0 -9999.4949812029954 -3333.1649937344482 0 0 0 -3333.1649937344482 0 0 0 -9999.4949812034611 -3333.1649937343318 0 0 0 -3333.1649937343318 0 0 0 -9999.4949812029954 -3333.1649937342154 0 0 0 -3333.1649937342154 0 0 0 -9999.4949812029954 -3333.1649937339826 0 0 0 -3333.1649937339826 0 0 0 -9999.4949812022969 -3333.164993734099 0 0 0 -3333.164993734099 0 0 0 -9999.4949812018313 -3333.1649937338661 0 0 0 -3333.1649937338661 0 0 0 -9999.4949812018313 -3333.1649937339826 0 0 0 -3333.1649937339826 0 0 0 -9999.4949812022969 -3333.1649937337497 0 0 0 -3333.1649937337497 0 0 0 -9999.4949812013656 -3333.164993734099 0 0 0 -3333.164993734099 0 0 0 -9999.4949812018313 -3333.1649937338661 0 0 0 -3333.1649937338661 0 0 0 -9999.4949812013656 -3333.1649937337497 0 0 0 -3333.1649937337497 0 0 0 -9999.4949812013656 -3333.1649937339826 0 0 0 -3333.1649937339826 0 0 0 -9999.4949812018313 -3333.1649937337497 0 0 0 -3333.1649937337497 0 0 0 -9999.4949812013656 -3333.1649937337497 0 0 0 -3333.1649937337497 0 0 0 -9999.4949812013656 -3333.1649937337497 0 0 0 -3333.1649937337497 0 0 0 -9999.4949812013656 -3333.1649937337497 0 0 0 -3333.1649937337497 0 0 0 -9999.4949812013656 -3333.1649937336333 0 0 0 -3333.1649937336333 0 0 0 -9999.4949812008999 -3333.1649937337497 0 0 0 -3333.1649937337497 0 0 0 -9999.4949812013656 -3333.1649937334005 0 0 0 -3333.1649937334005 0 0 0 -9999.4949812004343 -3333.1649937334005 0 0 0 -3333.1649937334005 0 0 0 -9999.4949812004343 -3333.1649937331676 0 0 0 -3333.1649937331676 0 0 0 -9999.4949811995029 -3333.1649937334005 0 0 0 -3333.1649937334005 0 0 0 -9999.4949812004343 -3333.1649937334005 0 0 0 -3333.1649937334005 0 0 0 -9999.4949812004343 -3333.1649937335169 0 0 0 -3333.1649937335169 0 0 0 -9999.4949812004343 -3333.1649937336333 0 0 0 -3333.1649937336333 0 0 0 -9999.4949812004343 -3333.1649937335169 0 0 0 -3333.1649937335169 0 0 0 -9999.4949812004343 -3333.1649937334005 0 0 0 -3333.1649937334005 0 0 0 -9999.4949812004343 -3333.1649937334005 0 0 0 -3333.1649937334005 0 0 0 -9999.4949811999686 -3333.1649937331676 0 0 0 -3333.1649937331676 0 0 0 -9999.4949811995029 -3333.1649937331676 0 0 0 -3333.1649937331676 0 0 0 -9999.4949811990373 -3333.1649937330512 0 0 0 -3333.1649937330512 0 0 0 -9999.4949811990373 -3333.1649937334005 0 0 0 -3333.1649937334005 0 0 0 -9999.4949811999686 -3333.1649937332841 0 0 0 -3333.1649937332841 0 0 0 -9999.4949811999686 -3333.1649937334005 0 0 0 -3333.1649937334005 0 0 0 -9999.4949812004343 -3333.1649937332841 0 0 0 -3333.1649937332841 0 0 0 -9999.4949811995029 -3333.1649937332841 0 0 0 -3333.1649937332841 0 0 0 -9999.4949811995029 -3333.1649937332841 0 0 0 -3333.1649937332841 0 0 0 -9999.4949811999686 -3333.1649937331676 0 0 0 -3333.1649937331676 0 0 0 -9999.4949811995029 -3333.1649937335169 0 0 0 -3333.1649937335169 0 0 0 -9999.4949812004343 -3333.1649937332841 0 0 0 -3333.1649937332841 0 0 0 -9999.4949811999686 -3333.1649937329348 0 0 0 -3333.1649937329348 0 0 0 -9999.4949811990373 -3333.1649937331676 0 0 0 -3333.1649937331676 0 0 0 -9999.4949811990373 -3333.1649937330512 0 0 0 -3333.1649937330512 0 0 0 -9999.4949811990373 -3333.1649937329348 0 0 0 -3333.1649937329348 0 0 0 -9999.4949811990373 
</DataArray>
</CellData>
</Piece>
</UnstructuredGrid>
</VTKFile>
