<?xml version="1.0"?>
<VTKFile type="UnstructuredGrid" version="0.1" byte_order="LittleEndian">
<UnstructuredGrid>
<Piece NumberOfPoints="500" NumberOfCells="250">
<Points>
<DataArray type="Float64" NumberOfComponents="3" format="ascii">
0 0 0 0 0 -0.00099999999999810158 0 0 -0.00099999999999810158 0 0 -0.001999999999996204 0 0 -0.001999999999996204 0 0 -0.0029999999999943271 0 0 -0.0029999999999943271 0 0 -0.0039999999999924488 0 0 -0.0039999999999924488 0 0 -0.004999999999990571 0 0 -0.004999999999990571 0 0 -0.0059999999999886811 0 0 -0.0059999999999886811 0 0 -0.0069999999999867156 0 0 -0.0069999999999867156 0 0 -0.007999999999984719 0 0 -0.007999999999984719 0 0 -0.008999999999982581 0 0 -0.008999999999982581 0 0 -0.0099999999999804221 0 0 -0.0099999999999804221 0 0 -0.010999999999978201 0 0 -0.010999999999978201 0 0 -0.011999999999975971 0 0 -0.011999999999975971 0 0 -0.01299999999997375 0 0 -0.01299999999997375 0 0 -0.01399999999997158 0 0 -0.01399999999997158 0 0 -0.014999999999969531 0 0 -0.014999999999969531 0 0 -0.01599999999996761 0 0 -0.01599999999996761 0 0 -0.0169999999999659 0 0 -0.0169999999999659 0 0 -0.01799999999996427 0 0 -0.01799999999996427 0 0 -0.018999999999962731 0 0 -0.018999999999962731 0 0 -0.019999999999961209 0 0 -0.019999999999961209 0 0 -0.020999999999959669 0 0 -0.020999999999959669 0 0 -0.02199999999995814 0 0 -0.02199999999995814 0 0 -0.022999999999956611 0 0 -0.022999999999956611 0 0 -0.023999999999955082 0 0 -0.023999999999955082 0 0 -0.024999999999953549 0 0 -0.024999999999953549 0 0 -0.02599999999995202 0 0 -0.02599999999995202 0 0 -0.02699999999995048 0 0 -0.02699999999995048 0 0 -0.027999999999948951 0 0 -0.027999999999948951 0 0 -0.028999999999947419 0 0 -0.028999999999947419 0 0 -0.02999999999994565 0 0 -0.02999999999994565 0 0 -0.03099999999994377 0 0 -0.03099999999994377 0 0 -0.031999999999941367 0 0 -0.031999999999941367 0 0 -0.032999999999938787 0 0 -0.032999999999938787 0 0 -0.033999999999935943 0 0 -0.033999999999935943 0 0 -0.034999999999933022 0 0 -0.034999999999933022 0 0 -0.035999999999930102 0 0 -0.035999999999930102 0 0 -0.036999999999927188 0 0 -0.036999999999927188 0 0 -0.037999999999924268 0 0 -0.037999999999924268 0 0 -0.038999999999921348 0 0 -0.038999999999921348 0 0 -0.039999999999918427 0 0 -0.039999999999918427 0 0 -0.040999999999915507 0 0 -0.040999999999915507 0 0 -0.041999999999912593 0 0 -0.041999999999912593 0 0 -0.042999999999909673 0 0 -0.042999999999909673 0 0 -0.043999999999906753 0 0 -0.043999999999906753 0 0 -0.044999999999903832 0 0 -0.044999999999903832 0 0 -0.045999999999900919 0 0 -0.045999999999900919 0 0 -0.046999999999897998 0 0 -0.046999999999897998 0 0 -0.047999999999895078 0 0 -0.047999999999895078 0 0 -0.048999999999892158 0 0 -0.048999999999892158 0 0 -0.049999999999889237 0 0 -0.049999999999889237 0 0 -0.050999999999886317 0 0 -0.050999999999886317 0 0 -0.051999999999883403 0 0 -0.051999999999883403 0 0 -0.052999999999880483 0 0 -0.052999999999880483 0 0 -0.053999999999877563 0 0 -0.053999999999877563 0 0 -0.054999999999874642 0 0 -0.054999999999874642 0 0 -0.055999999999871722 0 0 -0.055999999999871722 0 0 -0.056999999999868801 0 0 -0.056999999999868801 0 0 -0.057999999999865881 0 0 -0.057999999999865881 0 0 -0.058999999999862961 0 0 -0.058999999999862961 0 0 -0.059999999999860047 0 0 -0.059999999999860047 0 0 -0.060999999999857127 0 0 -0.060999999999857127 0 0 -0.061999999999854213 0 0 -0.061999999999854213 0 0 -0.062999999999851286 0 0 -0.062999999999851286 0 0 -0.063999999999848373 0 0 -0.063999999999848373 0 0 -0.064999999999845445 0 0 -0.064999999999845445 0 0 -0.065999999999842532 0 0 -0.065999999999842532 0 0 -0.066999999999839618 0 0 -0.066999999999839618 0 0 -0.067999999999836705 0 0 -0.067999999999836705 0 0 -0.068999999999833792 0 0 -0.068999999999833792 0 0 -0.069999999999830878 0 0 -0.069999999999830878 0 0 -0.070999999999827965 0 0 -0.070999999999827965 0 0 -0.071999999999825051 0 0 -0.071999999999825051 0 0 -0.072999999999822124 0 0 -0.072999999999822124 0 0 -0.07399999999981921 0 0 -0.07399999999981921 0 0 -0.074999999999816297 0 0 -0.074999999999816297 0 0 -0.075999999999813383 0 0 -0.075999999999813383 0 0 -0.07699999999981047 0 0 -0.07699999999981047 0 0 -0.077999999999807557 0 0 -0.077999999999807557 0 0 -0.078999999999804643 0 0 -0.078999999999804643 0 0 -0.07999999999980173 0 0 -0.07999999999980173 0 0 -0.080999999999798802 0 0 -0.080999999999798802 0 0 -0.081999999999795889 0 0 -0.081999999999795889 0 0 -0.082999999999792975 0 0 -0.082999999999792975 0 0 -0.083999999999790062 0 0 -0.083999999999790062 0 0 -0.084999999999787149 0 0 -0.084999999999787149 0 0 -0.085999999999784235 0 0 -0.085999999999784235 0 0 -0.086999999999781322 0 0 -0.086999999999781322 0 0 -0.087999999999778394 0 0 -0.087999999999778394 0 0 -0.088999999999775481 0 0 -0.088999999999775481 0 0 -0.089999999999772567 0 0 -0.089999999999772567 0 0 -0.090999999999769654 0 0 -0.090999999999769654 0 0 -0.091999999999766741 0 0 -0.091999999999766741 0 0 -0.092999999999763827 0 0 -0.092999999999763827 0 0 -0.093999999999760914 0 0 -0.093999999999760914 0 0 -0.094999999999758 0 0 -0.094999999999758 0 0 -0.095999999999755073 0 0 -0.095999999999755073 0 0 -0.096999999999752159 0 0 -0.096999999999752159 0 0 -0.097999999999749246 0 0 -0.097999999999749246 0 0 -0.098999999999746333 0 0 -0.098999999999746333 0 0 -0.099999999999743419 0 0 -0.099999999999743419 0 0 -0.10099999999974051 0 0 -0.10099999999974051 0 0 -0.10199999999973761 0 0 -0.10199999999973761 0 0 -0.10299999999973471 0 0 -0.10299999999973471 0 0 -0.10399999999973179 0 0 -0.10399999999973179 0 0 -0.1049999999997288 0 0 -0.1049999999997288 0 0 -0.1059999999997259 0 0 -0.1059999999997259 0 0 -0.106999999999723 0 0 -0.106999999999723 0 0 -0.1079999999997201 0 0 -0.1079999999997201 0 0 -0.1089999999997172 0 0 -0.1089999999997172 0 0 -0.1099999999997143 0 0 -0.1099999999997143 0 0 -0.1109999999997113 0 0 -0.1109999999997113 0 0 -0.1119999999997084 0 0 -0.1119999999997084 0 0 -0.1129999999997055 0 0 -0.1129999999997055 0 0 -0.1139999999997026 0 0 -0.1139999999997026 0 0 -0.1149999999996997 0 0 -0.1149999999996997 0 0 -0.1159999999996968 0 0 -0.1159999999996968 0 0 -0.11699999999969379 0 0 -0.11699999999969379 0 0 -0.11799999999969089 0 0 -0.11799999999969089 0 0 -0.11899999999968799 0 0 -0.11899999999968799 0 0 -0.11999999999968509 0 0 -0.11999999999968509 0 0 -0.1209999999996822 0 0 -0.1209999999996822 0 0 -0.1219999999996793 0 0 -0.1219999999996793 0 0 -0.1229999999996764 0 0 -0.1229999999996764 0 0 -0.1239999999996748 0 0 -0.1239999999996748 0 0 -0.12499999999967321 0 0 -0.12499999999967321 0 0 -0.12599999999967451 0 0 -0.12599999999967451 0 0 -0.12699999999967579 0 0 -0.12699999999967579 0 0 -0.1279999999996784 0 0 -0.1279999999996784 0 0 -0.12899999999968109 0 0 -0.12899999999968109 0 0 -0.1299999999996837 0 0 -0.1299999999996837 0 0 -0.13099999999968631 0 0 -0.13099999999968631 0 0 -0.13199999999968889 0 0 -0.13199999999968889 0 0 -0.13299999999969159 0 0 -0.13299999999969159 0 0 -0.1339999999996942 0 0 -0.1339999999996942 0 0 -0.13499999999969689 0 0 -0.13499999999969689 0 0 -0.1359999999996995 0 0 -0.1359999999996995 0 0 -0.13699999999970211 0 0 -0.13699999999970211 0 0 -0.1379999999997048 0 0 -0.1379999999997048 0 0 -0.13899999999970741 0 0 -0.13899999999970741 0 0 -0.13999999999971011 0 0 -0.13999999999971011 0 0 -0.14099999999971269 0 0 -0.14099999999971269 0 0 -0.1419999999997153 0 0 -0.1419999999997153 0 0 -0.14299999999971799 0 0 -0.14299999999971799 0 0 -0.1439999999997206 0 0 -0.1439999999997206 0 0 -0.14499999999972321 0 0 -0.14499999999972321 0 0 -0.14599999999972579 0 0 -0.14599999999972579 0 0 -0.14699999999972849 0 0 -0.14699999999972849 0 0 -0.1479999999997311 0 0 -0.1479999999997311 0 0 -0.14899999999973379 0 0 -0.14899999999973379 0 0 -0.1499999999997364 0 0 -0.1499999999997364 0 0 -0.15099999999973901 0 0 -0.15099999999973901 0 0 -0.1519999999997417 0 0 -0.1519999999997417 0 0 -0.15299999999974431 0 0 -0.15299999999974431 0 0 -0.15399999999974701 0 0 -0.15399999999974701 0 0 -0.15499999999974959 0 0 -0.15499999999974959 0 0 -0.1559999999997522 0 0 -0.1559999999997522 0 0 -0.15699999999975489 0 0 -0.15699999999975489 0 0 -0.1579999999997575 0 0 -0.1579999999997575 0 0 -0.15899999999976011 0 0 -0.15899999999976011 0 0 -0.1599999999997628 0 0 -0.1599999999997628 0 0 -0.16099999999976539 0 0 -0.16099999999976539 0 0 -0.161999999999768 0 0 -0.161999999999768 0 0 -0.16299999999977069 0 0 -0.16299999999977069 0 0 -0.1639999999997733 0 0 -0.1639999999997733 0 0 -0.16499999999977599 0 0 -0.16499999999977599 0 0 -0.1659999999997786 0 0 -0.1659999999997786 0 0 -0.16699999999978121 0 0 -0.16699999999978121 0 0 -0.16799999999978391 0 0 -0.16799999999978391 0 0 -0.16899999999978649 0 0 -0.16899999999978649 0 0 -0.1699999999997891 0 0 -0.1699999999997891 0 0 -0.17099999999979171 0 0 -0.17099999999979171 0 0 -0.1719999999997944 0 0 -0.1719999999997944 0 0 -0.17299999999979701 0 0 -0.17299999999979701 0 0 -0.1739999999997997 0 0 -0.1739999999997997 0 0 -0.17499999999980231 0 0 -0.17499999999980231 0 0 -0.17599999999980501 0 0 -0.17599999999980501 0 0 -0.17699999999980759 0 0 -0.17699999999980759 0 0 -0.1779999999998102 0 0 -0.1779999999998102 0 0 -0.17899999999981281 0 0 -0.17899999999981281 0 0 -0.1799999999998155 0 0 -0.1799999999998155 0 0 -0.18099999999981811 0 0 -0.18099999999981811 0 0 -0.18199999999982069 0 0 -0.18199999999982069 0 0 -0.18299999999982339 0 0 -0.18299999999982339 0 0 -0.183999999999826 0 0 -0.183999999999826 0 0 -0.18499999999982869 0 0 -0.18499999999982869 0 0 -0.1859999999998313 0 0 -0.1859999999998313 0 0 -0.18699999999983391 0 0 -0.18699999999983391 0 0 -0.1879999999998366 0 0 -0.1879999999998366 0 0 -0.18899999999983921 0 0 -0.18899999999983921 0 0 -0.18999999999984191 0 0 -0.18999999999984191 0 0 -0.19099999999984449 0 0 -0.19099999999984449 0 0 -0.1919999999998471 0 0 -0.1919999999998471 0 0 -0.19299999999984971 0 0 -0.19299999999984971 0 0 -0.1939999999998524 0 0 -0.1939999999998524 0 0 -0.19499999999985501 0 0 -0.19499999999985501 0 0 -0.1959999999998577 0 0 -0.1959999999998577 0 0 -0.19699999999986029 0 0 -0.19699999999986029 0 0 -0.19799999999986301 0 0 -0.19799999999986301 0 0 -0.19899999999986559 0 0 -0.19899999999986559 0 0 -0.1999999999998682 0 0 -0.1999999999998682 0 0 -0.20099999999987081 0 0 -0.20099999999987081 0 0 -0.2019999999998735 0 0 -0.2019999999998735 0 0 -0.20299999999987611 0 0 -0.20299999999987611 0 0 -0.20399999999987881 0 0 -0.20399999999987881 0 0 -0.20499999999988139 0 0 -0.20499999999988139 0 0 -0.205999999999884 0 0 -0.205999999999884 0 0 -0.20699999999988669 0 0 -0.20699999999988669 0 0 -0.2079999999998893 0 0 -0.2079999999998893 0 0 -0.20899999999989191 0 0 -0.20899999999989191 0 0 -0.2099999999998946 0 0 -0.2099999999998946 0 0 -0.21099999999989719 0 0 -0.21099999999989719 0 0 -0.21199999999989991 0 0 -0.21199999999989991 0 0 -0.21299999999990249 0 0 -0.21299999999990249 0 0 -0.2139999999999051 0 0 -0.2139999999999051 0 0 -0.21499999999990771 0 0 -0.21499999999990771 0 0 -0.2159999999999104 0 0 -0.2159999999999104 0 0 -0.21699999999991301 0 0 -0.21699999999991301 0 0 -0.21799999999991571 0 0 -0.21799999999991571 0 0 -0.21899999999991829 0 0 -0.21899999999991829 0 0 -0.2199999999999209 0 0 -0.2199999999999209 0 0 -0.22099999999992359 0 0 -0.22099999999992359 0 0 -0.2219999999999262 0 0 -0.2219999999999262 0 0 -0.22299999999992881 0 0 -0.22299999999992881 0 0 -0.22399999999993139 0 0 -0.22399999999993139 0 0 -0.22499999999993411 0 0 -0.22499999999993411 0 0 -0.2259999999999367 0 0 -0.2259999999999367 0 0 -0.22699999999993939 0 0 -0.22699999999993939 0 0 -0.227999999999942 0 0 -0.227999999999942 0 0 -0.22899999999994469 0 0 -0.22899999999994469 0 0 -0.2299999999999473 0 0 -0.2299999999999473 0 0 -0.23099999999994991 0 0 -0.23099999999994991 0 0 -0.23199999999995249 0 0 -0.23199999999995249 0 0 -0.23299999999995519 0 0 -0.23299999999995519 0 0 -0.2339999999999578 0 0 -0.2339999999999578 0 0 -0.23499999999996049 0 0 -0.23499999999996049 0 0 -0.2359999999999631 0 0 -0.2359999999999631 0 0 -0.23699999999996571 0 0 -0.23699999999996571 0 0 -0.2379999999999684 0 0 -0.2379999999999684 0 0 -0.23899999999997101 0 0 -0.23899999999997101 0 0 -0.2399999999999736 0 0 -0.2399999999999736 0 0 -0.24099999999997629 0 0 -0.24099999999997629 0 0 -0.2419999999999789 0 0 -0.2419999999999789 0 0 -0.24299999999998159 0 0 -0.24299999999998159 0 0 -0.2439999999999842 0 0 -0.2439999999999842 0 0 -0.24499999999998681 0 0 -0.24499999999998681 0 0 -0.24599999999998939 0 0 -0.24599999999998939 0 0 -0.24699999999999209 0 0 -0.24699999999999209 0 0 -0.2479999999999947 0 0 -0.2479999999999947 0 0 -0.24899999999999739 0 0 -0.24899999999999739 0 0 -0.25 
</DataArray>
</Points>
<Cells>
<DataArray type="UInt32" Name="connectivity" format="ascii">
0 1 2 3 4 5 6 7 8 9 10 11 12 13 14 15 16 17 18 19 20 21 22 23 24 25 26 27 28 29 30 31 32 33 34 35 36 37 38 39 40 41 42 43 44 45 46 47 48 49 50 51 52 53 54 55 56 57 58 59 60 61 62 63 64 65 66 67 68 69 70 71 72 73 74 75 76 77 78 79 80 81 82 83 84 85 86 87 88 89 90 91 92 93 94 95 96 97 98 99 100 101 102 103 104 105 106 107 108 109 110 111 112 113 114 115 116 117 118 119 120 121 122 123 124 125 126 127 128 129 130 131 132 133 134 135 136 137 138 139 140 141 142 143 144 145 146 147 148 149 150 151 152 153 154 155 156 157 158 159 160 161 162 163 164 165 166 167 168 169 170 171 172 173 174 175 176 177 178 179 180 181 182 183 184 185 186 187 188 189 190 191 192 193 194 195 196 197 198 199 200 201 202 203 204 205 206 207 208 209 210 211 212 213 214 215 216 217 218 219 220 221 222 223 224 225 226 227 228 229 230 231 232 233 234 235 236 237 238 239 240 241 242 243 244 245 246 247 248 249 250 251 252 253 254 255 256 257 258 259 260 261 262 263 264 265 266 267 268 269 270 271 272 273 274 275 276 277 278 279 280 281 282 283 284 285 286 287 288 289 290 291 292 293 294 295 296 297 298 299 300 301 302 303 304 305 306 307 308 309 310 311 312 313 314 315 316 317 318 319 320 321 322 323 324 325 326 327 328 329 330 331 332 333 334 335 336 337 338 339 340 341 342 343 344 345 346 347 348 349 350 351 352 353 354 355 356 357 358 359 360 361 362 363 364 365 366 367 368 369 370 371 372 373 374 375 376 377 378 379 380 381 382 383 384 385 386 387 388 389 390 391 392 393 394 395 396 397 398 399 400 401 402 403 404 405 406 407 408 409 410 411 412 413 414 415 416 417 418 419 420 421 422 423 424 425 426 427 428 429 430 431 432 433 434 435 436 437 438 439 440 441 442 443 444 445 446 447 448 449 450 451 452 453 454 455 456 457 458 459 460 461 462 463 464 465 466 467 468 469 470 471 472 473 474 475 476 477 478 479 480 481 482 483 484 485 486 487 488 489 490 491 492 493 494 495 496 497 498 499 
</DataArray>
<DataArray type="UInt32" Name="offsets" format="ascii">
2 4 6 8 10 12 14 16 18 20 22 24 26 28 30 32 34 36 38 40 42 44 46 48 50 52 54 56 58 60 62 64 66 68 70 72 74 76 78 80 82 84 86 88 90 92 94 96 98 100 102 104 106 108 110 112 114 116 118 120 122 124 126 128 130 132 134 136 138 140 142 144 146 148 150 152 154 156 158 160 162 164 166 168 170 172 174 176 178 180 182 184 186 188 190 192 194 196 198 200 202 204 206 208 210 212 214 216 218 220 222 224 226 228 230 232 234 236 238 240 242 244 246 248 250 252 254 256 258 260 262 264 266 268 270 272 274 276 278 280 282 284 286 288 290 292 294 296 298 300 302 304 306 308 310 312 314 316 318 320 322 324 326 328 330 332 334 336 338 340 342 344 346 348 350 352 354 356 358 360 362 364 366 368 370 372 374 376 378 380 382 384 386 388 390 392 394 396 398 400 402 404 406 408 410 412 414 416 418 420 422 424 426 428 430 432 434 436 438 440 442 444 446 448 450 452 454 456 458 460 462 464 466 468 470 472 474 476 478 480 482 484 486 488 490 492 494 496 498 500 
</DataArray>
<DataArray type="UInt32" Name="types" format="ascii">
3 3 3 3 3 3 3 3 3 3 3 3 3 3 3 3 3 3 3 3 3 3 3 3 3 3 3 3 3 3 3 3 3 3 3 3 3 3 3 3 3 3 3 3 3 3 3 3 3 3 3 3 3 3 3 3 3 3 3 3 3 3 3 3 3 3 3 3 3 3 3 3 3 3 3 3 3 3 3 3 3 3 3 3 3 3 3 3 3 3 3 3 3 3 3 3 3 3 3 3 3 3 3 3 3 3 3 3 3 3 3 3 3 3 3 3 3 3 3 3 3 3 3 3 3 3 3 3 3 3 3 3 3 3 3 3 3 3 3 3 3 3 3 3 3 3 3 3 3 3 3 3 3 3 3 3 3 3 3 3 3 3 3 3 3 3 3 3 3 3 3 3 3 3 3 3 3 3 3 3 3 3 3 3 3 3 3 3 3 3 3 3 3 3 3 3 3 3 3 3 3 3 3 3 3 3 3 3 3 3 3 3 3 3 3 3 3 3 3 3 3 3 3 3 3 3 3 3 3 3 3 3 3 3 3 3 3 3 3 3 3 3 3 3 3 3 3 3 3 3 
</DataArray>
</Cells>
<PointData Scalars="" Vectors="displacement," Tensors="">
<DataArray type="Float64" Name="displacement" NumberOfComponents="3" format="ascii">
0 0 -0.0004685066368366284 0 0 -0.00046620138715705253 0 0 -0.00046620138715705253 0 0 -0.0004639010225381935 0 0 -0.0004639010225381935 0 0 -0.00046160554239358168 0 0 -0.00046160554239358168 0 0 -0.00045931494574593832 0 0 -0.00045931494574593832 0 0 -0.00045702923122743197 0 0 -0.00045702923122743197 0 0 -0.00045474839708003692 0 0 -0.00045474839708003692 0 0 -0.0004524724411559934 0 0 -0.0004524724411559934 0 0 -0.00045020136091836926 0 0 -0.00045020136091836926 0 0 -0.00044793515344172525 0 0 -0.00044793515344172525 0 0 -0.00044567381541287752 0 0 -0.00044567381541287752 0 0 -0.00044341734313176626 0 0 -0.00044341734313176626 0 0 -0.00044116573251241903 0 0 -0.00044116573251241903 0 0 -0.00043891897908401785 0 0 -0.00043891897908401785 0 0 -0.00043667707799206393 0 0 -0.00043667707799206393 0 0 -0.00043444002399964105 0 0 -0.00043444002399964105 0 0 -0.00043220781148877807 0 0 -0.00043220781148877807 0 0 -0.00042998043446190683 0 0 -0.00042998043446190683 0 0 -0.00042775788654341812 0 0 -0.00042775788654341812 0 0 -0.00042554016098131256 0 0 -0.00042554016098131256 0 0 -0.00042332725064894532 0 0 -0.00042332725064894532 0 0 -0.00042111914804686726 0 0 -0.00042111914804686726 0 0 -0.00041891584530475632 0 0 -0.00041891584530475632 0 0 -0.00041671733418344263 0 0 -0.00041671733418344263 0 0 -0.00041452360607702383 0 0 -0.00041452360607702383 0 0 -0.00041233465201507012 0 0 -0.00041233465201507012 0 0 -0.00041015046266491828 0 0 -0.00041015046266491828 0 0 -0.0004079710283340528 0 0 -0.0004079710283340528 0 0 -0.0004057963389725732 0 0 -0.0004057963389725732 0 0 -0.00040362638417574664 0 0 -0.00040362638417574664 0 0 -0.00040146115318664499 0 0 -0.00040146115318664499 0 0 -0.00039930063489886119 0 0 -0.00039930063489886119 0 0 -0.00039714481785931092 0 0 -0.00039714481785931092 0 0 -0.00039499369027110948 0 0 -0.00039499369027110948 0 0 -0.00039284723999653018 0 0 -0.00039284723999653018 0 0 -0.00039070545456003765 0 0 -0.00039070545456003765 0 0 -0.00038856832115139638 0 0 -0.00038856832115139638 0 0 -0.00038643582662885328 0 0 -0.00038643582662885328 0 0 -0.00038430795752239169 0 0 -0.00038430795752239169 0 0 -0.0003821847000370556 0 0 -0.0003821847000370556 0 0 -0.00038006604005634288 0 0 -0.00038006604005634288 0 0 -0.00037795196314566561 0 0 -0.00037795196314566561 0 0 -0.00037584245455587535 0 0 -0.00037584245455587535 0 0 -0.0003737374992268522 0 0 -0.0003737374992268522 0 0 -0.00037163708179115547 0 0 -0.00037163708179115547 0 0 -0.00036954118657773517 0 0 -0.00036954118657773517 0 0 -0.00036744979761570075 0 0 -0.00036744979761570075 0 0 -0.0003653628986381475 0 0 -0.0003653628986381475 0 0 -0.00036328047308603617 0 0 -0.00036328047308603617 0 0 -0.0003612025041121268 0 0 -0.0003612025041121268 0 0 -0.00035912897458496309 0 0 -0.00035912897458496309 0 0 -0.00035705986709290525 0 0 -0.00035705986709290525 0 0 -0.00035499516394821111 0 0 -0.00035499516394821111 0 0 -0.00035293484719116147 0 0 -0.00035293484719116147 0 0 -0.00035087889859422978 0 0 -0.00035087889859422978 0 0 -0.00034882729966629272 0 0 -0.00034882729966629272 0 0 -0.00034678003165688093 0 0 -0.00034678003165688093 0 0 -0.00034473707556046665 0 0 -0.00034473707556046665 0 0 -0.00034269841212078775 0 0 -0.00034269841212078775 0 0 -0.00034066402183520526 0 0 -0.00034066402183520526 0 0 -0.00033863388495909257 0 0 -0.00033863388495909257 0 0 -0.00033660798151025491 0 0 -0.00033660798151025491 0 0 -0.00033458629127337629 0 0 -0.00033458629127337629 0 0 -0.00033256879380449272 0 0 -0.00033256879380449272 0 0 -0.00033055546843548995 0 0 -0.00033055546843548995 0 0 -0.00032854629427862256 0 0 -0.00032854629427862256 0 0 -0.0003265412502310534 0 0 -0.0003265412502310534 0 0 -0.00032454031497941219 0 0 -0.00032454031497941219 0 0 -0.0003225434670043691 0 0 -0.0003225434670043691 0 0 -0.00032055068458522348 0 0 -0.00032055068458522348 0 0 -0.00031856194580450554 0 0 -0.00031856194580450554 0 0 -0.00031657722855258768 0 0 -0.00031657722855258768 0 0 -0.00031459651053230534 0 0 -0.00031459651053230534 0 0 -0.00031261976926358462 0 0 -0.00031261976926358462 0 0 -0.00031064698208807463 0 0 -0.00031064698208807463 0 0 -0.00030867812617378366 0 0 -0.00030867812617378366 0 0 -0.00030671317851971579 0 0 -0.00030671317851971579 0 0 -0.00030475211596050784 0 0 -0.00030475211596050784 0 0 -0.00030279491517106355 0 0 -0.00030279491517106355 0 0 -0.00030084155267118409 0 0 -0.00030084155267118409 0 0 -0.0002988920048301926 0 0 -0.0002988920048301926 0 0 -0.00029694624787155149 0 0 -0.00029694624787155149 0 0 -0.00029500425787746994 0 0 -0.00029500425787746994 0 0 -0.00029306601079350127 0 0 -0.00029306601079350127 0 0 -0.00029113148243312695 0 0 -0.00029113148243312695 0 0 -0.00028920064848232636 0 0 -0.00028920064848232636 0 0 -0.00028727348450413137 0 0 -0.00028727348450413137 0 0 -0.00028534996594316254 0 0 -0.00028534996594316254 0 0 -0.00028343006813014691 0 0 -0.00028343006813014691 0 0 -0.00028151376628641469 0 0 -0.00028151376628641469 0 0 -0.00027960103552837417 0 0 -0.00027960103552837417 0 0 -0.00027769185087196245 0 0 -0.00027769185087196245 0 0 -0.00027578618723707142 0 0 -0.00027578618723707142 0 0 -0.00027388401945194663 0 0 -0.00027388401945194663 0 0 -0.00027198532225755878 0 0 -0.00027198532225755878 0 0 -0.00027009007031194535 0 0 -0.00027009007031194535 0 0 -0.00026819823819452127 0 0 -0.00026819823819452127 0 0 -0.00026630980041035773 0 0 -0.00026630980041035773 0 0 -0.0002644247313944278 0 0 -0.0002644247313944278 0 0 -0.00026254300551581649 0 0 -0.00026254300551581649 0 0 -0.00026066459708189545 0 0 -0.00026066459708189545 0 0 -0.00025878948034246014 0 0 -0.00025878948034246014 0 0 -0.00025691762949382887 0 0 -0.00025691762949382887 0 0 -0.00025504901868290215 0 0 -0.00025504901868290215 0 0 -0.00025318362201118131 0 0 -0.00025318362201118131 0 0 -0.00025132141353874512 0 0 -0.00025132141353874512 0 0 -0.00024946236728818385 0 0 -0.00024946236728818385 0 0 -0.00024760645724848971 0 0 -0.00024760645724848971 0 0 -0.00024575365737890151 0 0 -0.00024575365737890151 0 0 -0.00024390394161270438 0 0 -0.00024390394161270438 0 0 -0.00024205728386098187 0 0 -0.00024205728386098187 0 0 -0.00024021365801632125 0 0 -0.00024021365801632125 0 0 -0.0002383730379564687 0 0 -0.0002383730379564687 0 0 -0.00023653539754793699 0 0 -0.00023653539754793699 0 0 -0.00023470071064956162 0 0 -0.00023470071064956162 0 0 -0.00023286895111600603 0 0 -0.00023286895111600603 0 0 -0.00023104009280121518 0 0 -0.00023104009280121518 0 0 -0.00022921410956181686 0 0 -0.00022921410956181686 0 0 -0.00022739097526046888 0 0 -0.00022739097526046888 0 0 -0.00022557066376915438 0 0 -0.00022557066376915438 0 0 -0.0002237531489724201 0 0 -0.0002237531489724201 0 0 -0.00022193840477056096 0 0 -0.00022193840477056096 0 0 -0.00022012640508274891 0 0 -0.00022012640508274891 0 0 -0.00021831712385010532 0 0 -0.00021831712385010532 0 0 -0.0002165105350387145 0 0 -0.0002165105350387145 0 0 -0.00021470661264258938 0 0 -0.00021470661264258938 0 0 -0.00021290533068655989 0 0 -0.00021290533068655989 0 0 -0.00021110666322913442 0 0 -0.00021110666322913442 0 0 -0.00020931058436526536 0 0 -0.00020931058436526536 0 0 -0.00020751706822908777 0 0 -0.00020751706822908777 0 0 -0.00020572608899657887 0 0 -0.00020572608899657887 0 0 -0.00020393762088816693 0 0 -0.00020393762088816693 0 0 -0.00020215163817127889 0 0 -0.00020215163817127889 0 0 -0.00020036811516282757 0 0 -0.00020036811516282757 0 0 -0.0001985870262316396 0 0 -0.0001985870262316396 0 0 -0.00019680834580082098 0 0 -0.00019680834580082098 0 0 -0.00019503204835006447 0 0 -0.00019503204835006447 0 0 -0.00019325810841789443 0 0 -0.00019325810841789443 0 0 -0.00019148650060385168 0 0 -0.00019148650060385168 0 0 -0.00018971719957061817 0 0 -0.00018971719957061817 0 0 -0.00018795018004607843 0 0 -0.00018795018004607843 0 0 -0.00018618541682532283 0 0 -0.00018618541682532283 0 0 -0.0001844228847725872 0 0 -0.0001844228847725872 0 0 -0.00018266255882313357 0 0 -0.00018266255882313357 0 0 -0.00018090441398506887 0 0 -0.00018090441398506887 0 0 -0.00017914842534110233 0 0 -0.00017914842534110233 0 0 -0.00017739456805024279 0 0 -0.00017739456805024279 0 0 -0.00017564281734943471 0 0 -0.00017564281734943471 0 0 -0.0001738931485551345 0 0 -0.0001738931485551345 0 0 -0.00017214553706482421 0 0 -0.00017214553706482421 0 0 -0.00017039995835846757 0 0 -0.00017039995835846757 0 0 -0.00016865638799990338 0 0 -0.00016865638799990338 0 0 -0.00016691480163818058 0 0 -0.00016691480163818058 0 0 -0.00016517517500883334 0 0 -0.00016517517500883334 0 0 -0.00016343748393509507 0 0 -0.00016343748393509507 0 0 -0.0001617017043290556 0 0 -0.0001617017043290556 0 0 -0.00015996781219275688 0 0 -0.00015996781219275688 0 0 -0.00015823578361923201 0 0 -0.00015823578361923201 0 0 -0.00015650559479348495 0 0 -0.00015650559479348495 0 0 -0.00015477722199341146 0 0 -0.00015477722199341146 0 0 -0.00015305064159066339 0 0 -0.00015305064159066339 0 0 -0.00015132583005145561 0 0 -0.00015132583005145561 0 0 -0.00014960276393731435 0 0 -0.00014960276393731435 0 0 -0.00014788141990577092 0 0 -0.00014788141990577092 0 0 -0.00014616177471099825 0 0 -0.00014616177471099825 0 0 -0.00014444380520439064 0 0 -0.00014444380520439064 0 0 -0.0001427274883350901 0 0 -0.0001427274883350901 0 0 -0.00014101280115045583 0 0 -0.00014101280115045583 0 0 -0.00013929972079648016 0 0 -0.00013929972079648016 0 0 -0.00013758822451815094 0 0 -0.00013758822451815094 0 0 -0.00013587828965975831 0 0 -0.00013587828965975831 0 0 -0.00013416989366515084 0 0 -0.00013416989366515084 0 0 -0.00013246301407793707 0 0 -0.00013246301407793707 0 0 -0.00013075762854163669 0 0 -0.00013075762854163669 0 0 -0.00012905371479977792 0 0 -0.00012905371479977792 0 0 -0.00012735125069594653 0 0 -0.00012735125069594653 0 0 -0.00012565021417378143 0 0 -0.00012565021417378143 0 0 -0.00012395058327692332 0 0 -0.00012395058327692332 0 0 -0.00012225233614891084 0 0 -0.00012225233614891084 0 0 -0.00012055545103303056 0 0 -0.00012055545103303056 0 0 -0.00011885990627211671 0 0 -0.00011885990627211671 0 0 -0.00011716568030830483 0 0 -0.00011716568030830483 0 0 -0.00011547275168273631 0 0 -0.00011547275168273631 0 0 -0.0001137810990352181 0 0 -0.0001137810990352181 0 0 -0.00011209070110383634 0 0 -0.00011209070110383634 0 0 -0.00011040153672452316 0 0 -0.00011040153672452316 0 0 -0.00010871358483058065 0 0 -0.00010871358483058065 0 0 -0.00010702682445215928 0 0 -0.00010702682445215928 0 0 -0.0001053412347156935 0 0 -0.0001053412347156935 0 0 -0.00010365679484329504 0 0 -0.00010365679484329504 0 0 -0.00010197348415210203 0 0 -0.00010197348415210203 0 0 -0.00010029128205358916 0 0 -0.00010029128205358916 0 0 -9.8610168052834282e-05 0 0 -9.8610168052834282e-05 0 0 -9.6930121747746767e-05 0 0 -9.6930121747746767e-05 0 0 -9.5251122828254851e-05 0 0 -9.5251122828254851e-05 0 0 -9.3573151075455213e-05 0 0 -9.3573151075455213e-05 0 0 -9.189618636072224e-05 0 0 -9.189618636072224e-05 0 0 -9.0220208644782048e-05 0 0 -9.0220208644782048e-05 0 0 -8.8545197976746854e-05 0 0 -8.8545197976746854e-05 0 0 -8.6871134493115865e-05 0 0 -8.6871134493115865e-05 0 0 -8.5197998416737365e-05 0 0 -8.5197998416737365e-05 0 0 -8.3525770055738167e-05 0 0 -8.3525770055738167e-05 0 0 -8.1854429802417336e-05 0 0 -8.1854429802417336e-05 0 0 -8.0183958132107333e-05 0 0 -8.0183958132107333e-05 0 0 -7.8514335602000279e-05 0 0 -7.8514335602000279e-05 0 0 -7.6845542849944128e-05 0 0 -7.6845542849944128e-05 0 0 -7.517756059320497e-05 0 0 -7.517756059320497e-05 0 0 -7.3510369627200056e-05 0 0 -7.3510369627200056e-05 0 0 -7.1843950824199943e-05 0 0 -7.1843950824199943e-05 0 0 -7.0178285131999938e-05 0 0 -7.0178285131999938e-05 0 0 -6.8513353572564008e-05 0 0 -6.8513353572564008e-05 0 0 -6.6849137240640181e-05 0 0 -6.6849137240640181e-05 0 0 -6.5185617302346711e-05 0 0 -6.5185617302346711e-05 0 0 -6.3522774993734232e-05 0 0 -6.3522774993734232e-05 0 0 -6.1860591619318308e-05 0 0 -6.1860591619318308e-05 0 0 -6.0199048550589023e-05 0 0 -6.0199048550589023e-05 0 0 -5.8538127224494294e-05 0 0 -5.8538127224494294e-05 0 0 -5.6877809141899856e-05 0 0 -5.6877809141899856e-05 0 0 -5.5218075866024297e-05 0 0 -5.5218075866024297e-05 0 0 -5.3558909020853163e-05 0 0 -5.3558909020853163e-05 0 0 -5.1900290289528839e-05 0 0 -5.1900290289528839e-05 0 0 -5.0242201412720579e-05 0 0 -5.0242201412720579e-05 0 0 -4.8584624186973309e-05 0 0 -4.8584624186973309e-05 0 0 -4.6927540463035226e-05 0 0 -4.6927540463035226e-05 0 0 -4.5270932144167421e-05 0 0 -4.5270932144167421e-05 0 0 -4.3614781184433478e-05 0 0 -4.3614781184433478e-05 0 0 -4.1959069586972655e-05 0 0 -4.1959069586972655e-05 0 0 -4.0303779402252871e-05 0 0 -4.0303779402252871e-05 0 0 -3.8648892726310254e-05 0 0 -3.8648892726310254e-05 0 0 -3.6994391698969523e-05 0 0 -3.6994391698969523e-05 0 0 -3.5340258502051562e-05 0 0 -3.5340258502051562e-05 0 0 -3.3686475357564173e-05 0 0 -3.3686475357564173e-05 0 0 -3.2033024525880252e-05 0 0 -3.2033024525880252e-05 0 0 -3.0379888303901595e-05 0 0 -3.0379888303901595e-05 0 0 -2.8727049023211253e-05 0 0 -2.8727049023211253e-05 0 0 -2.7074489048211851e-05 0 0 -2.7074489048211851e-05 0 0 -2.5422190774254909e-05 0 0 -2.5422190774254909e-05 0 0 -2.3770136625757319e-05 0 0 -2.3770136625757319e-05 0 0 -2.2118309054309204e-05 0 0 -2.2118309054309204e-05 0 0 -2.0466690536772396e-05 0 0 -2.0466690536772396e-05 0 0 -1.8815263573369058e-05 0 0 -1.8815263573369058e-05 0 0 -1.716401068576335e-05 0 0 -1.716401068576335e-05 0 0 -1.5512914415136136e-05 0 0 -1.5512914415136136e-05 0 0 -1.3861957320251231e-05 0 0 -1.3861957320251231e-05 0 0 -1.2211121975517923e-05 0 0 -1.2211121975517923e-05 0 0 -1.0560390969046084e-05 0 0 -1.0560390969046084e-05 0 0 -8.9097469006981338e-06 0 0 -8.9097469006981338e-06 0 0 -7.2591723801359624e-06 0 0 -7.2591723801359624e-06 0 0 -5.6086500248658127e-06 0 0 -5.6086500248658127e-06 0 0 -3.9581624582785074e-06 0 0 -3.9581624582785074e-06 0 0 -2.3076923076899834e-06 
</DataArray>
</PointData>
<CellData Scalars="" Vectors="" Tensors="stress,">
<DataArray type="Float64" Name="stress" NumberOfComponents="9" format="ascii">
-53789159.19020462 0 0 0 -53789159.19020462 0 0 0 -99894152.78181076 -53675174.440145493 0 0 0 -53675174.440145493 0 0 0 -99682466.81741333 -53561203.374376297 0 0 0 -53561203.374376297 0 0 0 -99470806.26669693 -53447255.111780167 0 0 0 -53447255.111780167 0 0 0 -99259188.064731598 -53333338.765249252 0 0 0 -53333338.765249252 0 0 0 -99047629.1354599 -53219463.439317703 0 0 0 -53219463.439317703 0 0 0 -98836146.387306213 -53105638.227787018 0 0 0 -53105638.227787018 0 0 0 -98624756.708747864 -52991872.211336136 0 0 0 -52991872.211336136 0 0 0 -98413476.963909149 -52878174.45513916 0 0 0 -52878174.45513916 0 0 0 -98202323.988113403 -52764554.006559372 0 0 0 -52764554.006559372 0 0 0 -97991314.583614349 -52651019.892713547 0 0 0 -52651019.892713547 0 0 0 -97780465.515037537 -52537581.118219376 0 0 0 -52537581.118219376 0 0 0 -97569793.505260468 -52424246.662811279 0 0 0 -52424246.662811279 0 0 0 -97359315.230934143 -52311025.479038239 0 0 0 -52311025.479038239 0 0 0 -97149047.318214417 -52197926.489974976 0 0 0 -52197926.489974976 0 0 0 -96939006.338523865 -52084958.586902618 0 0 0 -52084958.586902618 0 0 0 -96729208.80424881 -51972130.627084732 0 0 0 -51972130.627084732 0 0 0 -96519671.164585114 -51859451.431488037 0 0 0 -51859451.431488037 0 0 0 -96310409.801334381 -51746929.782543182 0 0 0 -51746929.782543182 0 0 0 -96101441.024723053 -51634574.421981812 0 0 0 -51634574.421981812 0 0 0 -95892781.069393158 -51522394.048566818 0 0 0 -51522394.048566818 0 0 0 -95684446.090198517 -51410397.316001892 0 0 0 -51410397.316001892 0 0 0 -95476452.158287048 -51298592.830730438 0 0 0 -51298592.830730438 0 0 0 -95268815.257072449 -51186989.149850845 0 0 0 -51186989.149850845 0 0 0 -95061551.27829361 -51075594.778997421 0 0 0 -51075594.778997421 0 0 0 -94854676.018138885 -50964418.170288086 0 0 0 -50964418.170288086 0 0 0 -94648205.173389435 -50853467.720272064 0 0 0 -50853467.720272064 0 0 0 -94442154.337650299 -50742751.767934799 0 0 0 -50742751.767934799 0 0 0 -94236538.997592926 -50632278.592697144 0 0 0 -50632278.592697144 0 0 0 -94031374.529296875 -50522056.412460327 0 0 0 -50522056.412460327 0 0 0 -93826676.194568634 -50412093.381717682 0 0 0 -50412093.381717682 0 0 0 -93622459.13747406 -50302397.58962822 0 0 0 -50302397.58962822 0 0 0 -93418738.380737305 -50192977.058162689 0 0 0 -50192977.058162689 0 0 0 -93215528.822301865 -50083839.740325928 0 0 0 -50083839.740325928 0 0 0 -93012845.232034683 -49974993.518304825 0 0 0 -49974993.518304825 0 0 0 -92810702.248281479 -49866446.201776505 0 0 0 -49866446.201776505 0 0 0 -92609114.374725342 -49758205.526151657 0 0 0 -49758205.526151657 0 0 0 -92408095.977136612 -49650279.150915146 0 0 0 -49650279.150915146 0 0 0 -92207661.28027153 -49542674.657987595 0 0 0 -49542674.657987595 0 0 0 -92007824.364833832 -49435399.550107956 0 0 0 -49435399.550107956 0 0 0 -91808599.164485931 -49328461.249279022 0 0 0 -49328461.249279022 0 0 0 -91609999.462947845 -49221867.095249176 0 0 0 -49221867.095249176 0 0 0 -91412038.891178131 -49115624.344017029 0 0 0 -49115624.344017029 0 0 0 -91214730.924604416 -49009740.166399002 0 0 0 -49009740.166399002 0 0 0 -91018088.880456924 -48904221.646617889 0 0 0 -48904221.646617889 0 0 0 -90822125.915143967 -48799075.780944824 0 0 0 -48799075.780944824 0 0 0 -90626855.021755219 -48694309.476385117 0 0 0 -48694309.476385117 0 0 0 -90432289.027570724 -48589929.549406052 0 0 0 -48589929.549406052 0 0 0 -90238440.591754913 -48485942.724693298 0 0 0 -48485942.724693298 0 0 0 -90045322.20300293 -48382355.633961678 0 0 0 -48382355.633961678 0 0 0 -89852946.17735672 -48279174.814824104 0 0 0 -48279174.814824104 0 0 0 -89661324.656101227 -48176406.709671021 0 0 0 -48176406.709671021 0 0 0 -89470469.603673935 -48074057.664631844 0 0 0 -48074057.664631844 0 0 0 -89280392.805744171 -47972133.928545952 0 0 0 -47972133.928545952 0 0 0 -89091105.867300034 -47870641.652005196 0 0 0 -47870641.652005196 0 0 0 -88902620.210866928 -47769586.886414528 0 0 0 -47769586.886414528 0 0 0 -88714947.074769974 -47668975.583138466 0 0 0 -47668975.583138466 0 0 0 -88528097.511543274 -47568813.592646599 0 0 0 -47568813.592646599 0 0 0 -88342082.386343002 -47469106.663730621 0 0 0 -47469106.663730621 0 0 0 -88156912.375499725 -47369860.442767143 0 0 0 -47369860.442767143 0 0 0 -87972597.965139389 -47271080.473017693 0 0 0 -47271080.473017693 0 0 0 -87789149.449888229 -47172772.193971634 0 0 0 -47172772.193971634 0 0 0 -87606576.931661606 -47074940.94075489 0 0 0 -47074940.94075489 0 0 0 -87424890.318544388 -46977591.943534851 0 0 0 -46977591.943534851 0 0 0 -87244099.323707581 -46880730.32704258 0 0 0 -46880730.32704258 0 0 0 -87064213.464508057 -46784361.11008358 0 0 0 -46784361.11008358 0 0 0 -86885242.061582565 -46688489.205097198 0 0 0 -46688489.205097198 0 0 0 -86707194.238039017 -46593119.417807579 0 0 0 -46593119.417807579 0 0 0 -86530078.918785095 -46498256.446866989 0 0 0 -46498256.446866989 0 0 0 -86353904.82989502 -46403904.883553505 0 0 0 -46403904.883553505 0 0 0 -86178680.498027802 -46310069.211551666 0 0 0 -46310069.211551666 0 0 0 -86004414.250024796 -46216753.806722641 0 0 0 -46216753.806722641 0 0 0 -85831114.212486267 -46123962.936951637 0 0 0 -46123962.936951637 0 0 0 -85658788.311483383 -46031700.762033463 0 0 0 -46031700.762033463 0 0 0 -85487444.272348404 -45939971.333589554 0 0 0 -45939971.333589554 0 0 0 -85317089.619524002 -45848778.595050812 0 0 0 -45848778.595050812 0 0 0 -85147731.676523209 -45758126.381651878 0 0 0 -45758126.381651878 0 0 0 -84979377.565925598 -45668018.420499802 0 0 0 -45668018.420499802 0 0 0 -84812034.209499359 -45578458.330654144 0 0 0 -45578458.330654144 0 0 0 -84645708.328355789 -45489449.623267174 0 0 0 -45489449.623267174 0 0 0 -84480406.443210602 -45400995.701758385 0 0 0 -45400995.701758385 0 0 0 -84316134.874694824 -45313099.862034798 0 0 0 -45313099.862034798 0 0 0 -84152899.743778229 -45225765.292734146 0 0 0 -45225765.292734146 0 0 0 -83990706.972221375 -45138995.075532913 0 0 0 -45138995.075532913 0 0 0 -83829562.283130646 -45052792.18547821 0 0 0 -45052792.18547821 0 0 0 -83669471.201602936 -44967159.491347313 0 0 0 -44967159.491347313 0 0 0 -83510439.055358887 -44882099.756070137 0 0 0 -44882099.756070137 0 0 0 -83352470.975559235 -44797615.637162209 0 0 0 -44797615.637162209 0 0 0 -83195571.897586823 -44713709.687214851 0 0 0 -44713709.687214851 0 0 0 -83039746.561971664 -44630384.354409218 0 0 0 -44630384.354409218 0 0 0 -82884999.515329361 -44547641.98306942 0 0 0 -44547641.98306942 0 0 0 -82731335.111415863 -44465484.814253807 0 0 0 -44465484.814253807 0 0 0 -82578757.51218605 -44383914.986374855 0 0 0 -44383914.986374855 0 0 0 -82427270.688980103 -44302934.535844803 0 0 0 -44302934.535844803 0 0 0 -82276878.423713684 -44222545.39777565 0 0 0 -44222545.39777565 0 0 0 -82127584.310153961 -44142749.406691551 0 0 0 -44142749.406691551 0 0 0 -81979391.755283356 -44063548.297277451 0 0 0 -44063548.297277451 0 0 0 -81832303.980657578 -43984943.705160141 0 0 0 -43984943.705160141 0 0 0 -81686324.023868561 -43906937.167724609 0 0 0 -43906937.167724609 0 0 0 -81541454.740060806 -43829530.124952316 0 0 0 -43829530.124952316 0 0 0 -81397698.803482056 -43752723.920285225 0 0 0 -43752723.920285225 0 0 0 -81255058.709100723 -43676519.801522255 0 0 0 -43676519.801522255 0 0 0 -81113536.774255753 -43600918.921750069 0 0 0 -43600918.921750069 0 0 0 -80973135.140392303 -43525922.340280533 0 0 0 -43525922.340280533 0 0 0 -80833855.774805069 -43451531.023641586 0 0 0 -43451531.023641586 0 0 0 -80695700.472476959 -43377745.846554756 0 0 0 -43377745.846554756 0 0 0 -80558670.857887268 -43304567.592988968 0 0 0 -43304567.592988968 0 0 0 -80422768.386980057 -43231996.957183838 0 0 0 -43231996.957183838 0 0 0 -80287994.349054337 -43160034.544724464 0 0 0 -43160034.544724464 0 0 0 -80154349.868774414 -43088680.873650551 0 0 0 -43088680.873650551 0 0 0 -80021835.908208847 -43017936.375543594 0 0 0 -43017936.375543594 0 0 0 -79890453.268865585 -42947801.396684647 0 0 0 -42947801.396684647 0 0 0 -79760202.593841553 -42878276.199196815 0 0 0 -42878276.199196815 0 0 0 -79631084.369937897 -42809360.962216377 0 0 0 -42809360.962216377 0 0 0 -79503098.929830551 -42741055.78308773 0 0 0 -42741055.78308773 0 0 0 -79376246.454305649 -42673360.678576469 0 0 0 -42673360.678576469 0 0 0 -79250526.974498749 -42606275.586089134 0 0 0 -42606275.586089134 0 0 0 -79125940.374166489 -42539800.364910126 0 0 0 -42539800.364910126 0 0 0 -79002486.391975403 -42473934.79746151 0 0 0 -42473934.79746151 0 0 0 -78880164.623857498 -42408678.590589523 0 0 0 -42408678.590589523 0 0 0 -78758974.525379181 -42344031.376835823 0 0 0 -42344031.376835823 0 0 0 -78638915.414125443 -42279992.715737343 0 0 0 -42279992.715737343 0 0 0 -78519986.472082138 -42216562.095139503 0 0 0 -42216562.095139503 0 0 0 -78402186.748117447 -42153738.932518959 0 0 0 -42153738.932518959 0 0 0 -78285515.160394669 -42091522.576319695 0 0 0 -42091522.576319695 0 0 0 -78169970.498880386 -42029912.307299614 0 0 0 -42029912.307299614 0 0 0 -78055551.427843094 -41968907.339874268 0 0 0 -41968907.339874268 0 0 0 -77942256.48833847 -41908506.823501587 0 0 0 -41908506.823501587 0 0 0 -77830084.100790024 -41848709.84403038 0 0 0 -41848709.84403038 0 0 0 -77719032.567485809 -41789515.425098419 0 0 0 -41789515.425098419 0 0 0 -77609100.075183868 -41730922.529502869 0 0 0 -41730922.529502869 0 0 0 -77500284.697649002 -41672930.060612679 0 0 0 -41672930.060612679 0 0 0 -77392584.398281097 -41615536.863752365 0 0 0 -41615536.863752365 0 0 0 -77285997.032682419 -41558741.727610588 0 0 0 -41558741.727610588 0 0 0 -77180520.351278305 -41502543.385655403 0 0 0 -41502543.385655403 0 0 0 -77076152.001932144 -41446940.517542839 0 0 0 -41446940.517542839 0 0 0 -76972889.532581329 -41391931.750526428 0 0 0 -41391931.750526428 0 0 0 -76870730.393834114 -41337515.660885811 0 0 0 -41337515.660885811 0 0 0 -76769671.941644669 -41283690.775341034 0 0 0 -41283690.775341034 0 0 0 -76669711.439918518 -41230455.572483063 0 0 0 -41230455.572483063 0 0 0 -76570846.063182831 -41177808.484190941 0 0 0 -41177808.484190941 0 0 0 -76473072.899211884 -41125747.897057533 0 0 0 -41125747.897057533 0 0 0 -76376388.951678276 -41074272.153808117 0 0 0 -41074272.153808117 0 0 0 -76280791.142785072 -41023379.554735661 0 0 0 -41023379.554735661 0 0 0 -76186276.315937996 -40973068.359112263 0 0 0 -40973068.359112263 0 0 0 -76092841.238350868 -40923336.786616802 0 0 0 -40923336.786616802 0 0 0 -76000482.603717804 -40874183.018745422 0 0 0 -40874183.018745422 0 0 0 -75909197.034811974 -40825605.200231552 0 0 0 -40825605.200231552 0 0 0 -75818981.086145401 -40777601.440463543 0 0 0 -40777601.440463543 0 0 0 -75729831.246575356 -40730169.814882278 0 0 0 -40730169.814882278 0 0 0 -75641743.941924095 -40683308.366391182 0 0 0 -40683308.366391182 0 0 0 -75554715.537583351 -40637015.106755733 0 0 0 -40637015.106755733 0 0 0 -75468742.341117859 -40591288.017996311 0 0 0 -40591288.017996311 0 0 0 -75383820.604850769 -40546125.053783894 0 0 0 -40546125.053783894 0 0 0 -75299946.528455734 -40501524.140816212 0 0 0 -40501524.140816212 0 0 0 -75217116.261516571 -40457483.180197716 0 0 0 -40457483.180197716 0 0 0 -75135325.9060812 -40414000.04880476 0 0 0 -40414000.04880476 0 0 0 -75054571.519208908 -40371072.60065937 0 0 0 -40371072.60065937 0 0 0 -74974849.115509987 -40328698.66827631 0 0 0 -40328698.66827631 0 0 0 -74896154.6696558 -40286876.064013004 0 0 0 -40286876.064013004 0 0 0 -74818484.118881226 -40245602.581410885 0 0 0 -40245602.581410885 0 0 0 -74741833.365477562 -40204875.996524334 0 0 0 -40204875.996524334 0 0 0 -74666198.279259682 -40164694.069238663 0 0 0 -40164694.069238663 0 0 0 -74591574.700014114 -40125054.54459095 0 0 0 -40125054.54459095 0 0 0 -74517958.439955711 -40085955.154069424 0 0 0 -40085955.154069424 0 0 0 -74445345.286128998 -40047393.616908073 0 0 0 -40047393.616908073 0 0 0 -74373731.002829552 -40009367.641361713 0 0 0 -40009367.641361713 0 0 0 -74303111.333957672 -39971874.925991058 0 0 0 -39971874.925991058 0 0 0 -74233482.005412102 -39934913.160912037 0 0 0 -39934913.160912037 0 0 0 -74164838.727408409 -39898480.029057026 0 0 0 -39898480.029057026 0 0 0 -74097177.196820259 -39862573.20740366 0 0 0 -39862573.20740366 0 0 0 -74030493.099464417 -39827190.36821413 0 0 0 -39827190.36821413 0 0 0 -73964782.112397194 -39792329.180238247 0 0 0 -39792329.180238247 0 0 0 -73900039.90615654 -39757987.309930801 0 0 0 -39757987.309930801 0 0 0 -73836262.147014618 -39724162.42262888 0 0 0 -39724162.42262888 0 0 0 -73773444.499168396 -39690852.183745384 0 0 0 -39690852.183745384 0 0 0 -73711582.626955986 -39658054.25992012 0 0 0 -39658054.25992012 0 0 0 -73650672.196994781 -39625766.320188046 0 0 0 -39625766.320188046 0 0 0 -73590708.880348206 -39593986.037103176 0 0 0 -39593986.037103176 0 0 0 -73531688.35461998 -39562711.087882996 0 0 0 -39562711.087882996 0 0 0 -73473606.30606842 -39531939.155507565 0 0 0 -39531939.155507565 0 0 0 -73416458.431656837 -39501667.929829597 0 0 0 -39501667.929829597 0 0 0 -73360240.441113472 -39471895.108651638 0 0 0 -39471895.108651638 0 0 0 -73304948.058925629 -39442618.398804665 0 0 0 -39442618.398804665 0 0 0 -73250577.026351929 -39413835.517201424 0 0 0 -39413835.517201424 0 0 0 -73197123.103374481 -39385544.191889286 0 0 0 -39385544.191889286 0 0 0 -73144582.070651054 -39357742.163062572 0 0 0 -39357742.163062572 0 0 0 -73092949.731402397 -39330427.18409586 0 0 0 -39330427.18409586 0 0 0 -73042221.913319588 -39303597.022528172 0 0 0 -39303597.022528172 0 0 0 -72992394.470409393 -39277249.461064339 0 0 0 -39277249.461064339 0 0 0 -72943463.284833908 -39251382.298532486 0 0 0 -39251382.298532486 0 0 0 -72895424.268702507 -39225993.35084486 0 0 0 -39225993.35084486 0 0 0 -72848273.365855217 -39201080.451939583 0 0 0 -39201080.451939583 0 0 0 -72802006.553602219 -39176641.454705715 0 0 0 -39176641.454705715 0 0 0 -72756619.844453335 -39152674.231889725 0 0 0 -39152674.231889725 0 0 0 -72712109.28779459 -39129176.676997185 0 0 0 -39129176.676997185 0 0 0 -72668470.9715662 -39106146.705170155 0 0 0 -39106146.705170155 0 0 0 -72625701.023887157 -39083582.254048109 0 0 0 -39083582.254048109 0 0 0 -72583795.61466074 -39061481.284622192 0 0 0 -39061481.284622192 0 0 0 -72542750.957155228 -39039841.782063007 0 0 0 -39039841.782063007 0 0 0 -72502563.309545517 -39018661.756546259 0 0 0 -39018661.756546259 0 0 0 -72463228.976442814 -38997939.244047642 0 0 0 -38997939.244047642 0 0 0 -72424744.31037426 -38977672.307131529 0 0 0 -38977672.307131529 0 0 0 -72387105.713244438 -38957859.035726309 0 0 0 -38957859.035726309 0 0 0 -72350309.637777328 -38938497.547876358 0 0 0 -38938497.547876358 0 0 0 -72314352.588912964 -38919585.990478754 0 0 0 -38919585.990478754 0 0 0 -72279231.125174999 -38901122.540009975 0 0 0 -38901122.540009975 0 0 0 -72244941.860018253 -38883105.403234482 0 0 0 -38883105.403234482 0 0 0 -72211481.463149548 -38865532.81789875 0 0 0 -38865532.81789875 0 0 0 -72178846.661811829 -38848403.053400517 0 0 0 -38848403.053400517 0 0 0 -72147034.242029667 -38831714.411455631 0 0 0 -38831714.411455631 0 0 0 -72116041.049846172 -38815465.226742029 0 0 0 -38815465.226742029 0 0 0 -72085863.992520809 -38799653.867524385 0 0 0 -38799653.867524385 0 0 0 -72056500.039687634 -38784278.736270428 0 0 0 -38784278.736270428 0 0 0 -72027946.224502087 -38769338.270248652 0 0 0 -38769338.270248652 0 0 0 -72000199.644747734 -38754830.942106009 0 0 0 -38754830.942106009 0 0 0 -71973257.463911057 -38740755.26043582 0 0 0 -38740755.26043582 0 0 0 -71947116.912238121 -38727109.770325422 0 0 0 -38727109.770325422 0 0 0 -71921775.287747383 -38713893.053893328 0 0 0 -38713893.053893328 0 0 0 -71897229.957230568 -38701103.730799913 0 0 0 -38701103.730799913 0 0 0 -71873478.357199669 -38688740.458755255 0 0 0 -38688740.458755255 0 0 0 -71850517.994831085 -38676801.934001923 0 0 0 -38676801.934001923 0 0 0 -71828346.448860645 -38665286.891787767 0 0 0 -38665286.891787767 0 0 0 -71806961.370462894 -38654194.106815577 0 0 0 -38654194.106815577 0 0 0 -71786360.484086275 -38643522.393686891 0 0 0 -38643522.393686891 0 0 0 -71766541.588275671 -38633270.607319474 0 0 0 -38633270.607319474 0 0 0 -71747502.556450367 -38623437.643357635 0 0 0 -38623437.643357635 0 0 0 -71729241.337664127 -38614022.438560367 0 0 0 -38614022.438560367 0 0 0 -71711755.957326174 -38605023.971179724 0 0 0 -38605023.971179724 0 0 0 -71695044.517905235 -38596441.261318326 0 0 0 -38596441.261318326 0 0 0 -71679105.19959116 -38588273.371271729 0 0 0 -38588273.371271729 0 0 0 -71663936.260933161 -38580519.405858517 0 0 0 -38580519.405858517 0 0 0 -71649536.039451599 -38573178.512731314 0 0 0 -38573178.512731314 0 0 0 -71635902.952215672 -38566249.882673979 0 0 0 -38566249.882673979 0 0 0 -71623035.496394396 -38559732.749882102 0 0 0 -38559732.749882102 0 0 0 -71610932.24978137 -38553626.392228127 0 0 0 -38553626.392228127 0 0 0 -71599591.87128067 -38547930.131509781 0 0 0 -38547930.131509781 0 0 0 -71589013.101375222 -38542643.333685517 0 0 0 -38542643.333685517 0 0 0 -71579194.762558937 -38537765.409091592 0 0 0 -38537765.409091592 0 0 0 -71570135.759741545 -38533295.812645078 0 0 0 -38533295.812645078 0 0 0 -71561835.080626607 -38529234.044029415 0 0 0 -38529234.044029415 0 0 0 -71554291.796054602 -38525579.647867799 0 0 0 -38525579.647867799 0 0 0 -71547505.060325861 -38522332.21387738 0 0 0 -38522332.21387738 0 0 0 -71541474.111486673 -38519491.377009988 0 0 0 -38519491.377009988 0 0 0 -71536198.271589935 -38517056.817575723 0 0 0 -38517056.817575723 0 0 0 -71531676.946926355 -38515028.261352718 0 0 0 -38515028.261352718 0 0 0 -71527909.628226459 -38513405.47968027 0 0 0 -38513405.47968027 0 0 0 -71524895.890834808 -38512188.289536312 0 0 0 -38512188.289536312 0 0 0 -71522635.394853175 -38511376.553600073 0 0 0 -38511376.553600073 0 0 0 -71521127.885257274 -38510970.180298373 0 0 0 -38510970.180298373 0 0 0 -71520373.191982716 
</DataArray>
</CellData>
</Piece>
</UnstructuredGrid>
</VTKFile>
