<?xml version="1.0"?>
<VTKFile type="UnstructuredGrid" version="0.1" byte_order="LittleEndian">
<UnstructuredGrid>
<Piece NumberOfPoints="500" NumberOfCells="250">
<Points>
<DataArray type="Float64" NumberOfComponents="3" format="ascii">
0 0 0 0 0 -0.00099999999999810158 0 0 -0.00099999999999810158 0 0 -0.001999999999996204 0 0 -0.001999999999996204 0 0 -0.0029999999999943271 0 0 -0.0029999999999943271 0 0 -0.0039999999999924488 0 0 -0.0039999999999924488 0 0 -0.004999999999990571 0 0 -0.004999999999990571 0 0 -0.0059999999999886811 0 0 -0.0059999999999886811 0 0 -0.0069999999999867156 0 0 -0.0069999999999867156 0 0 -0.007999999999984719 0 0 -0.007999999999984719 0 0 -0.008999999999982581 0 0 -0.008999999999982581 0 0 -0.0099999999999804221 0 0 -0.0099999999999804221 0 0 -0.010999999999978201 0 0 -0.010999999999978201 0 0 -0.011999999999975971 0 0 -0.011999999999975971 0 0 -0.01299999999997375 0 0 -0.01299999999997375 0 0 -0.01399999999997158 0 0 -0.01399999999997158 0 0 -0.014999999999969531 0 0 -0.014999999999969531 0 0 -0.01599999999996761 0 0 -0.01599999999996761 0 0 -0.0169999999999659 0 0 -0.0169999999999659 0 0 -0.01799999999996427 0 0 -0.01799999999996427 0 0 -0.018999999999962731 0 0 -0.018999999999962731 0 0 -0.019999999999961209 0 0 -0.019999999999961209 0 0 -0.020999999999959669 0 0 -0.020999999999959669 0 0 -0.02199999999995814 0 0 -0.02199999999995814 0 0 -0.022999999999956611 0 0 -0.022999999999956611 0 0 -0.023999999999955082 0 0 -0.023999999999955082 0 0 -0.024999999999953549 0 0 -0.024999999999953549 0 0 -0.02599999999995202 0 0 -0.02599999999995202 0 0 -0.02699999999995048 0 0 -0.02699999999995048 0 0 -0.027999999999948951 0 0 -0.027999999999948951 0 0 -0.028999999999947419 0 0 -0.028999999999947419 0 0 -0.02999999999994565 0 0 -0.02999999999994565 0 0 -0.03099999999994377 0 0 -0.03099999999994377 0 0 -0.031999999999941367 0 0 -0.031999999999941367 0 0 -0.032999999999938787 0 0 -0.032999999999938787 0 0 -0.033999999999935943 0 0 -0.033999999999935943 0 0 -0.034999999999933022 0 0 -0.034999999999933022 0 0 -0.035999999999930102 0 0 -0.035999999999930102 0 0 -0.036999999999927188 0 0 -0.036999999999927188 0 0 -0.037999999999924268 0 0 -0.037999999999924268 0 0 -0.038999999999921348 0 0 -0.038999999999921348 0 0 -0.039999999999918427 0 0 -0.039999999999918427 0 0 -0.040999999999915507 0 0 -0.040999999999915507 0 0 -0.041999999999912593 0 0 -0.041999999999912593 0 0 -0.042999999999909673 0 0 -0.042999999999909673 0 0 -0.043999999999906753 0 0 -0.043999999999906753 0 0 -0.044999999999903832 0 0 -0.044999999999903832 0 0 -0.045999999999900919 0 0 -0.045999999999900919 0 0 -0.046999999999897998 0 0 -0.046999999999897998 0 0 -0.047999999999895078 0 0 -0.047999999999895078 0 0 -0.048999999999892158 0 0 -0.048999999999892158 0 0 -0.049999999999889237 0 0 -0.049999999999889237 0 0 -0.050999999999886317 0 0 -0.050999999999886317 0 0 -0.051999999999883403 0 0 -0.051999999999883403 0 0 -0.052999999999880483 0 0 -0.052999999999880483 0 0 -0.053999999999877563 0 0 -0.053999999999877563 0 0 -0.054999999999874642 0 0 -0.054999999999874642 0 0 -0.055999999999871722 0 0 -0.055999999999871722 0 0 -0.056999999999868801 0 0 -0.056999999999868801 0 0 -0.057999999999865881 0 0 -0.057999999999865881 0 0 -0.058999999999862961 0 0 -0.058999999999862961 0 0 -0.059999999999860047 0 0 -0.059999999999860047 0 0 -0.060999999999857127 0 0 -0.060999999999857127 0 0 -0.061999999999854213 0 0 -0.061999999999854213 0 0 -0.062999999999851286 0 0 -0.062999999999851286 0 0 -0.063999999999848373 0 0 -0.063999999999848373 0 0 -0.064999999999845445 0 0 -0.064999999999845445 0 0 -0.065999999999842532 0 0 -0.065999999999842532 0 0 -0.066999999999839618 0 0 -0.066999999999839618 0 0 -0.067999999999836705 0 0 -0.067999999999836705 0 0 -0.068999999999833792 0 0 -0.068999999999833792 0 0 -0.069999999999830878 0 0 -0.069999999999830878 0 0 -0.070999999999827965 0 0 -0.070999999999827965 0 0 -0.071999999999825051 0 0 -0.071999999999825051 0 0 -0.072999999999822124 0 0 -0.072999999999822124 0 0 -0.07399999999981921 0 0 -0.07399999999981921 0 0 -0.074999999999816297 0 0 -0.074999999999816297 0 0 -0.075999999999813383 0 0 -0.075999999999813383 0 0 -0.07699999999981047 0 0 -0.07699999999981047 0 0 -0.077999999999807557 0 0 -0.077999999999807557 0 0 -0.078999999999804643 0 0 -0.078999999999804643 0 0 -0.07999999999980173 0 0 -0.07999999999980173 0 0 -0.080999999999798802 0 0 -0.080999999999798802 0 0 -0.081999999999795889 0 0 -0.081999999999795889 0 0 -0.082999999999792975 0 0 -0.082999999999792975 0 0 -0.083999999999790062 0 0 -0.083999999999790062 0 0 -0.084999999999787149 0 0 -0.084999999999787149 0 0 -0.085999999999784235 0 0 -0.085999999999784235 0 0 -0.086999999999781322 0 0 -0.086999999999781322 0 0 -0.087999999999778394 0 0 -0.087999999999778394 0 0 -0.088999999999775481 0 0 -0.088999999999775481 0 0 -0.089999999999772567 0 0 -0.089999999999772567 0 0 -0.090999999999769654 0 0 -0.090999999999769654 0 0 -0.091999999999766741 0 0 -0.091999999999766741 0 0 -0.092999999999763827 0 0 -0.092999999999763827 0 0 -0.093999999999760914 0 0 -0.093999999999760914 0 0 -0.094999999999758 0 0 -0.094999999999758 0 0 -0.095999999999755073 0 0 -0.095999999999755073 0 0 -0.096999999999752159 0 0 -0.096999999999752159 0 0 -0.097999999999749246 0 0 -0.097999999999749246 0 0 -0.098999999999746333 0 0 -0.098999999999746333 0 0 -0.099999999999743419 0 0 -0.099999999999743419 0 0 -0.10099999999974051 0 0 -0.10099999999974051 0 0 -0.10199999999973761 0 0 -0.10199999999973761 0 0 -0.10299999999973471 0 0 -0.10299999999973471 0 0 -0.10399999999973179 0 0 -0.10399999999973179 0 0 -0.1049999999997288 0 0 -0.1049999999997288 0 0 -0.1059999999997259 0 0 -0.1059999999997259 0 0 -0.106999999999723 0 0 -0.106999999999723 0 0 -0.1079999999997201 0 0 -0.1079999999997201 0 0 -0.1089999999997172 0 0 -0.1089999999997172 0 0 -0.1099999999997143 0 0 -0.1099999999997143 0 0 -0.1109999999997113 0 0 -0.1109999999997113 0 0 -0.1119999999997084 0 0 -0.1119999999997084 0 0 -0.1129999999997055 0 0 -0.1129999999997055 0 0 -0.1139999999997026 0 0 -0.1139999999997026 0 0 -0.1149999999996997 0 0 -0.1149999999996997 0 0 -0.1159999999996968 0 0 -0.1159999999996968 0 0 -0.11699999999969379 0 0 -0.11699999999969379 0 0 -0.11799999999969089 0 0 -0.11799999999969089 0 0 -0.11899999999968799 0 0 -0.11899999999968799 0 0 -0.11999999999968509 0 0 -0.11999999999968509 0 0 -0.1209999999996822 0 0 -0.1209999999996822 0 0 -0.1219999999996793 0 0 -0.1219999999996793 0 0 -0.1229999999996764 0 0 -0.1229999999996764 0 0 -0.1239999999996748 0 0 -0.1239999999996748 0 0 -0.12499999999967321 0 0 -0.12499999999967321 0 0 -0.12599999999967451 0 0 -0.12599999999967451 0 0 -0.12699999999967579 0 0 -0.12699999999967579 0 0 -0.1279999999996784 0 0 -0.1279999999996784 0 0 -0.12899999999968109 0 0 -0.12899999999968109 0 0 -0.1299999999996837 0 0 -0.1299999999996837 0 0 -0.13099999999968631 0 0 -0.13099999999968631 0 0 -0.13199999999968889 0 0 -0.13199999999968889 0 0 -0.13299999999969159 0 0 -0.13299999999969159 0 0 -0.1339999999996942 0 0 -0.1339999999996942 0 0 -0.13499999999969689 0 0 -0.13499999999969689 0 0 -0.1359999999996995 0 0 -0.1359999999996995 0 0 -0.13699999999970211 0 0 -0.13699999999970211 0 0 -0.1379999999997048 0 0 -0.1379999999997048 0 0 -0.13899999999970741 0 0 -0.13899999999970741 0 0 -0.13999999999971011 0 0 -0.13999999999971011 0 0 -0.14099999999971269 0 0 -0.14099999999971269 0 0 -0.1419999999997153 0 0 -0.1419999999997153 0 0 -0.14299999999971799 0 0 -0.14299999999971799 0 0 -0.1439999999997206 0 0 -0.1439999999997206 0 0 -0.14499999999972321 0 0 -0.14499999999972321 0 0 -0.14599999999972579 0 0 -0.14599999999972579 0 0 -0.14699999999972849 0 0 -0.14699999999972849 0 0 -0.1479999999997311 0 0 -0.1479999999997311 0 0 -0.14899999999973379 0 0 -0.14899999999973379 0 0 -0.1499999999997364 0 0 -0.1499999999997364 0 0 -0.15099999999973901 0 0 -0.15099999999973901 0 0 -0.1519999999997417 0 0 -0.1519999999997417 0 0 -0.15299999999974431 0 0 -0.15299999999974431 0 0 -0.15399999999974701 0 0 -0.15399999999974701 0 0 -0.15499999999974959 0 0 -0.15499999999974959 0 0 -0.1559999999997522 0 0 -0.1559999999997522 0 0 -0.15699999999975489 0 0 -0.15699999999975489 0 0 -0.1579999999997575 0 0 -0.1579999999997575 0 0 -0.15899999999976011 0 0 -0.15899999999976011 0 0 -0.1599999999997628 0 0 -0.1599999999997628 0 0 -0.16099999999976539 0 0 -0.16099999999976539 0 0 -0.161999999999768 0 0 -0.161999999999768 0 0 -0.16299999999977069 0 0 -0.16299999999977069 0 0 -0.1639999999997733 0 0 -0.1639999999997733 0 0 -0.16499999999977599 0 0 -0.16499999999977599 0 0 -0.1659999999997786 0 0 -0.1659999999997786 0 0 -0.16699999999978121 0 0 -0.16699999999978121 0 0 -0.16799999999978391 0 0 -0.16799999999978391 0 0 -0.16899999999978649 0 0 -0.16899999999978649 0 0 -0.1699999999997891 0 0 -0.1699999999997891 0 0 -0.17099999999979171 0 0 -0.17099999999979171 0 0 -0.1719999999997944 0 0 -0.1719999999997944 0 0 -0.17299999999979701 0 0 -0.17299999999979701 0 0 -0.1739999999997997 0 0 -0.1739999999997997 0 0 -0.17499999999980231 0 0 -0.17499999999980231 0 0 -0.17599999999980501 0 0 -0.17599999999980501 0 0 -0.17699999999980759 0 0 -0.17699999999980759 0 0 -0.1779999999998102 0 0 -0.1779999999998102 0 0 -0.17899999999981281 0 0 -0.17899999999981281 0 0 -0.1799999999998155 0 0 -0.1799999999998155 0 0 -0.18099999999981811 0 0 -0.18099999999981811 0 0 -0.18199999999982069 0 0 -0.18199999999982069 0 0 -0.18299999999982339 0 0 -0.18299999999982339 0 0 -0.183999999999826 0 0 -0.183999999999826 0 0 -0.18499999999982869 0 0 -0.18499999999982869 0 0 -0.1859999999998313 0 0 -0.1859999999998313 0 0 -0.18699999999983391 0 0 -0.18699999999983391 0 0 -0.1879999999998366 0 0 -0.1879999999998366 0 0 -0.18899999999983921 0 0 -0.18899999999983921 0 0 -0.18999999999984191 0 0 -0.18999999999984191 0 0 -0.19099999999984449 0 0 -0.19099999999984449 0 0 -0.1919999999998471 0 0 -0.1919999999998471 0 0 -0.19299999999984971 0 0 -0.19299999999984971 0 0 -0.1939999999998524 0 0 -0.1939999999998524 0 0 -0.19499999999985501 0 0 -0.19499999999985501 0 0 -0.1959999999998577 0 0 -0.1959999999998577 0 0 -0.19699999999986029 0 0 -0.19699999999986029 0 0 -0.19799999999986301 0 0 -0.19799999999986301 0 0 -0.19899999999986559 0 0 -0.19899999999986559 0 0 -0.1999999999998682 0 0 -0.1999999999998682 0 0 -0.20099999999987081 0 0 -0.20099999999987081 0 0 -0.2019999999998735 0 0 -0.2019999999998735 0 0 -0.20299999999987611 0 0 -0.20299999999987611 0 0 -0.20399999999987881 0 0 -0.20399999999987881 0 0 -0.20499999999988139 0 0 -0.20499999999988139 0 0 -0.205999999999884 0 0 -0.205999999999884 0 0 -0.20699999999988669 0 0 -0.20699999999988669 0 0 -0.2079999999998893 0 0 -0.2079999999998893 0 0 -0.20899999999989191 0 0 -0.20899999999989191 0 0 -0.2099999999998946 0 0 -0.2099999999998946 0 0 -0.21099999999989719 0 0 -0.21099999999989719 0 0 -0.21199999999989991 0 0 -0.21199999999989991 0 0 -0.21299999999990249 0 0 -0.21299999999990249 0 0 -0.2139999999999051 0 0 -0.2139999999999051 0 0 -0.21499999999990771 0 0 -0.21499999999990771 0 0 -0.2159999999999104 0 0 -0.2159999999999104 0 0 -0.21699999999991301 0 0 -0.21699999999991301 0 0 -0.21799999999991571 0 0 -0.21799999999991571 0 0 -0.21899999999991829 0 0 -0.21899999999991829 0 0 -0.2199999999999209 0 0 -0.2199999999999209 0 0 -0.22099999999992359 0 0 -0.22099999999992359 0 0 -0.2219999999999262 0 0 -0.2219999999999262 0 0 -0.22299999999992881 0 0 -0.22299999999992881 0 0 -0.22399999999993139 0 0 -0.22399999999993139 0 0 -0.22499999999993411 0 0 -0.22499999999993411 0 0 -0.2259999999999367 0 0 -0.2259999999999367 0 0 -0.22699999999993939 0 0 -0.22699999999993939 0 0 -0.227999999999942 0 0 -0.227999999999942 0 0 -0.22899999999994469 0 0 -0.22899999999994469 0 0 -0.2299999999999473 0 0 -0.2299999999999473 0 0 -0.23099999999994991 0 0 -0.23099999999994991 0 0 -0.23199999999995249 0 0 -0.23199999999995249 0 0 -0.23299999999995519 0 0 -0.23299999999995519 0 0 -0.2339999999999578 0 0 -0.2339999999999578 0 0 -0.23499999999996049 0 0 -0.23499999999996049 0 0 -0.2359999999999631 0 0 -0.2359999999999631 0 0 -0.23699999999996571 0 0 -0.23699999999996571 0 0 -0.2379999999999684 0 0 -0.2379999999999684 0 0 -0.23899999999997101 0 0 -0.23899999999997101 0 0 -0.2399999999999736 0 0 -0.2399999999999736 0 0 -0.24099999999997629 0 0 -0.24099999999997629 0 0 -0.2419999999999789 0 0 -0.2419999999999789 0 0 -0.24299999999998159 0 0 -0.24299999999998159 0 0 -0.2439999999999842 0 0 -0.2439999999999842 0 0 -0.24499999999998681 0 0 -0.24499999999998681 0 0 -0.24599999999998939 0 0 -0.24599999999998939 0 0 -0.24699999999999209 0 0 -0.24699999999999209 0 0 -0.2479999999999947 0 0 -0.2479999999999947 0 0 -0.24899999999999739 0 0 -0.24899999999999739 0 0 -0.25 
</DataArray>
</Points>
<Cells>
<DataArray type="UInt32" Name="connectivity" format="ascii">
0 1 2 3 4 5 6 7 8 9 10 11 12 13 14 15 16 17 18 19 20 21 22 23 24 25 26 27 28 29 30 31 32 33 34 35 36 37 38 39 40 41 42 43 44 45 46 47 48 49 50 51 52 53 54 55 56 57 58 59 60 61 62 63 64 65 66 67 68 69 70 71 72 73 74 75 76 77 78 79 80 81 82 83 84 85 86 87 88 89 90 91 92 93 94 95 96 97 98 99 100 101 102 103 104 105 106 107 108 109 110 111 112 113 114 115 116 117 118 119 120 121 122 123 124 125 126 127 128 129 130 131 132 133 134 135 136 137 138 139 140 141 142 143 144 145 146 147 148 149 150 151 152 153 154 155 156 157 158 159 160 161 162 163 164 165 166 167 168 169 170 171 172 173 174 175 176 177 178 179 180 181 182 183 184 185 186 187 188 189 190 191 192 193 194 195 196 197 198 199 200 201 202 203 204 205 206 207 208 209 210 211 212 213 214 215 216 217 218 219 220 221 222 223 224 225 226 227 228 229 230 231 232 233 234 235 236 237 238 239 240 241 242 243 244 245 246 247 248 249 250 251 252 253 254 255 256 257 258 259 260 261 262 263 264 265 266 267 268 269 270 271 272 273 274 275 276 277 278 279 280 281 282 283 284 285 286 287 288 289 290 291 292 293 294 295 296 297 298 299 300 301 302 303 304 305 306 307 308 309 310 311 312 313 314 315 316 317 318 319 320 321 322 323 324 325 326 327 328 329 330 331 332 333 334 335 336 337 338 339 340 341 342 343 344 345 346 347 348 349 350 351 352 353 354 355 356 357 358 359 360 361 362 363 364 365 366 367 368 369 370 371 372 373 374 375 376 377 378 379 380 381 382 383 384 385 386 387 388 389 390 391 392 393 394 395 396 397 398 399 400 401 402 403 404 405 406 407 408 409 410 411 412 413 414 415 416 417 418 419 420 421 422 423 424 425 426 427 428 429 430 431 432 433 434 435 436 437 438 439 440 441 442 443 444 445 446 447 448 449 450 451 452 453 454 455 456 457 458 459 460 461 462 463 464 465 466 467 468 469 470 471 472 473 474 475 476 477 478 479 480 481 482 483 484 485 486 487 488 489 490 491 492 493 494 495 496 497 498 499 
</DataArray>
<DataArray type="UInt32" Name="offsets" format="ascii">
2 4 6 8 10 12 14 16 18 20 22 24 26 28 30 32 34 36 38 40 42 44 46 48 50 52 54 56 58 60 62 64 66 68 70 72 74 76 78 80 82 84 86 88 90 92 94 96 98 100 102 104 106 108 110 112 114 116 118 120 122 124 126 128 130 132 134 136 138 140 142 144 146 148 150 152 154 156 158 160 162 164 166 168 170 172 174 176 178 180 182 184 186 188 190 192 194 196 198 200 202 204 206 208 210 212 214 216 218 220 222 224 226 228 230 232 234 236 238 240 242 244 246 248 250 252 254 256 258 260 262 264 266 268 270 272 274 276 278 280 282 284 286 288 290 292 294 296 298 300 302 304 306 308 310 312 314 316 318 320 322 324 326 328 330 332 334 336 338 340 342 344 346 348 350 352 354 356 358 360 362 364 366 368 370 372 374 376 378 380 382 384 386 388 390 392 394 396 398 400 402 404 406 408 410 412 414 416 418 420 422 424 426 428 430 432 434 436 438 440 442 444 446 448 450 452 454 456 458 460 462 464 466 468 470 472 474 476 478 480 482 484 486 488 490 492 494 496 498 500 
</DataArray>
<DataArray type="UInt32" Name="types" format="ascii">
3 3 3 3 3 3 3 3 3 3 3 3 3 3 3 3 3 3 3 3 3 3 3 3 3 3 3 3 3 3 3 3 3 3 3 3 3 3 3 3 3 3 3 3 3 3 3 3 3 3 3 3 3 3 3 3 3 3 3 3 3 3 3 3 3 3 3 3 3 3 3 3 3 3 3 3 3 3 3 3 3 3 3 3 3 3 3 3 3 3 3 3 3 3 3 3 3 3 3 3 3 3 3 3 3 3 3 3 3 3 3 3 3 3 3 3 3 3 3 3 3 3 3 3 3 3 3 3 3 3 3 3 3 3 3 3 3 3 3 3 3 3 3 3 3 3 3 3 3 3 3 3 3 3 3 3 3 3 3 3 3 3 3 3 3 3 3 3 3 3 3 3 3 3 3 3 3 3 3 3 3 3 3 3 3 3 3 3 3 3 3 3 3 3 3 3 3 3 3 3 3 3 3 3 3 3 3 3 3 3 3 3 3 3 3 3 3 3 3 3 3 3 3 3 3 3 3 3 3 3 3 3 3 3 3 3 3 3 3 3 3 3 3 3 3 3 3 3 3 3 
</DataArray>
</Cells>
<PointData Scalars="" Vectors="displacement," Tensors="">
<DataArray type="Float64" Name="displacement" NumberOfComponents="3" format="ascii">
0 0 -0.00046102707924737047 0 0 -0.00045872214858091987 0 0 -0.00045872214858091987 0 0 -0.00045642274091021735 0 0 -0.00045642274091021735 0 0 -0.00045412885537518858 0 0 -0.00045412885537518858 0 0 -0.00045184049054272375 0 0 -0.00045184049054272375 0 0 -0.00044955764440720002 0 0 -0.00044955764440720002 0 0 -0.00044728031439121064 0 0 -0.00044728031439121064 0 0 -0.00044500849734650246 0 0 -0.00044500849734650246 0 0 -0.00044274218955511909 0 0 -0.00044274218955511909 0 0 -0.00044048138673075191 0 0 -0.00044048138673075191 0 0 -0.0004382260840202936 0 0 -0.0004382260840202936 0 0 -0.00043597627600559926 0 0 -0.00043597627600559926 0 0 -0.00043373195670544455 0 0 -0.00043373195670544455 0 0 -0.00043149311957768979 0 0 -0.00043149311957768979 0 0 -0.0004292597575216411 0 0 -0.0004292597575216411 0 0 -0.00042703186288060938 0 0 -0.00042703186288060938 0 0 -0.00042480942744466582 0 0 -0.00042480942744466582 0 0 -0.00042259244245359043 0 0 -0.00042259244245359043 0 0 -0.00042038089860001225 0 0 -0.00042038089860001225 0 0 -0.00041817478603273927 0 0 -0.00041817478603273927 0 0 -0.00041597409436027345 0 0 -0.00041597409436027345 0 0 -0.00041377881265451254 0 0 -0.00041377881265451254 0 0 -0.00041158892945463126 0 0 -0.00041158892945463126 0 0 -0.00040940443277114248 0 0 -0.00040940443277114248 0 0 -0.00040722531009013363 0 0 -0.00040722531009013363 0 0 -0.00040505154837767619 0 0 -0.00040505154837767619 0 0 -0.00040288313408440448 0 0 -0.00040288313408440448 0 0 -0.00040072005315026059 0 0 -0.00040072005315026059 0 0 -0.00039856229100940297 0 0 -0.00039856229100940297 0 0 -0.00039640983259527329 0 0 -0.00039640983259527329 0 0 -0.00039426266234582157 0 0 -0.00039426266234582157 0 0 -0.00039212076420887975 0 0 -0.00039212076420887975 0 0 -0.00038998412164768787 0 0 -0.00038998412164768787 0 0 -0.00038785271764656148 0 0 -0.00038785271764656148 0 0 -0.00038572653471670269 0 0 -0.00038572653471670269 0 0 -0.00038360555490214645 0 0 -0.00038360555490214645 0 0 -0.00038148975978583998 0 0 -0.00038148975978583998 0 0 -0.00037937913049585154 0 0 -0.00037937913049585154 0 0 -0.00037727364771170243 0 0 -0.00037727364771170243 0 0 -0.0003751732916708206 0 0 -0.0003751732916708206 0 0 -0.00037307804217510927 0 0 -0.00037307804217510927 0 0 -0.00037098787859762828 0 0 -0.00037098787859762828 0 0 -0.00036890277988938164 0 0 -0.00036890277988938164 0 0 -0.0003668227245862096 0 0 -0.0003668227245862096 0 0 -0.00036474769081577753 0 0 -0.00036474769081577753 0 0 -0.00036267765630466046 0 0 -0.00036267765630466046 0 0 -0.00036061259838551649 0 0 -0.00036061259838551649 0 0 -0.00035855249400434529 0 0 -0.00035855249400434529 0 0 -0.00035649731972782776 0 0 -0.00035649731972782776 0 0 -0.00035444705175074115 0 0 -0.00035444705175074115 0 0 -0.0003524016659034465 0 0 -0.0003524016659034465 0 0 -0.00035036113765944264 0 0 -0.00035036113765944264 0 0 -0.00034832544214298311 0 0 -0.00034832544214298311 0 0 -0.00034629455413675051 0 0 -0.00034629455413675051 0 0 -0.00034426844808958476 0 0 -0.00034426844808958476 0 0 -0.00034224709812426095 0 0 -0.00034224709812426095 0 0 -0.00034023047804531087 0 0 -0.00034023047804531087 0 0 -0.00033821856134688498 0 0 -0.00033821856134688498 0 0 -0.00033621132122065034 0 0 -0.00033621132122065034 0 0 -0.00033420873056371907 0 0 -0.00033420873056371907 0 0 -0.0003322107619866051 0 0 -0.0003322107619866051 0 0 -0.00033021738782120164 0 0 -0.00033021738782120164 0 0 -0.00032822858012877864 0 0 -0.00032822858012877864 0 0 -0.00032624431070799308 0 0 -0.00032624431070799308 0 0 -0.0003242645511029101 0 0 -0.0003242645511029101 0 0 -0.00032228927261102953 0 0 -0.00032228927261102953 0 0 -0.00032031844629131309 0 0 -0.00032031844629131309 0 0 -0.0003183520429722108 0 0 -0.0003183520429722108 0 0 -0.00031639003325967913 0 0 -0.00031639003325967913 0 0 -0.00031443238754519007 0 0 -0.00031443238754519007 0 0 -0.00031247907601372515 0 0 -0.00031247907601372515 0 0 -0.00031053006865175198 0 0 -0.00031053006865175198 0 0 -0.00030858533525517817 0 0 -0.00030858533525517817 0 0 -0.00030664484543728058 0 0 -0.00030664484543728058 0 0 -0.00030470856863660492 0 0 -0.00030470856863660492 0 0 -0.00030277647412483265 0 0 -0.00030277647412483265 0 0 -0.00030084853101461199 0 0 -0.00030084853101461199 0 0 -0.00029892470826734896 0 0 -0.00029892470826734896 0 0 -0.00029700497470095609 0 0 -0.00029700497470095609 0 0 -0.00029508929899755421 0 0 -0.00029508929899755421 0 0 -0.00029317764971112603 0 0 -0.00029317764971112603 0 0 -0.00029126999527511642 0 0 -0.00029126999527511642 0 0 -0.00028936630400997788 0 0 -0.00028936630400997788 0 0 -0.00028746654413065747 0 0 -0.00028746654413065747 0 0 -0.00028557068375402233 0 0 -0.00028557068375402233 0 0 -0.00028367869090622187 0 0 -0.00028367869090622187 0 0 -0.00028179053352998275 0 0 -0.00028179053352998275 0 0 -0.00027990617949183493 0 0 -0.00027990617949183493 0 0 -0.00027802559658926632 0 0 -0.00027802559658926632 0 0 -0.00027614875255780284 0 0 -0.00027614875255780284 0 0 -0.00027427561507801227 0 0 -0.00027427561507801227 0 0 -0.00027240615178242912 0 0 -0.00027240615178242912 0 0 -0.00027054033026239864 0 0 -0.00027054033026239864 0 0 -0.00026867811807483821 0 0 -0.00026867811807483821 0 0 -0.00026681948274891296 0 0 -0.00026681948274891296 0 0 -0.00026496439179262506 0 0 -0.00026496439179262506 0 0 -0.00026311281269931455 0 0 -0.00026311281269931455 0 0 -0.00026126471295406822 0 0 -0.00026126471295406822 0 0 -0.00025942006004003821 0 0 -0.00025942006004003821 0 0 -0.00025757882144466522 0 0 -0.00025757882144466522 0 0 -0.00025574096466580732 0 0 -0.00025574096466580732 0 0 -0.00025390645721777122 0 0 -0.00025390645721777122 0 0 -0.00025207526663724672 0 0 -0.00025207526663724672 0 0 -0.00025024736048914081 0 0 -0.00025024736048914081 0 0 -0.00024842270637231116 0 0 -0.00024842270637231116 0 0 -0.00024660127192519882 0 0 -0.00024660127192519882 0 0 -0.00024478302483135745 0 0 -0.00024478302483135745 0 0 -0.00024296793282487959 0 0 -0.00024296793282487959 0 0 -0.00024115596369571769 0 0 -0.00024115596369571769 0 0 -0.00023934708529490056 0 0 -0.00023934708529490056 0 0 -0.00023754126553964306 0 0 -0.00023754126553964306 0 0 -0.00023573847241835017 0 0 -0.00023573847241835017 0 0 -0.00023393867399551174 0 0 -0.00023393867399551174 0 0 -0.00023214183841649218 0 0 -0.00023214183841649218 0 0 -0.00023034793391220947 0 0 -0.00023034793391220947 0 0 -0.000228556928803707 0 0 -0.000228556928803707 0 0 -0.0002267687915066157 0 0 -0.0002267687915066157 0 0 -0.00022498349053550701 0 0 -0.00022498349053550701 0 0 -0.00022320099450813657 0 0 -0.00022320099450813657 0 0 -0.0002214212721495791 0 0 -0.0002214212721495791 0 0 -0.00021964429229625194 0 0 -0.00021964429229625194 0 0 -0.00021787002389983036 0 0 -0.00021787002389983036 0 0 -0.00021609843603105256 0 0 -0.00021609843603105256 0 0 -0.00021432949788341559 0 0 -0.00021432949788341559 0 0 -0.00021256317877675954 0 0 -0.00021256317877675954 0 0 -0.00021079944816075155 0 0 -0.00021079944816075155 0 0 -0.00020903827561824235 0 0 -0.00020903827561824235 0 0 -0.00020727963086854384 0 0 -0.00020727963086854384 0 0 -0.00020552348377056255 0 0 -0.00020552348377056255 0 0 -0.00020376980432585605 0 0 -0.00020376980432585605 0 0 -0.00020201856268156271 0 0 -0.00020201856268156271 0 0 -0.00020026972913323297 0 0 -0.00020026972913323297 0 0 -0.00019852327412755316 0 0 -0.00019852327412755316 0 0 -0.00019677916826496273 0 0 -0.00019677916826496273 0 0 -0.0001950373823021675 0 0 -0.0001950373823021675 0 0 -0.00019329788715454651 0 0 -0.00019329788715454651 0 0 -0.00019156065389845732 0 0 -0.00019156065389845732 0 0 -0.00018982565377343656 0 0 -0.00018982565377343656 0 0 -0.00018809285818429896 0 0 -0.00018809285818429896 0 0 -0.0001863622387031356 0 0 -0.0001863622387031356 0 0 -0.00018463376707120939 0 0 -0.00018463376707120939 0 0 -0.00018290741520075328 0 0 -0.00018290741520075328 0 0 -0.00018118315517666746 0 0 -0.00018118315517666746 0 0 -0.00017946095925812014 0 0 -0.00017946095925812014 0 0 -0.00017774079988005069 0 0 -0.00017774079988005069 0 0 -0.000176022649654576 0 0 -0.000176022649654576 0 0 -0.00017430648137230285 0 0 -0.00017430648137230285 0 0 -0.0001725922680035453 0 0 -0.0001725922680035453 0 0 -0.00017087998269945011 0 0 -0.00017087998269945011 0 0 -0.00016916959879302842 0 0 -0.00016916959879302842 0 0 -0.00016746108980009842 0 0 -0.00016746108980009842 0 0 -0.00016575442942013636 0 0 -0.00016575442942013636 0 0 -0.00016404959153704015 0 0 -0.00016404959153704015 0 0 -0.00016234655021980511 0 0 -0.00016234655021980511 0 0 -0.00016064527972311162 0 0 -0.00016064527972311162 0 0 -0.00015894575448783 0 0 -0.00015894575448783 0 0 -0.00015724794914143833 0 0 -0.00015724794914143833 0 0 -0.00015555183849835967 0 0 -0.00015555183849835967 0 0 -0.00015385739756021606 0 0 -0.00015385739756021606 0 0 -0.0001521646015160013 0 0 -0.0001521646015160013 0 0 -0.00015047342574217535 0 0 -0.00015047342574217535 0 0 -0.00014878384580268019 0 0 -0.00014878384580268019 0 0 -0.0001470958374488769 0 0 -0.0001470958374488769 0 0 -0.00014540937661940929 0 0 -0.00014540937661940929 0 0 -0.00014372443943999106 0 0 -0.00014372443943999106 0 0 -0.00014204100222311913 0 0 -0.00014204100222311913 0 0 -0.00014035904146771623 0 0 -0.00014035904146771623 0 0 -0.00013867853385870048 0 0 -0.00013867853385870048 0 0 -0.00013699945626648627 0 0 -0.00013699945626648627 0 0 -0.00013532178574641641 0 0 -0.00013532178574641641 0 0 -0.00013364549953812519 0 0 -0.00013364549953812519 0 0 -0.00013197057506483744 0 0 -0.00013197057506483744 0 0 -0.00013029698993260024 0 0 -0.00013029698993260024 0 0 -0.00012862472192945278 0 0 -0.00012862472192945278 0 0 -0.00012695374902453092 0 0 -0.00012695374902453092 0 0 -0.00012528404936711302 0 0 -0.00012528404936711302 0 0 -0.00012361560128560276 0 0 -0.00012361560128560276 0 0 -0.00012194838328645512 0 0 -0.00012194838328645512 0 0 -0.00012028237405304211 0 0 -0.00012028237405304211 0 0 -0.00011861755244446347 0 0 -0.00011861755244446347 0 0 -0.00011695389749430028 0 0 -0.00011695389749430028 0 0 -0.00011529138840931538 0 0 -0.00011529138840931538 0 0 -0.00011363000456809848 0 0 -0.00011363000456809848 0 0 -0.00011196972551966062 0 0 -0.00011196972551966062 0 0 -0.00011031053098197724 0 0 -0.00011031053098197724 0 0 -0.00010865240084047973 0 0 -0.00010865240084047973 0 0 -0.00010699531514650015 0 0 -0.00010699531514650015 0 0 -0.00010533925411566605 0 0 -0.00010533925411566605 0 0 -0.00010368419812624988 0 0 -0.00010368419812624988 0 0 -0.00010203012771747255 0 0 -0.00010203012771747255 0 0 -0.00010037702358776097 0 0 -0.00010037702358776097 0 0 -9.872486659296404e-05 0 0 -9.872486659296404e-05 0 0 -9.7073637744523963e-05 0 0 -9.7073637744523963e-05 0 0 -9.5423318207607695e-05 0 0 -9.5423318207607695e-05 0 0 -9.377388929919674e-05 0 0 -9.377388929919674e-05 0 0 -9.2125332486138315e-05 0 0 -9.2125332486138315e-05 0 0 -9.047762938315648e-05 0 0 -9.047762938315648e-05 0 0 -8.8830761750827633e-05 0 0 -8.8830761750827633e-05 0 0 -8.7184711493517149e-05 0 0 -8.7184711493517149e-05 0 0 -8.553946065728308e-05 0 0 -8.553946065728308e-05 0 0 -8.3894991427741993e-05 0 0 -8.3894991427741993e-05 0 0 -8.2251286127903444e-05 0 0 -8.2251286127903444e-05 0 0 -8.0608327215970409e-05 0 0 -8.0608327215970409e-05 0 0 -7.8966097283108397e-05 0 0 -7.8966097283108397e-05 0 0 -7.7324579051182038e-05 0 0 -7.7324579051182038e-05 0 0 -7.568375537046354e-05 0 0 -7.568375537046354e-05 0 0 -7.4043609217309448e-05 0 0 -7.4043609217309448e-05 0 0 -7.2404123691810897e-05 0 0 -7.2404123691810897e-05 0 0 -7.0765282015415324e-05 0 0 -7.0765282015415324e-05 0 0 -6.9127067528520553e-05 0 0 -6.9127067528520553e-05 0 0 -6.7489463688043952e-05 0 0 -6.7489463688043952e-05 0 0 -6.5852454064966418e-05 0 0 -6.5852454064966418e-05 0 0 -6.4216022341850127e-05 0 0 -6.4216022341850127e-05 0 0 -6.2580152310335473e-05 0 0 -6.2580152310335473e-05 0 0 -6.0944827868611762e-05 0 0 -6.0944827868611762e-05 0 0 -5.9310033018868536e-05 0 0 -5.9310033018868536e-05 0 0 -5.7675751864723624e-05 0 0 -5.7675751864723624e-05 0 0 -5.604196860863182e-05 0 0 -5.604196860863182e-05 0 0 -5.4408667549271873e-05 0 0 -5.4408667549271873e-05 0 0 -5.2775833078916271e-05 0 0 -5.2775833078916271e-05 0 0 -5.1143449680780149e-05 0 0 -5.1143449680780149e-05 0 0 -4.9511501926354193e-05 0 0 -4.9511501926354193e-05 0 0 -4.787997447271964e-05 0 0 -4.787997447271964e-05 0 0 -4.6248852059845838e-05 0 0 -4.6248852059845838e-05 0 0 -4.461811950787318e-05 0 0 -4.461811950787318e-05 0 0 -4.2987761714379655e-05 0 0 -4.2987761714379655e-05 0 0 -4.1357763651634248e-05 0 0 -4.1357763651634248e-05 0 0 -3.9728110363833818e-05 0 0 -3.9728110363833818e-05 0 0 -3.8098786964329504e-05 0 0 -3.8098786964329504e-05 0 0 -3.6469778632837594e-05 0 0 -3.6469778632837594e-05 0 0 -3.4841070612640518e-05 0 0 -3.4841070612640518e-05 0 0 -3.3212648207774227e-05 0 0 -3.3212648207774227e-05 0 0 -3.158449678020601e-05 0 0 -3.158449678020601e-05 0 0 -2.9956601747000809e-05 0 0 -2.9956601747000809e-05 0 0 -2.8328948577478922e-05 0 0 -2.8328948577478922e-05 0 0 -2.6701522790362383e-05 0 0 -2.6701522790362383e-05 0 0 -2.5074309950914873e-05 0 0 -2.5074309950914873e-05 0 0 -2.3447295668071282e-05 0 0 -2.3447295668071282e-05 0 0 -2.1820465591560976e-05 0 0 -2.1820465591560976e-05 0 0 -2.0193805409023859e-05 0 0 -2.0193805409023859e-05 0 0 -1.8567300843118667e-05 0 0 -1.8567300843118667e-05 0 0 -1.6940937648626206e-05 0 0 -1.6940937648626206e-05 0 0 -1.5314701609547379e-05 0 0 -1.5314701609547379e-05 0 0 -1.368857853619443e-05 0 0 -1.368857853619443e-05 0 0 -1.2062554262279886e-05 0 0 -1.2062554262279886e-05 0 0 -1.0436614641999413e-05 0 0 -1.0436614641999413e-05 0 0 -8.810745547112682e-06 0 0 -8.810745547112682e-06 0 0 -7.1849328640201969e-06 0 0 -7.1849328640201969e-06 0 0 -5.5591624908388863e-06 0 0 -5.5591624908388863e-06 0 0 -3.9334203344737461e-06 0 0 -3.9334203344737461e-06 0 0 -2.3076923076902447e-06 
</DataArray>
</PointData>
<CellData Scalars="" Vectors="" Tensors="stress,">
<DataArray type="Float64" Name="stress" NumberOfComponents="9" format="ascii">
-53781715.550615311 0 0 0 -53781715.550615311 0 0 0 -99880328.879718781 -53652845.64982605 0 0 0 -53652845.64982605 0 0 0 -99640999.063964844 -53523995.817438126 0 0 0 -53523995.817438126 0 0 0 -99401706.518100739 -53395179.424280167 0 0 0 -53395179.424280167 0 0 0 -99162476.073661804 -53266409.828985214 0 0 0 -53266409.828985214 0 0 0 -98923332.539546967 -53137700.373186111 0 0 0 -53137700.373186111 0 0 0 -98684300.693061829 -53009064.376628876 0 0 0 -53009064.376628876 0 0 0 -98445405.270881653 -52880515.132385254 0 0 0 -52880515.132385254 0 0 0 -98206670.960144043 -52752065.902013779 0 0 0 -52752065.902013779 0 0 0 -97968122.389453888 -52623729.910808563 0 0 0 -52623729.910808563 0 0 0 -97729784.120071411 -52495520.342985153 0 0 0 -52495520.342985153 0 0 0 -97491680.63697052 -52367450.337060928 0 0 0 -52367450.337060928 0 0 0 -97253836.340255737 -52239532.981061935 0 0 0 -52239532.981061935 0 0 0 -97016275.536254883 -52111781.307916641 0 0 0 -52111781.307916641 0 0 0 -96779022.428985596 -51984208.290845871 0 0 0 -51984208.290845871 0 0 0 -96542101.111572266 -51856826.838781357 0 0 0 -51856826.838781357 0 0 0 -96305535.557739258 -51729649.791847229 0 0 0 -51729649.791847229 0 0 0 -96069349.613430023 -51602689.916908264 0 0 0 -51602689.916908264 0 0 0 -95833566.988540649 -51475959.903116226 0 0 0 -51475959.903116226 0 0 0 -95598211.248641968 -51349472.35761261 0 0 0 -51349472.35761261 0 0 0 -95363305.806999207 -51223239.801166534 0 0 0 -51223239.801166534 0 0 0 -95128873.916454315 -51097274.663972855 0 0 0 -51097274.663972855 0 0 0 -94894938.66166687 -50971589.281484604 0 0 0 -50971589.281484604 0 0 0 -94661522.951324463 -50846195.890283585 0 0 0 -50846195.890283585 0 0 0 -94428649.510528564 -50721106.624084473 0 0 0 -50721106.624084473 0 0 0 -94196340.87330246 -50596333.509750366 0 0 0 -50596333.509750366 0 0 0 -93964619.37525177 -50471888.463434219 0 0 0 -50471888.463434219 0 0 0 -93733507.146381378 -50347783.286754608 0 0 0 -50347783.286754608 0 0 0 -93503026.103973389 -50224029.663103104 0 0 0 -50224029.663103104 0 0 0 -93273197.945762634 -50100639.153963089 0 0 0 -50100639.153963089 0 0 0 -93044044.143072128 -49977623.195404053 0 0 0 -49977623.195404053 0 0 0 -92815585.93432045 -49854993.094596863 0 0 0 -49854993.094596863 0 0 0 -92587844.318536758 -49732760.026411057 0 0 0 -49732760.026411057 0 0 0 -92360840.04904747 -49610935.03017807 0 0 0 -49610935.03017807 0 0 0 -92134593.627475739 -49489529.006456375 0 0 0 -49489529.006456375 0 0 0 -91909125.297706604 -49368552.713962555 0 0 0 -49368552.713962555 0 0 0 -91684455.040214539 -49248016.766540527 0 0 0 -49248016.766540527 0 0 0 -91460602.566432953 -49127931.630289078 0 0 0 -49127931.630289078 0 0 0 -91237587.313392639 -49008307.62071991 0 0 0 -49008307.62071991 0 0 0 -91015428.43847847 -48889154.900074005 0 0 0 -48889154.900074005 0 0 0 -90794144.814424515 -48770483.47469902 0 0 0 -48770483.47469902 0 0 0 -90573755.024440765 -48652303.192562103 0 0 0 -48652303.192562103 0 0 0 -90354277.357618332 -48534623.740823746 0 0 0 -48534623.740823746 0 0 0 -90135729.804386139 -48417454.643555641 0 0 0 -48417454.643555641 0 0 0 -89918130.052318573 -48300805.259539604 0 0 0 -48300805.259539604 0 0 0 -89701495.482002258 -48184684.780166626 0 0 0 -48184684.780166626 0 0 0 -89485843.163166046 -48069102.227468491 0 0 0 -48069102.227468491 0 0 0 -89271189.851013184 -47954066.452215195 0 0 0 -47954066.452215195 0 0 0 -89057551.982685089 -47839586.13216114 0 0 0 -47839586.13216114 0 0 0 -88844945.674013138 -47725669.770347595 0 0 0 -47725669.770347595 0 0 0 -88633386.716360092 -47612325.693562508 0 0 0 -47612325.693562508 0 0 0 -88422890.573759079 -47499562.050860405 0 0 0 -47499562.050860405 0 0 0 -88213472.380168915 -47387386.812232018 0 0 0 -47387386.812232018 0 0 0 -88005146.937002182 -47275807.767338753 0 0 0 -47275807.767338753 0 0 0 -87797928.710773468 -47164832.524360657 0 0 0 -47164832.524360657 0 0 0 -87591831.830953598 -47054468.508972168 0 0 0 -47054468.508972168 0 0 0 -87386870.088092804 -46944722.963407516 0 0 0 -46944722.963407516 0 0 0 -87183056.932043076 -46835602.945611954 0 0 0 -46835602.945611954 0 0 0 -86980405.470420837 -46727115.328533173 0 0 0 -46727115.328533173 0 0 0 -86778928.46727562 -46619266.799461365 0 0 0 -46619266.799461365 0 0 0 -86578638.34185791 -46512063.859550476 0 0 0 -46512063.859550476 0 0 0 -86379547.167736053 -46405512.823338509 0 0 0 -46405512.823338509 0 0 0 -86181666.671915054 -46299619.818465233 0 0 0 -46299619.818465233 0 0 0 -85985008.234292984 -46194390.785403252 0 0 0 -46194390.785403252 0 0 0 -85789582.887178421 -46089831.477348328 0 0 0 -46089831.477348328 0 0 0 -85595401.315074921 -45985947.460184097 0 0 0 -45985947.460184097 0 0 0 -85402473.854627609 -45882744.112520218 0 0 0 -45882744.112520218 0 0 0 -85210810.494680405 -45780226.625872612 0 0 0 -45780226.625872612 0 0 0 -85020420.876621246 -45678400.004878044 0 0 0 -45678400.004878044 0 0 0 -84831314.294773102 -45577269.06764698 0 0 0 -45577269.06764698 0 0 0 -84643499.697059631 -45476838.446173668 0 0 0 -45476838.446173668 0 0 0 -84456985.685749054 -45377112.586853981 0 0 0 -45377112.586853981 0 0 0 -84271780.518444061 -45278095.751076698 0 0 0 -45278095.751076698 0 0 0 -84087892.109142303 -45179792.015896797 0 0 0 -45179792.015896797 0 0 0 -83905328.029523849 -45082205.27481842 0 0 0 -45082205.27481842 0 0 0 -83724095.510375977 -44985339.238612175 0 0 0 -44985339.238612175 0 0 0 -83544201.443138123 -44889197.436268806 0 0 0 -44889197.436268806 0 0 0 -83365652.381641388 -44793783.215964317 0 0 0 -44793783.215964317 0 0 0 -83188454.543933868 -44699099.746173859 0 0 0 -44699099.746173859 0 0 0 -83012613.814321518 -44605150.016787529 0 0 0 -44605150.016787529 0 0 0 -82838135.745462418 -44511936.840354919 0 0 0 -44511936.840354919 0 0 0 -82665025.560657501 -44419462.85336113 0 0 0 -44419462.85336113 0 0 0 -82493288.156244278 -44327730.517605782 0 0 0 -44327730.517605782 0 0 0 -82322928.104124069 -44236742.12161541 0 0 0 -44236742.12161541 0 0 0 -82153949.654428482 -44146499.782139778 0 0 0 -44146499.782139778 0 0 0 -81986356.738258362 -44057005.445707321 0 0 0 -44057005.445707321 0 0 0 -81820152.970600128 -43968260.890244484 0 0 0 -43968260.890244484 0 0 0 -81655341.653310776 -43880267.726728439 0 0 0 -43880267.726728439 0 0 0 -81491925.778211594 -43793027.400941849 0 0 0 -43793027.400941849 0 0 0 -81329908.030319214 -43706541.195240974 0 0 0 -43706541.195240974 0 0 0 -81169290.791162491 -43620810.230400085 0 0 0 -43620810.230400085 0 0 0 -81010076.14217186 -43535835.467505455 0 0 0 -43535835.467505455 0 0 0 -80852265.86822319 -43451617.709869385 0 0 0 -43451617.709869385 0 0 0 -80695861.461187363 -43368157.605049133 0 0 0 -43368157.605049133 0 0 0 -80540864.123662949 -43285455.64684391 0 0 0 -43285455.64684391 0 0 0 -80387274.772708893 -43203512.177371025 0 0 0 -43203512.177371025 0 0 0 -80235094.043689728 -43122327.389206886 0 0 0 -43122327.389206886 0 0 0 -80084322.294240952 -43041901.32749176 0 0 0 -43041901.32749176 0 0 0 -79934959.608200073 -42962233.892161369 0 0 0 -42962233.892161369 0 0 0 -79787005.799728394 -42883324.840143204 0 0 0 -42883324.840143204 0 0 0 -79640460.41740799 -42805173.787633896 0 0 0 -42805173.787633896 0 0 0 -79495322.748462677 -42727780.212362289 0 0 0 -42727780.212362289 0 0 0 -79351591.822957993 -42651143.455927849 0 0 0 -42651143.455927849 0 0 0 -79209266.418151855 -42575262.726149559 0 0 0 -42575262.726149559 0 0 0 -79068345.062849045 -42500137.099414825 0 0 0 -42500137.099414825 0 0 0 -78928826.041770935 -42425765.523088455 0 0 0 -42425765.523088455 0 0 0 -78790707.400020599 -42352146.817939758 0 0 0 -42352146.817939758 0 0 0 -78653986.947601318 -42279279.680566788 0 0 0 -42279279.680566788 0 0 0 -78518662.263910294 -42207162.685855865 0 0 0 -42207162.685855865 0 0 0 -78384730.702302933 -42135794.289463043 0 0 0 -42135794.289463043 0 0 0 -78252189.39471817 -42065172.830293655 0 0 0 -42065172.830293655 0 0 0 -78121035.256259918 -41995296.533018112 0 0 0 -41995296.533018112 0 0 0 -77991264.989891052 -41926163.510578156 0 0 0 -41926163.510578156 0 0 0 -77862875.09107399 -41857771.766717911 0 0 0 -41857771.766717911 0 0 0 -77735861.85247612 -41790119.198512077 0 0 0 -41790119.198512077 0 0 0 -77610221.368665695 -41723203.598917961 0 0 0 -41723203.598917961 0 0 0 -77485949.540847778 -41657022.659328461 0 0 0 -41657022.659328461 0 0 0 -77363042.081609726 -41591573.972097397 0 0 0 -41591573.972097397 0 0 0 -77241494.519609451 -41526855.033127785 0 0 0 -41526855.033127785 0 0 0 -77121302.204380035 -41462863.244421005 0 0 0 -41462863.244421005 0 0 0 -77002460.311067581 -41399595.916624069 0 0 0 -41399595.916624069 0 0 0 -76884963.845157623 -41337050.271601677 0 0 0 -41337050.271601677 0 0 0 -76768807.647260666 -41275223.444981575 0 0 0 -41275223.444981575 0 0 0 -76653986.397825241 -41214112.488706589 0 0 0 -41214112.488706589 0 0 0 -76540494.6218853 -41153714.373585701 0 0 0 -41153714.373585701 0 0 0 -76428326.69380188 -41094025.991827965 0 0 0 -41094025.991827965 0 0 0 -76317476.841966629 -41035044.159580231 0 0 0 -41035044.159580231 0 0 0 -76207939.153505325 -40976765.619456291 0 0 0 -40976765.619456291 0 0 0 -76099707.578990936 -40919187.043041229 0 0 0 -40919187.043041229 0 0 0 -75992775.937076569 -40862305.03340435 0 0 0 -40862305.03340435 0 0 0 -75887137.919179916 -40806116.127587318 0 0 0 -40806116.127587318 0 0 0 -75782787.094091415 -40750616.799090385 0 0 0 -40750616.799090385 0 0 0 -75679716.912595749 -40695803.460333824 0 0 0 -40695803.460333824 0 0 0 -75577920.712048531 -40641672.465115547 0 0 0 -40641672.465115547 0 0 0 -75477391.720930099 -40588220.111046791 0 0 0 -40588220.111046791 0 0 0 -75378123.063373566 -40535442.641975403 0 0 0 -40535442.641975403 0 0 0 -75280107.763669014 -40483336.250378609 0 0 0 -40483336.250378609 0 0 0 -75183338.750702858 -40431897.079769135 0 0 0 -40431897.079769135 0 0 0 -75087808.862426758 -40381121.227039337 0 0 0 -40381121.227039337 0 0 0 -74993510.850215912 -40331004.744836807 0 0 0 -40331004.744836807 0 0 0 -74900437.383267403 -40281543.643871307 0 0 0 -40281543.643871307 0 0 0 -74808581.052905083 -40232733.89523077 0 0 0 -40232733.89523077 0 0 0 -74717934.376856804 -40184571.432662487 0 0 0 -40184571.432662487 0 0 0 -74628489.803516388 -40137052.154849052 0 0 0 -40137052.154849052 0 0 0 -74540239.716148376 -40090171.927638054 0 0 0 -40090171.927638054 0 0 0 -74453176.437042236 -40043926.586269855 0 0 0 -40043926.586269855 0 0 0 -74367292.23164463 -39998311.937568665 0 0 0 -39998311.937568665 0 0 0 -74282579.312626839 -39953323.762116909 0 0 0 -39953323.762116909 0 0 0 -74199029.843931198 -39908957.816398621 0 0 0 -39908957.816398621 0 0 0 -74116635.944740295 -39865209.834929466 0 0 0 -39865209.834929466 0 0 0 -74035389.693440437 -39822075.532343864 0 0 0 -39822075.532343864 0 0 0 -73955283.131496429 -39779550.605471134 0 0 0 -39779550.605471134 0 0 0 -73876308.267303467 -39737630.73538065 0 0 0 -39737630.73538065 0 0 0 -73798457.079992294 -39696311.589407444 0 0 0 -39696311.589407444 0 0 0 -73721721.52318573 -39655588.823135376 0 0 0 -39655588.823135376 0 0 0 -73646093.528679848 -39615458.082368851 0 0 0 -39615458.082368851 0 0 0 -73571565.010113716 -39575915.00506258 0 0 0 -39575915.00506258 0 0 0 -73498127.866544724 -39536955.223248005 0 0 0 -39536955.223248005 0 0 0 -73425773.986031532 -39498574.364907742 0 0 0 -39498574.364907742 0 0 0 -73354495.249114037 -39460768.055832863 0 0 0 -39460768.055832863 0 0 0 -73284283.532260895 -39423531.921452522 0 0 0 -39423531.921452522 0 0 0 -73215130.711268425 -39386861.58864069 0 0 0 -39386861.58864069 0 0 0 -73147028.664618492 -39350752.687471867 0 0 0 -39350752.687471867 0 0 0 -73079969.276733398 -39315200.852989197 0 0 0 -39315200.852989197 0 0 0 -73013944.441265106 -39280201.7269063 0 0 0 -39280201.7269063 0 0 0 -72948946.064254761 -39245750.959298134 0 0 0 -39245750.959298134 0 0 0 -72884966.067268372 -39211844.21026516 0 0 0 -39211844.21026516 0 0 0 -72821996.390492439 -39178477.151559353 0 0 0 -39178477.151559353 0 0 0 -72760028.995753288 -39145645.468195915 0 0 0 -39145645.468195915 0 0 0 -72699055.869505882 -39113344.860025883 0 0 0 -39113344.860025883 0 0 0 -72639069.025762558 -39081571.043279171 0 0 0 -39081571.043279171 0 0 0 -72580060.508947372 -39050319.752096176 0 0 0 -39050319.752096176 0 0 0 -72522022.39675045 -39019586.740005493 0 0 0 -39019586.740005493 0 0 0 -72464946.802866936 -38989367.781404972 0 0 0 -38989367.781404972 0 0 0 -72408825.879752159 -38959658.672982216 0 0 0 -38959658.672982216 0 0 0 -72353651.821253777 -38930455.235134602 0 0 0 -38930455.235134602 0 0 0 -72299416.865250587 -38901753.313344479 0 0 0 -38901753.313344479 0 0 0 -72246113.296210289 -38873548.779535294 0 0 0 -38873548.779535294 0 0 0 -72193733.447709084 -38845837.533400059 0 0 0 -38845837.533400059 0 0 0 -72142269.704886436 -38818615.503703594 0 0 0 -38818615.503703594 0 0 0 -72091714.506877899 -38791878.649546146 0 0 0 -38791878.649546146 0 0 0 -72042060.349157333 -38765622.961627483 0 0 0 -38765622.961627483 0 0 0 -71993299.785879135 -38739844.463445663 0 0 0 -38739844.463445663 0 0 0 -71945425.432113647 -38714539.212511063 0 0 0 -38714539.212511063 0 0 0 -71898429.966093063 -38689703.301504135 0 0 0 -38689703.301504135 0 0 0 -71852306.131364822 -38665332.859422684 0 0 0 -38665332.859422684 0 0 0 -71807046.738927841 -38641424.052694798 0 0 0 -38641424.052694798 0 0 0 -71762644.669290543 -38617973.086273193 0 0 0 -38617973.086273193 0 0 0 -71719092.874507904 -38594976.204703331 0 0 0 -38594976.204703331 0 0 0 -71676384.380163193 -38572429.693166256 0 0 0 -38572429.693166256 0 0 0 -71634512.287309647 -38550329.878495216 0 0 0 -38550329.878495216 0 0 0 -71593469.774349213 -38528673.130167961 0 0 0 -38528673.130167961 0 0 0 -71553250.098883152 -38507455.861279011 0 0 0 -38507455.861279011 0 0 0 -71513846.599518299 -38486674.529485226 0 0 0 -38486674.529485226 0 0 0 -71475252.697615623 -38466325.63792944 0 0 0 -38466325.63792944 0 0 0 -71437461.899012089 -38446405.736139059 0 0 0 -38446405.736139059 0 0 0 -71400467.795687199 -38426911.420907021 0 0 0 -38426911.420907021 0 0 0 -71364264.067399025 -38407839.337140083 0 0 0 -38407839.337140083 0 0 0 -71328844.483260155 -38389186.178695679 0 0 0 -38389186.178695679 0 0 0 -71294202.903292179 -38370948.689191818 0 0 0 -38370948.689191818 0 0 0 -71260333.279927731 -38353123.662799358 0 0 0 -38353123.662799358 0 0 0 -71227229.659484863 -38335707.945000887 0 0 0 -38335707.945000887 0 0 0 -71194886.183573246 -38318698.433346987 0 0 0 -38318698.433346987 0 0 0 -71163297.090501308 -38302092.078178406 0 0 0 -38302092.078178406 0 0 0 -71132456.716617107 -38285885.883332729 0 0 0 -38285885.883332729 0 0 0 -71102359.497618198 -38270076.90682888 0 0 0 -38270076.90682888 0 0 0 -71072999.969825268 -38254662.261529922 0 0 0 -38254662.261529922 0 0 0 -71044372.771412373 -38239639.115797043 0 0 0 -38239639.115797043 0 0 0 -71016472.643622875 -38225004.694111347 0 0 0 -38225004.694111347 0 0 0 -70989294.431921482 -38210756.27768445 0 0 0 -38210756.27768445 0 0 0 -70962833.087128162 -38196891.205043793 0 0 0 -38196891.205043793 0 0 0 -70937083.666510105 -38183406.872609377 0 0 0 -38183406.872609377 0 0 0 -70912041.33484602 -38170300.73524332 0 0 0 -38170300.73524332 0 0 0 -70887701.365451813 -38157570.306787014 0 0 0 -38157570.306787014 0 0 0 -70864059.141175747 -38145213.160575628 0 0 0 -38145213.160575628 0 0 0 -70841110.155354977 -38133226.92994523 0 0 0 -38133226.92994523 0 0 0 -70818850.012755394 -38121609.308709383 0 0 0 -38121609.308709383 0 0 0 -70797274.430459976 -38110358.051629543 0 0 0 -38110358.051629543 0 0 0 -70776379.238740444 -38099470.974865675 0 0 0 -38099470.974865675 0 0 0 -70756160.381893158 -38088945.95641017 0 0 0 -38088945.95641017 0 0 0 -70736613.919047356 -38078780.936503172 0 0 0 -38078780.936503172 0 0 0 -70717736.024934292 -38068973.918040037 0 0 0 -38068973.918040037 0 0 0 -70699522.990646124 -38059522.966956139 0 0 0 -38059522.966956139 0 0 0 -70681971.224346876 -38050426.212597132 0 0 0 -38050426.212597132 0 0 0 -70665077.251966 -38041681.848078728 0 0 0 -38041681.848078728 0 0 0 -70648837.71786046 -38033288.13062799 0 0 0 -38033288.13062799 0 0 0 -70633249.385452032 -38025243.381907701 0 0 0 -38025243.381907701 0 0 0 -70618309.13782835 -38017545.988334775 0 0 0 -38017545.988334775 0 0 0 -70604013.978335857 -38010194.401375532 0 0 0 -38010194.401375532 0 0 0 -70590361.031126022 -38003187.137832642 0 0 0 -38003187.137832642 0 0 0 -70577347.541688919 -37996522.780114293 0 0 0 -37996522.780114293 0 0 0 -70564970.877355099 -37990199.976493597 0 0 0 -37990199.976493597 0 0 0 -70553228.527773857 -37984217.441352367 0 0 0 -37984217.441352367 0 0 0 -70542118.105368853 -37978573.955411553 0 0 0 -37978573.955411553 0 0 0 -70531637.345764399 -37973268.365950346 0 0 0 -37973268.365950346 0 0 0 -70521784.108193398 -37968299.58700943 0 0 0 -37968299.58700943 0 0 0 -70512556.375874758 -37963666.599584699 0 0 0 -37963666.599584699 0 0 0 -70503952.256371498 -37959368.451804876 0 0 0 -37959368.451804876 0 0 0 -70495969.981923461 -37955404.259100318 0 0 0 -37955404.259100318 0 0 0 -70488607.909757853 -37951773.204356492 0 0 0 -37951773.204356492 0 0 0 -70481864.522376299 -37948474.538055182 0 0 0 -37948474.538055182 0 0 0 -70475738.427816868 -37945507.57840693 0 0 0 -37945507.57840693 0 0 0 -70470228.359898567 -37942871.71146661 0 0 0 -37942871.71146661 0 0 0 -70465333.178437948 -37940566.391240358 0 0 0 -37940566.391240358 0 0 0 -70461051.869446337 -37938591.139778674 0 0 0 -37938591.139778674 0 0 0 -70457383.545303285 -37936945.547259092 0 0 0 -37936945.547259092 0 0 0 -70454327.444909751 -37935629.272055805 0 0 0 -37935629.272055805 0 0 0 -70451882.933817983 -37934642.040798247 0 0 0 -37934642.040798247 0 0 0 -70450049.504339546 -37933983.648417771 0 0 0 -37933983.648417771 0 0 0 -70448826.775633007 -37933653.958182693 0 0 0 -37933653.958182693 0 0 0 -70448214.493767872 
</DataArray>
</CellData>
</Piece>
</UnstructuredGrid>
</VTKFile>
