<?xml version="1.0"?>
<VTKFile type="UnstructuredGrid" version="0.1" byte_order="LittleEndian">
<UnstructuredGrid>
<Piece NumberOfPoints="500" NumberOfCells="250">
<Points>
<DataArray type="Float64" NumberOfComponents="3" format="ascii">
0 0 0 0 0 -0.00099999999999810158 0 0 -0.00099999999999810158 0 0 -0.001999999999996204 0 0 -0.001999999999996204 0 0 -0.0029999999999943271 0 0 -0.0029999999999943271 0 0 -0.0039999999999924488 0 0 -0.0039999999999924488 0 0 -0.004999999999990571 0 0 -0.004999999999990571 0 0 -0.0059999999999886811 0 0 -0.0059999999999886811 0 0 -0.0069999999999867156 0 0 -0.0069999999999867156 0 0 -0.007999999999984719 0 0 -0.007999999999984719 0 0 -0.008999999999982581 0 0 -0.008999999999982581 0 0 -0.0099999999999804221 0 0 -0.0099999999999804221 0 0 -0.010999999999978201 0 0 -0.010999999999978201 0 0 -0.011999999999975971 0 0 -0.011999999999975971 0 0 -0.01299999999997375 0 0 -0.01299999999997375 0 0 -0.01399999999997158 0 0 -0.01399999999997158 0 0 -0.014999999999969531 0 0 -0.014999999999969531 0 0 -0.01599999999996761 0 0 -0.01599999999996761 0 0 -0.0169999999999659 0 0 -0.0169999999999659 0 0 -0.01799999999996427 0 0 -0.01799999999996427 0 0 -0.018999999999962731 0 0 -0.018999999999962731 0 0 -0.019999999999961209 0 0 -0.019999999999961209 0 0 -0.020999999999959669 0 0 -0.020999999999959669 0 0 -0.02199999999995814 0 0 -0.02199999999995814 0 0 -0.022999999999956611 0 0 -0.022999999999956611 0 0 -0.023999999999955082 0 0 -0.023999999999955082 0 0 -0.024999999999953549 0 0 -0.024999999999953549 0 0 -0.02599999999995202 0 0 -0.02599999999995202 0 0 -0.02699999999995048 0 0 -0.02699999999995048 0 0 -0.027999999999948951 0 0 -0.027999999999948951 0 0 -0.028999999999947419 0 0 -0.028999999999947419 0 0 -0.02999999999994565 0 0 -0.02999999999994565 0 0 -0.03099999999994377 0 0 -0.03099999999994377 0 0 -0.031999999999941367 0 0 -0.031999999999941367 0 0 -0.032999999999938787 0 0 -0.032999999999938787 0 0 -0.033999999999935943 0 0 -0.033999999999935943 0 0 -0.034999999999933022 0 0 -0.034999999999933022 0 0 -0.035999999999930102 0 0 -0.035999999999930102 0 0 -0.036999999999927188 0 0 -0.036999999999927188 0 0 -0.037999999999924268 0 0 -0.037999999999924268 0 0 -0.038999999999921348 0 0 -0.038999999999921348 0 0 -0.039999999999918427 0 0 -0.039999999999918427 0 0 -0.040999999999915507 0 0 -0.040999999999915507 0 0 -0.041999999999912593 0 0 -0.041999999999912593 0 0 -0.042999999999909673 0 0 -0.042999999999909673 0 0 -0.043999999999906753 0 0 -0.043999999999906753 0 0 -0.044999999999903832 0 0 -0.044999999999903832 0 0 -0.045999999999900919 0 0 -0.045999999999900919 0 0 -0.046999999999897998 0 0 -0.046999999999897998 0 0 -0.047999999999895078 0 0 -0.047999999999895078 0 0 -0.048999999999892158 0 0 -0.048999999999892158 0 0 -0.049999999999889237 0 0 -0.049999999999889237 0 0 -0.050999999999886317 0 0 -0.050999999999886317 0 0 -0.051999999999883403 0 0 -0.051999999999883403 0 0 -0.052999999999880483 0 0 -0.052999999999880483 0 0 -0.053999999999877563 0 0 -0.053999999999877563 0 0 -0.054999999999874642 0 0 -0.054999999999874642 0 0 -0.055999999999871722 0 0 -0.055999999999871722 0 0 -0.056999999999868801 0 0 -0.056999999999868801 0 0 -0.057999999999865881 0 0 -0.057999999999865881 0 0 -0.058999999999862961 0 0 -0.058999999999862961 0 0 -0.059999999999860047 0 0 -0.059999999999860047 0 0 -0.060999999999857127 0 0 -0.060999999999857127 0 0 -0.061999999999854213 0 0 -0.061999999999854213 0 0 -0.062999999999851286 0 0 -0.062999999999851286 0 0 -0.063999999999848373 0 0 -0.063999999999848373 0 0 -0.064999999999845445 0 0 -0.064999999999845445 0 0 -0.065999999999842532 0 0 -0.065999999999842532 0 0 -0.066999999999839618 0 0 -0.066999999999839618 0 0 -0.067999999999836705 0 0 -0.067999999999836705 0 0 -0.068999999999833792 0 0 -0.068999999999833792 0 0 -0.069999999999830878 0 0 -0.069999999999830878 0 0 -0.070999999999827965 0 0 -0.070999999999827965 0 0 -0.071999999999825051 0 0 -0.071999999999825051 0 0 -0.072999999999822124 0 0 -0.072999999999822124 0 0 -0.07399999999981921 0 0 -0.07399999999981921 0 0 -0.074999999999816297 0 0 -0.074999999999816297 0 0 -0.075999999999813383 0 0 -0.075999999999813383 0 0 -0.07699999999981047 0 0 -0.07699999999981047 0 0 -0.077999999999807557 0 0 -0.077999999999807557 0 0 -0.078999999999804643 0 0 -0.078999999999804643 0 0 -0.07999999999980173 0 0 -0.07999999999980173 0 0 -0.080999999999798802 0 0 -0.080999999999798802 0 0 -0.081999999999795889 0 0 -0.081999999999795889 0 0 -0.082999999999792975 0 0 -0.082999999999792975 0 0 -0.083999999999790062 0 0 -0.083999999999790062 0 0 -0.084999999999787149 0 0 -0.084999999999787149 0 0 -0.085999999999784235 0 0 -0.085999999999784235 0 0 -0.086999999999781322 0 0 -0.086999999999781322 0 0 -0.087999999999778394 0 0 -0.087999999999778394 0 0 -0.088999999999775481 0 0 -0.088999999999775481 0 0 -0.089999999999772567 0 0 -0.089999999999772567 0 0 -0.090999999999769654 0 0 -0.090999999999769654 0 0 -0.091999999999766741 0 0 -0.091999999999766741 0 0 -0.092999999999763827 0 0 -0.092999999999763827 0 0 -0.093999999999760914 0 0 -0.093999999999760914 0 0 -0.094999999999758 0 0 -0.094999999999758 0 0 -0.095999999999755073 0 0 -0.095999999999755073 0 0 -0.096999999999752159 0 0 -0.096999999999752159 0 0 -0.097999999999749246 0 0 -0.097999999999749246 0 0 -0.098999999999746333 0 0 -0.098999999999746333 0 0 -0.099999999999743419 0 0 -0.099999999999743419 0 0 -0.10099999999974051 0 0 -0.10099999999974051 0 0 -0.10199999999973761 0 0 -0.10199999999973761 0 0 -0.10299999999973471 0 0 -0.10299999999973471 0 0 -0.10399999999973179 0 0 -0.10399999999973179 0 0 -0.1049999999997288 0 0 -0.1049999999997288 0 0 -0.1059999999997259 0 0 -0.1059999999997259 0 0 -0.106999999999723 0 0 -0.106999999999723 0 0 -0.1079999999997201 0 0 -0.1079999999997201 0 0 -0.1089999999997172 0 0 -0.1089999999997172 0 0 -0.1099999999997143 0 0 -0.1099999999997143 0 0 -0.1109999999997113 0 0 -0.1109999999997113 0 0 -0.1119999999997084 0 0 -0.1119999999997084 0 0 -0.1129999999997055 0 0 -0.1129999999997055 0 0 -0.1139999999997026 0 0 -0.1139999999997026 0 0 -0.1149999999996997 0 0 -0.1149999999996997 0 0 -0.1159999999996968 0 0 -0.1159999999996968 0 0 -0.11699999999969379 0 0 -0.11699999999969379 0 0 -0.11799999999969089 0 0 -0.11799999999969089 0 0 -0.11899999999968799 0 0 -0.11899999999968799 0 0 -0.11999999999968509 0 0 -0.11999999999968509 0 0 -0.1209999999996822 0 0 -0.1209999999996822 0 0 -0.1219999999996793 0 0 -0.1219999999996793 0 0 -0.1229999999996764 0 0 -0.1229999999996764 0 0 -0.1239999999996748 0 0 -0.1239999999996748 0 0 -0.12499999999967321 0 0 -0.12499999999967321 0 0 -0.12599999999967451 0 0 -0.12599999999967451 0 0 -0.12699999999967579 0 0 -0.12699999999967579 0 0 -0.1279999999996784 0 0 -0.1279999999996784 0 0 -0.12899999999968109 0 0 -0.12899999999968109 0 0 -0.1299999999996837 0 0 -0.1299999999996837 0 0 -0.13099999999968631 0 0 -0.13099999999968631 0 0 -0.13199999999968889 0 0 -0.13199999999968889 0 0 -0.13299999999969159 0 0 -0.13299999999969159 0 0 -0.1339999999996942 0 0 -0.1339999999996942 0 0 -0.13499999999969689 0 0 -0.13499999999969689 0 0 -0.1359999999996995 0 0 -0.1359999999996995 0 0 -0.13699999999970211 0 0 -0.13699999999970211 0 0 -0.1379999999997048 0 0 -0.1379999999997048 0 0 -0.13899999999970741 0 0 -0.13899999999970741 0 0 -0.13999999999971011 0 0 -0.13999999999971011 0 0 -0.14099999999971269 0 0 -0.14099999999971269 0 0 -0.1419999999997153 0 0 -0.1419999999997153 0 0 -0.14299999999971799 0 0 -0.14299999999971799 0 0 -0.1439999999997206 0 0 -0.1439999999997206 0 0 -0.14499999999972321 0 0 -0.14499999999972321 0 0 -0.14599999999972579 0 0 -0.14599999999972579 0 0 -0.14699999999972849 0 0 -0.14699999999972849 0 0 -0.1479999999997311 0 0 -0.1479999999997311 0 0 -0.14899999999973379 0 0 -0.14899999999973379 0 0 -0.1499999999997364 0 0 -0.1499999999997364 0 0 -0.15099999999973901 0 0 -0.15099999999973901 0 0 -0.1519999999997417 0 0 -0.1519999999997417 0 0 -0.15299999999974431 0 0 -0.15299999999974431 0 0 -0.15399999999974701 0 0 -0.15399999999974701 0 0 -0.15499999999974959 0 0 -0.15499999999974959 0 0 -0.1559999999997522 0 0 -0.1559999999997522 0 0 -0.15699999999975489 0 0 -0.15699999999975489 0 0 -0.1579999999997575 0 0 -0.1579999999997575 0 0 -0.15899999999976011 0 0 -0.15899999999976011 0 0 -0.1599999999997628 0 0 -0.1599999999997628 0 0 -0.16099999999976539 0 0 -0.16099999999976539 0 0 -0.161999999999768 0 0 -0.161999999999768 0 0 -0.16299999999977069 0 0 -0.16299999999977069 0 0 -0.1639999999997733 0 0 -0.1639999999997733 0 0 -0.16499999999977599 0 0 -0.16499999999977599 0 0 -0.1659999999997786 0 0 -0.1659999999997786 0 0 -0.16699999999978121 0 0 -0.16699999999978121 0 0 -0.16799999999978391 0 0 -0.16799999999978391 0 0 -0.16899999999978649 0 0 -0.16899999999978649 0 0 -0.1699999999997891 0 0 -0.1699999999997891 0 0 -0.17099999999979171 0 0 -0.17099999999979171 0 0 -0.1719999999997944 0 0 -0.1719999999997944 0 0 -0.17299999999979701 0 0 -0.17299999999979701 0 0 -0.1739999999997997 0 0 -0.1739999999997997 0 0 -0.17499999999980231 0 0 -0.17499999999980231 0 0 -0.17599999999980501 0 0 -0.17599999999980501 0 0 -0.17699999999980759 0 0 -0.17699999999980759 0 0 -0.1779999999998102 0 0 -0.1779999999998102 0 0 -0.17899999999981281 0 0 -0.17899999999981281 0 0 -0.1799999999998155 0 0 -0.1799999999998155 0 0 -0.18099999999981811 0 0 -0.18099999999981811 0 0 -0.18199999999982069 0 0 -0.18199999999982069 0 0 -0.18299999999982339 0 0 -0.18299999999982339 0 0 -0.183999999999826 0 0 -0.183999999999826 0 0 -0.18499999999982869 0 0 -0.18499999999982869 0 0 -0.1859999999998313 0 0 -0.1859999999998313 0 0 -0.18699999999983391 0 0 -0.18699999999983391 0 0 -0.1879999999998366 0 0 -0.1879999999998366 0 0 -0.18899999999983921 0 0 -0.18899999999983921 0 0 -0.18999999999984191 0 0 -0.18999999999984191 0 0 -0.19099999999984449 0 0 -0.19099999999984449 0 0 -0.1919999999998471 0 0 -0.1919999999998471 0 0 -0.19299999999984971 0 0 -0.19299999999984971 0 0 -0.1939999999998524 0 0 -0.1939999999998524 0 0 -0.19499999999985501 0 0 -0.19499999999985501 0 0 -0.1959999999998577 0 0 -0.1959999999998577 0 0 -0.19699999999986029 0 0 -0.19699999999986029 0 0 -0.19799999999986301 0 0 -0.19799999999986301 0 0 -0.19899999999986559 0 0 -0.19899999999986559 0 0 -0.1999999999998682 0 0 -0.1999999999998682 0 0 -0.20099999999987081 0 0 -0.20099999999987081 0 0 -0.2019999999998735 0 0 -0.2019999999998735 0 0 -0.20299999999987611 0 0 -0.20299999999987611 0 0 -0.20399999999987881 0 0 -0.20399999999987881 0 0 -0.20499999999988139 0 0 -0.20499999999988139 0 0 -0.205999999999884 0 0 -0.205999999999884 0 0 -0.20699999999988669 0 0 -0.20699999999988669 0 0 -0.2079999999998893 0 0 -0.2079999999998893 0 0 -0.20899999999989191 0 0 -0.20899999999989191 0 0 -0.2099999999998946 0 0 -0.2099999999998946 0 0 -0.21099999999989719 0 0 -0.21099999999989719 0 0 -0.21199999999989991 0 0 -0.21199999999989991 0 0 -0.21299999999990249 0 0 -0.21299999999990249 0 0 -0.2139999999999051 0 0 -0.2139999999999051 0 0 -0.21499999999990771 0 0 -0.21499999999990771 0 0 -0.2159999999999104 0 0 -0.2159999999999104 0 0 -0.21699999999991301 0 0 -0.21699999999991301 0 0 -0.21799999999991571 0 0 -0.21799999999991571 0 0 -0.21899999999991829 0 0 -0.21899999999991829 0 0 -0.2199999999999209 0 0 -0.2199999999999209 0 0 -0.22099999999992359 0 0 -0.22099999999992359 0 0 -0.2219999999999262 0 0 -0.2219999999999262 0 0 -0.22299999999992881 0 0 -0.22299999999992881 0 0 -0.22399999999993139 0 0 -0.22399999999993139 0 0 -0.22499999999993411 0 0 -0.22499999999993411 0 0 -0.2259999999999367 0 0 -0.2259999999999367 0 0 -0.22699999999993939 0 0 -0.22699999999993939 0 0 -0.227999999999942 0 0 -0.227999999999942 0 0 -0.22899999999994469 0 0 -0.22899999999994469 0 0 -0.2299999999999473 0 0 -0.2299999999999473 0 0 -0.23099999999994991 0 0 -0.23099999999994991 0 0 -0.23199999999995249 0 0 -0.23199999999995249 0 0 -0.23299999999995519 0 0 -0.23299999999995519 0 0 -0.2339999999999578 0 0 -0.2339999999999578 0 0 -0.23499999999996049 0 0 -0.23499999999996049 0 0 -0.2359999999999631 0 0 -0.2359999999999631 0 0 -0.23699999999996571 0 0 -0.23699999999996571 0 0 -0.2379999999999684 0 0 -0.2379999999999684 0 0 -0.23899999999997101 0 0 -0.23899999999997101 0 0 -0.2399999999999736 0 0 -0.2399999999999736 0 0 -0.24099999999997629 0 0 -0.24099999999997629 0 0 -0.2419999999999789 0 0 -0.2419999999999789 0 0 -0.24299999999998159 0 0 -0.24299999999998159 0 0 -0.2439999999999842 0 0 -0.2439999999999842 0 0 -0.24499999999998681 0 0 -0.24499999999998681 0 0 -0.24599999999998939 0 0 -0.24599999999998939 0 0 -0.24699999999999209 0 0 -0.24699999999999209 0 0 -0.2479999999999947 0 0 -0.2479999999999947 0 0 -0.24899999999999739 0 0 -0.24899999999999739 0 0 -0.25 
</DataArray>
</Points>
<Cells>
<DataArray type="UInt32" Name="connectivity" format="ascii">
0 1 2 3 4 5 6 7 8 9 10 11 12 13 14 15 16 17 18 19 20 21 22 23 24 25 26 27 28 29 30 31 32 33 34 35 36 37 38 39 40 41 42 43 44 45 46 47 48 49 50 51 52 53 54 55 56 57 58 59 60 61 62 63 64 65 66 67 68 69 70 71 72 73 74 75 76 77 78 79 80 81 82 83 84 85 86 87 88 89 90 91 92 93 94 95 96 97 98 99 100 101 102 103 104 105 106 107 108 109 110 111 112 113 114 115 116 117 118 119 120 121 122 123 124 125 126 127 128 129 130 131 132 133 134 135 136 137 138 139 140 141 142 143 144 145 146 147 148 149 150 151 152 153 154 155 156 157 158 159 160 161 162 163 164 165 166 167 168 169 170 171 172 173 174 175 176 177 178 179 180 181 182 183 184 185 186 187 188 189 190 191 192 193 194 195 196 197 198 199 200 201 202 203 204 205 206 207 208 209 210 211 212 213 214 215 216 217 218 219 220 221 222 223 224 225 226 227 228 229 230 231 232 233 234 235 236 237 238 239 240 241 242 243 244 245 246 247 248 249 250 251 252 253 254 255 256 257 258 259 260 261 262 263 264 265 266 267 268 269 270 271 272 273 274 275 276 277 278 279 280 281 282 283 284 285 286 287 288 289 290 291 292 293 294 295 296 297 298 299 300 301 302 303 304 305 306 307 308 309 310 311 312 313 314 315 316 317 318 319 320 321 322 323 324 325 326 327 328 329 330 331 332 333 334 335 336 337 338 339 340 341 342 343 344 345 346 347 348 349 350 351 352 353 354 355 356 357 358 359 360 361 362 363 364 365 366 367 368 369 370 371 372 373 374 375 376 377 378 379 380 381 382 383 384 385 386 387 388 389 390 391 392 393 394 395 396 397 398 399 400 401 402 403 404 405 406 407 408 409 410 411 412 413 414 415 416 417 418 419 420 421 422 423 424 425 426 427 428 429 430 431 432 433 434 435 436 437 438 439 440 441 442 443 444 445 446 447 448 449 450 451 452 453 454 455 456 457 458 459 460 461 462 463 464 465 466 467 468 469 470 471 472 473 474 475 476 477 478 479 480 481 482 483 484 485 486 487 488 489 490 491 492 493 494 495 496 497 498 499 
</DataArray>
<DataArray type="UInt32" Name="offsets" format="ascii">
2 4 6 8 10 12 14 16 18 20 22 24 26 28 30 32 34 36 38 40 42 44 46 48 50 52 54 56 58 60 62 64 66 68 70 72 74 76 78 80 82 84 86 88 90 92 94 96 98 100 102 104 106 108 110 112 114 116 118 120 122 124 126 128 130 132 134 136 138 140 142 144 146 148 150 152 154 156 158 160 162 164 166 168 170 172 174 176 178 180 182 184 186 188 190 192 194 196 198 200 202 204 206 208 210 212 214 216 218 220 222 224 226 228 230 232 234 236 238 240 242 244 246 248 250 252 254 256 258 260 262 264 266 268 270 272 274 276 278 280 282 284 286 288 290 292 294 296 298 300 302 304 306 308 310 312 314 316 318 320 322 324 326 328 330 332 334 336 338 340 342 344 346 348 350 352 354 356 358 360 362 364 366 368 370 372 374 376 378 380 382 384 386 388 390 392 394 396 398 400 402 404 406 408 410 412 414 416 418 420 422 424 426 428 430 432 434 436 438 440 442 444 446 448 450 452 454 456 458 460 462 464 466 468 470 472 474 476 478 480 482 484 486 488 490 492 494 496 498 500 
</DataArray>
<DataArray type="UInt32" Name="types" format="ascii">
3 3 3 3 3 3 3 3 3 3 3 3 3 3 3 3 3 3 3 3 3 3 3 3 3 3 3 3 3 3 3 3 3 3 3 3 3 3 3 3 3 3 3 3 3 3 3 3 3 3 3 3 3 3 3 3 3 3 3 3 3 3 3 3 3 3 3 3 3 3 3 3 3 3 3 3 3 3 3 3 3 3 3 3 3 3 3 3 3 3 3 3 3 3 3 3 3 3 3 3 3 3 3 3 3 3 3 3 3 3 3 3 3 3 3 3 3 3 3 3 3 3 3 3 3 3 3 3 3 3 3 3 3 3 3 3 3 3 3 3 3 3 3 3 3 3 3 3 3 3 3 3 3 3 3 3 3 3 3 3 3 3 3 3 3 3 3 3 3 3 3 3 3 3 3 3 3 3 3 3 3 3 3 3 3 3 3 3 3 3 3 3 3 3 3 3 3 3 3 3 3 3 3 3 3 3 3 3 3 3 3 3 3 3 3 3 3 3 3 3 3 3 3 3 3 3 3 3 3 3 3 3 3 3 3 3 3 3 3 3 3 3 3 3 3 3 3 3 3 3 
</DataArray>
</Cells>
<PointData Scalars="" Vectors="displacement," Tensors="">
<DataArray type="Float64" Name="displacement" NumberOfComponents="3" format="ascii">
0 0 -0.00044231006729525803 0 0 -0.00044000649676407318 0 0 -0.00044000649676407318 0 0 -0.00043771116867725616 0 0 -0.00043771116867725616 0 0 -0.00043542407971038191 0 0 -0.00043542407971038191 0 0 -0.00043314522432769446 0 0 -0.00043314522432769446 0 0 -0.00043087459478950512 0 0 -0.00043087459478950512 0 0 -0.00042861218116248902 0 0 -0.00042861218116248902 0 0 -0.00042635797133282319 0 0 -0.00042635797133282319 0 0 -0.0004241119510220986 0 0 -0.0004241119510220986 0 0 -0.00042187410380592765 0 0 -0.00042187410380592765 0 0 -0.00041964441113515565 0 0 -0.00041964441113515565 0 0 -0.00041742285235958854 0 0 -0.00041742285235958854 0 0 -0.000415209404754123 0 0 -0.000415209404754123 0 0 -0.00041300404354718421 0 0 -0.00041300404354718421 0 0 -0.0004108067419513517 0 0 -0.0004108067419513517 0 0 -0.00040861747119606161 0 0 -0.00040861747119606161 0 0 -0.00040643620056226952 0 0 -0.00040643620056226952 0 0 -0.00040426289741895221 0 0 -0.00040426289741895221 0 0 -0.0004020975272613326 0 0 -0.0004020975272613326 0 0 -0.00039994005375070516 0 0 -0.00039994005375070516 0 0 -0.00039779043875574346 0 0 -0.00039779043875574346 0 0 -0.00039564864239517294 0 0 -0.00039564864239517294 0 0 -0.00039351462308168903 0 0 -0.00039351462308168903 0 0 -0.00039138833756700641 0 0 -0.00039138833756700641 0 0 -0.00038926974098792583 0 0 -0.00038926974098792583 0 0 -0.00038715878691330629 0 0 -0.00038715878691330629 0 0 -0.00038505542739183479 0 0 -0.00038505542739183479 0 0 -0.00038295961300048662 0 0 -0.00038295961300048662 0 0 -0.000380871292893574 0 0 -0.000380871292893574 0 0 -0.00037879041485228338 0 0 -0.00037879041485228338 0 0 -0.00037671692533460525 0 0 -0.00037671692533460525 0 0 -0.00037465076952555995 0 0 -0.00037465076952555995 0 0 -0.00037259189138763658 0 0 -0.00037259189138763658 0 0 -0.00037054023371135153 0 0 -0.00037054023371135153 0 0 -0.00036849573816585016 0 0 -0.00036849573816585016 0 0 -0.00036645834534946979 0 0 -0.00036645834534946979 0 0 -0.00036442799484018886 0 0 -0.00036442799484018886 0 0 -0.00036240462524589237 0 0 -0.00036240462524589237 0 0 -0.00036038817425438393 0 0 -0.00036038817425438393 0 0 -0.00035837857868308085 0 0 -0.00035837857868308085 0 0 -0.0003563757745283324 0 0 -0.0003563757745283324 0 0 -0.00035437969701430206 0 0 -0.00035437969701430206 0 0 -0.00035239028064136215 0 0 -0.00035239028064136215 0 0 -0.00035040745923394819 0 0 -0.00035040745923394819 0 0 -0.00034843116598782804 0 0 -0.00034843116598782804 0 0 -0.00034646133351674027 0 0 -0.00034646133351674027 0 0 -0.00034449789389836221 0 0 -0.00034449789389836221 0 0 -0.00034254077871956898 0 0 -0.00034254077871956898 0 0 -0.00034058991912094957 0 0 -0.00034058991912094957 0 0 -0.00033864524584054843 0 0 -0.00033864524584054843 0 0 -0.00033670668925680244 0 0 -0.00033670668925680244 0 0 -0.00033477417943064892 0 0 -0.00033477417943064892 0 0 -0.00033284764614677817 0 0 -0.00033284764614677817 0 0 -0.00033092701895401269 0 0 -0.00033092701895401269 0 0 -0.00032901222720479193 0 0 -0.00032901222720479193 0 0 -0.00032710320009374732 0 0 -0.00032710320009374732 0 0 -0.00032519986669535316 0 0 -0.00032519986669535316 0 0 -0.00032330215600064147 0 0 -0.00032330215600064147 0 0 -0.00032140999695297052 0 0 -0.00032140999695297052 0 0 -0.00031952331848283906 0 0 -0.00031952331848283906 0 0 -0.00031764204954174081 0 0 -0.00031764204954174081 0 0 -0.00031576611913505364 0 0 -0.00031576611913505364 0 0 -0.00031389545635396153 0 0 -0.00031389545635396153 0 0 -0.00031202999040640794 0 0 -0.00031202999040640794 0 0 -0.00031016965064708114 0 0 -0.00031016965064708114 0 0 -0.00030831436660643294 0 0 -0.00030831436660643294 0 0 -0.0003064640680187342 0 0 -0.0003064640680187342 0 0 -0.00030461868484917156 0 0 -0.00030461868484917156 0 0 -0.00030277814731999054 0 0 -0.00030277814731999054 0 0 -0.00030094238593569254 0 0 -0.00030094238593569254 0 0 -0.00029911133150729282 0 0 -0.00029911133150729282 0 0 -0.00029728491517564814 0 0 -0.00029728491517564814 0 0 -0.00029546306843386425 0 0 -0.00029546306843386425 0 0 -0.00029364572314879338 0 0 -0.00029364572314879338 0 0 -0.00029183281158163253 0 0 -0.00029183281158163253 0 0 -0.00029002426640763537 0 0 -0.00029002426640763537 0 0 -0.00028822002073494967 0 0 -0.00028822002073494967 0 0 -0.00028642000812259327 0 0 -0.00028642000812259327 0 0 -0.00028462416259758376 0 0 -0.00028462416259758376 0 0 -0.00028283241867123403 0 0 -0.00028283241867123403 0 0 -0.00028104471135463019 0 0 -0.00028104471135463019 0 0 -0.00027926097617330612 0 0 -0.00027926097617330612 0 0 -0.00027748114918112996 0 0 -0.00027748114918112996 0 0 -0.00027570516697341877 0 0 -0.00027570516697341877 0 0 -0.00027393296669929728 0 0 -0.00027393296669929728 0 0 -0.00027216448607331634 0 0 -0.00027216448607331634 0 0 -0.00027039966338634835 0 0 -0.00027039966338634835 0 0 -0.00026863843751577635 0 0 -0.00026863843751577635 0 0 -0.00026688074793499247 0 0 -0.00026688074793499247 0 0 -0.00026512653472222366 0 0 -0.00026512653472222366 0 0 -0.00026337573856870098 0 0 -0.00026337573856870098 0 0 -0.00026162830078618965 0 0 -0.00026162830078618965 0 0 -0.0002598841633138962 0 0 -0.0002598841633138962 0 0 -0.00025814326872477047 0 0 -0.00025814326872477047 0 0 -0.00025640556023121929 0 0 -0.00025640556023121929 0 0 -0.00025467098169024735 0 0 -0.00025467098169024735 0 0 -0.00025293947760804365 0 0 -0.00025293947760804365 0 0 -0.00025121099314402912 0 0 -0.00025121099314402912 0 0 -0.00024948547411438255 0 0 -0.00024948547411438255 0 0 -0.00024776286699505995 0 0 -0.00024776286699505995 0 0 -0.00024604311892432529 0 0 -0.00024604311892432529 0 0 -0.00024432617770480709 0 0 -0.00024432617770480709 0 0 -0.00024261199180509787 0 0 -0.00024261199180509787 0 0 -0.00024090051036091117 0 0 -0.00024090051036091117 0 0 -0.00023919168317581218 0 0 -0.00023919168317581218 0 0 -0.00023748546072153688 0 0 -0.00023748546072153688 0 0 -0.00023578179413791494 0 0 -0.00023578179413791494 0 0 -0.00023408063523241095 0 0 -0.00023408063523241095 0 0 -0.00023238193647929874 0 0 -0.00023238193647929874 0 0 -0.00023068565101848229 0 0 -0.00023068565101848229 0 0 -0.00022899173265397856 0 0 -0.00022899173265397856 0 0 -0.00022730013585207476 0 0 -0.00022730013585207476 0 0 -0.0002256108157391738 0 0 -0.0002256108157391738 0 0 -0.00022392372809934216 0 0 -0.00022392372809934216 0 0 -0.00022223882937157175 0 0 -0.00022223882937157175 0 0 -0.00022055607664676899 0 0 -0.00022055607664676899 0 0 -0.00021887542766448363 0 0 -0.00021887542766448363 0 0 -0.00021719684080938911 0 0 -0.00021719684080938911 0 0 -0.00021552027510752652 0 0 -0.00021552027510752652 0 0 -0.0002138456902223246 0 0 -0.0002138456902223246 0 0 -0.00021217304645040406 0 0 -0.00021217304645040406 0 0 -0.00021050230471718069 0 0 -0.00021050230471718069 0 0 -0.00020883342657227624 0 0 -0.00020883342657227624 0 0 -0.00020716637418474756 0 0 -0.00020716637418474756 0 0 -0.00020550111033814208 0 0 -0.00020550111033814208 0 0 -0.00020383759842540079 0 0 -0.00020383759842540079 0 0 -0.00020217580244359093 0 0 -0.00020217580244359093 0 0 -0.0002005156869885244 0 0 -0.0002005156869885244 0 0 -0.00019885721724920852 0 0 -0.00019885721724920852 0 0 -0.0001972003590022009 0 0 -0.0001972003590022009 0 0 -0.00019554507860582995 0 0 -0.00019554507860582995 0 0 -0.00019389134299431496 0 0 -0.00019389134299431496 0 0 -0.0001922391196717851 0 0 -0.0001922391196717851 0 0 -0.00019058837670620529 0 0 -0.00019058837670620529 0 0 -0.0001889390827232182 0 0 -0.0001889390827232182 0 0 -0.00018729120689990657 0 0 -0.00018729120689990657 0 0 -0.00018564471895848731 0 0 -0.00018564471895848731 0 0 -0.00018399958915993973 0 0 -0.00018399958915993973 0 0 -0.00018235578829757721 0 0 -0.00018235578829757721 0 0 -0.00018071328769056824 0 0 -0.00018071328769056824 0 0 -0.00017907205917741065 0 0 -0.00017907205917741065 0 0 -0.00017743207510936867 0 0 -0.00017743207510936867 0 0 -0.00017579330834387421 0 0 -0.00017579330834387421 0 0 -0.00017415573223790188 0 0 -0.00017415573223790188 0 0 -0.00017251932064131988 0 0 -0.00017251932064131988 0 0 -0.00017088404789022236 0 0 -0.00017088404789022236 0 0 -0.00016924988880024928 0 0 -0.00016924988880024928 0 0 -0.00016761681865989683 0 0 -0.00016761681865989683 0 0 -0.00016598481322382469 0 0 -0.00016598481322382469 0 0 -0.00016435384870616077 0 0 -0.00016435384870616077 0 0 -0.00016272390177381245 0 0 -0.00016272390177381245 0 0 -0.0001610949495397832 0 0 -0.0001610949495397832 0 0 -0.00015946696955650193 0 0 -0.00015946696955650193 0 0 -0.00015783993980916704 0 0 -0.00015783993980916704 0 0 -0.00015621383870910698 0 0 -0.00015621383870910698 0 0 -0.0001545886450871645 0 0 -0.0001545886450871645 0 0 -0.00015296433818710279 0 0 -0.00015296433818710279 0 0 -0.00015134089765904049 0 0 -0.00015134089765904049 0 0 -0.00014971830355291595 0 0 -0.00014971830355291595 0 0 -0.00014809653631198268 0 0 -0.00014809653631198268 0 0 -0.00014647557676634123 0 0 -0.00014647557676634123 0 0 -0.00014485540612650739 0 0 -0.00014485540612650739 0 0 -0.00014323600597701864 0 0 -0.00014323600597701864 0 0 -0.00014161735827008352 0 0 -0.00014161735827008352 0 0 -0.00013999944531927286 0 0 -0.00013999944531927286 0 0 -0.00013838224979325527 0 0 -0.00013838224979325527 0 0 -0.00013676575470958081 0 0 -0.00013676575470958081 0 0 -0.00013514994342851081 0 0 -0.00013514994342851081 0 0 -0.00013353479964689819 0 0 -0.00013353479964689819 0 0 -0.00013192030739211854 0 0 -0.00013192030739211854 0 0 -0.00013030645101605174 0 0 -0.00013030645101605174 0 0 -0.00012869321518911846 0 0 -0.00012869321518911846 0 0 -0.00012708058489436903 0 0 -0.00012708058489436903 0 0 -0.00012546854542162879 0 0 -0.00012546854542162879 0 0 -0.00012385708236169722 0 0 -0.00012385708236169722 0 0 -0.00012224618160060582 0 0 -0.00012224618160060582 0 0 -0.00012063582931393099 0 0 -0.00012063582931393099 0 0 -0.0001190260119611666 0 0 -0.0001190260119611666 0 0 -0.00011741671628015294 0 0 -0.00011741671628015294 0 0 -0.00011580792928156587 0 0 -0.00011580792928156587 0 0 -0.00011419963824346372 0 0 -0.00011419963824346372 0 0 -0.00011259183070589469 0 0 -0.00011259183070589469 0 0 -0.00011098449446556218 0 0 -0.00011098449446556218 0 0 -0.00010937761757055075 0 0 -0.00010937761757055075 0 0 -0.00010777118831511237 0 0 -0.00010777118831511237 0 0 -0.00010616519523451026 0 0 -0.00010616519523451026 0 0 -0.0001045596270999249 0 0 -0.0001045596270999249 0 0 -0.00010295447291341751 0 0 -0.00010295447291341751 0 0 -0.00010134972190295433 0 0 -0.00010134972190295433 0 0 -9.9745363517490037e-05 0 0 -9.9745363517490037e-05 0 0 -9.814138742210882e-05 0 0 -9.814138742210882e-05 0 0 -9.6537783493226285e-05 0 0 -9.6537783493226285e-05 0 0 -9.4934541813847459e-05 0 0 -9.4934541813847459e-05 0 0 -9.3331652668884695e-05 0 0 -9.3331652668884695e-05 0 0 -9.1729106540531811e-05 0 0 -9.1729106540531811e-05 0 0 -9.0126894103696528e-05 0 0 -9.0126894103696528e-05 0 0 -8.8525006221487732e-05 0 0 -8.8525006221487732e-05 0 0 -8.6923433940760991e-05 0 0 -8.6923433940760991e-05 0 0 -8.5322168487717221e-05 0 0 -8.5322168487717221e-05 0 0 -8.3721201263558967e-05 0 0 -8.3721201263558967e-05 0 0 -8.2120523840197842e-05 0 0 -8.2120523840197842e-05 0 0 -8.0520127956018172e-05 0 0 -8.0520127956018172e-05 0 0 -7.8920005511691997e-05 0 0 -7.8920005511691997e-05 0 0 -7.7320148566047307e-05 0 0 -7.7320148566047307e-05 0 0 -7.5720549331986231e-05 0 0 -7.5720549331986231e-05 0 0 -7.4121200172455736e-05 0 0 -7.4121200172455736e-05 0 0 -7.2522093596466252e-05 0 0 -7.2522093596466252e-05 0 0 -7.0923222255161119e-05 0 0 -7.0923222255161119e-05 0 0 -6.9324578937933376e-05 0 0 -6.9324578937933376e-05 0 0 -6.7726156568589347e-05 0 0 -6.7726156568589347e-05 0 0 -6.6127948201559722e-05 0 0 -6.6127948201559722e-05 0 0 -6.4529947018156187e-05 0 0 -6.4529947018156187e-05 0 0 -6.2932146322871151e-05 0 0 -6.2932146322871151e-05 0 0 -6.1334539539723953e-05 0 0 -6.1334539539723953e-05 0 0 -5.9737120208646769e-05 0 0 -5.9737120208646769e-05 0 0 -5.8139881981914796e-05 0 0 -5.8139881981914796e-05 0 0 -5.654281862061587e-05 0 0 -5.654281862061587e-05 0 0 -5.4945923991161019e-05 0 0 -5.4945923991161019e-05 0 0 -5.3349192061832388e-05 0 0 -5.3349192061832388e-05 0 0 -5.1752616899370971e-05 0 0 -5.1752616899370971e-05 0 0 -5.0156192665599057e-05 0 0 -5.0156192665599057e-05 0 0 -4.8559913614080311e-05 0 0 -4.8559913614080311e-05 0 0 -4.6963774086814034e-05 0 0 -4.6963774086814034e-05 0 0 -4.5367768510962233e-05 0 0 -4.5367768510962233e-05 0 0 -4.3771891395610745e-05 0 0 -4.3771891395610745e-05 0 0 -4.2176137328560759e-05 0 0 -4.2176137328560759e-05 0 0 -4.0580500973152496e-05 0 0 -4.0580500973152496e-05 0 0 -3.8984977065115669e-05 0 0 -3.8984977065115669e-05 0 0 -3.7389560409451494e-05 0 0 -3.7389560409451494e-05 0 0 -3.5794245877339e-05 0 0 -3.5794245877339e-05 0 0 -3.4199028403069958e-05 0 0 -3.4199028403069958e-05 0 0 -3.2603902981006888e-05 0 0 -3.2603902981006888e-05 0 0 -3.1008864662566385e-05 0 0 -3.1008864662566385e-05 0 0 -2.9413908553224426e-05 0 0 -2.9413908553224426e-05 0 0 -2.7819029809544477e-05 0 0 -2.7819029809544477e-05 0 0 -2.6224223636224365e-05 0 0 -2.6224223636224365e-05 0 0 -2.4629485283164816e-05 0 0 -2.4629485283164816e-05 0 0 -2.3034810042554311e-05 0 0 -2.3034810042554311e-05 0 0 -2.1440193245972472e-05 0 0 -2.1440193245972472e-05 0 0 -1.98456302615095e-05 0 0 -1.98456302615095e-05 0 0 -1.8251116490899397e-05 0 0 -1.8251116490899397e-05 0 0 -1.665664736666799e-05 0 0 -1.665664736666799e-05 0 0 -1.5062218349294009e-05 0 0 -1.5062218349294009e-05 0 0 -1.3467824924379897e-05 0 0 -1.3467824924379897e-05 0 0 -1.1873462599835221e-05 0 0 -1.1873462599835221e-05 0 0 -1.0279126903067266e-05 0 0 -1.0279126903067266e-05 0 0 -8.6848133781811603e-06 0 0 -8.6848133781811603e-06 0 0 -7.0905175831859357e-06 0 0 -7.0905175831859357e-06 0 0 -5.4962350872075662e-06 0 0 -5.4962350872075662e-06 0 0 -3.9019614677047163e-06 0 0 -3.9019614677047163e-06 0 0 -2.3076923076901782e-06 
</DataArray>
</PointData>
<CellData Scalars="" Vectors="" Tensors="stress,">
<DataArray type="Float64" Name="stress" NumberOfComponents="9" format="ascii">
-53749979.06108284 0 0 0 -53749979.06108284 0 0 0 -99821389.684864044 -53557655.359165192 0 0 0 -53557655.359165192 0 0 0 -99464217.095592499 -53365409.227165222 0 0 0 -53365409.227165222 0 0 0 -99107188.564735413 -53173292.262805939 0 0 0 -53173292.262805939 0 0 0 -98750399.916641235 -52981355.891183853 0 0 0 -52981355.891183853 0 0 0 -98393946.655056 -52789651.297142029 0 0 0 -52789651.297142029 0 0 0 -98037923.837551117 -52598229.358972549 0 0 0 -52598229.358972549 0 0 0 -97682425.952377319 -52407140.583677292 0 0 0 -52407140.583677292 0 0 0 -97327546.798259735 -52216435.044101715 0 0 0 -52216435.044101715 0 0 0 -96973379.367614746 -52026162.318126678 0 0 0 -52026162.318126678 0 0 0 -96620015.733661652 -51836371.430015564 0 0 0 -51836371.430015564 0 0 0 -96267546.941455841 -51647110.794311523 0 0 0 -51647110.794311523 0 0 0 -95916062.903720856 -51458428.16201973 0 0 0 -51458428.16201973 0 0 0 -95565652.300895691 -51270370.569536209 0 0 0 -51270370.569536209 0 0 0 -95216402.486282349 -51082984.290206909 0 0 0 -51082984.290206909 0 0 0 -94868399.396095276 -50896314.788579941 0 0 0 -50896314.788579941 0 0 0 -94521727.464508057 -50710406.677490234 0 0 0 -50710406.677490234 0 0 0 -94176469.54391098 -50525303.677873611 0 0 0 -50525303.677873611 0 0 0 -93832706.83033371 -50341048.581384659 0 0 0 -50341048.581384659 0 0 0 -93490518.793998718 -50157683.215848923 0 0 0 -50157683.215848923 0 0 0 -93149983.115146637 -49975248.413389206 0 0 0 -49975248.413389206 0 0 0 -92811175.624866486 -49793783.981367111 0 0 0 -49793783.981367111 0 0 0 -92474170.251110077 -49613328.67600441 0 0 0 -49613328.67600441 0 0 0 -92139038.969722748 -49433920.178623199 0 0 0 -49433920.178623199 0 0 0 -91805851.760297775 -49255595.074531555 0 0 0 -49255595.074531555 0 0 0 -91474676.566986084 -49078388.834411621 0 0 0 -49078388.834411621 0 0 0 -91145579.263904572 -48902335.7981987 0 0 0 -48902335.7981987 0 0 0 -90818623.625226974 -48727469.161367416 0 0 0 -48727469.161367416 0 0 0 -90493871.299684525 -48553820.963521957 0 0 0 -48553820.963521957 0 0 0 -90171381.789398193 -48381422.079242706 0 0 0 -48381422.079242706 0 0 0 -89851212.432878494 -48210302.211147308 0 0 0 -48210302.211147308 0 0 0 -89533418.392129898 -48040489.884992599 0 0 0 -48040489.884992599 0 0 0 -89218052.64356041 -47872012.446773529 0 0 0 -47872012.446773529 0 0 0 -88905165.972581863 -47704896.061834335 0 0 0 -47704896.061834335 0 0 0 -88594806.971977234 -47539165.715681076 0 0 0 -47539165.715681076 0 0 0 -88287022.04340744 -47374845.216692924 0 0 0 -47374845.216692924 0 0 0 -87981855.402429581 -47211957.200388908 0 0 0 -47211957.200388908 0 0 0 -87679349.086437225 -47050523.135334969 0 0 0 -47050523.135334969 0 0 0 -87379542.965621948 -46890563.330541611 0 0 0 -46890563.330541611 0 0 0 -87082474.756721497 -46732096.944267273 0 0 0 -46732096.944267273 0 0 0 -86788180.039352417 -46575141.994176865 0 0 0 -46575141.994176865 0 0 0 -86496692.274900436 -46419715.368733406 0 0 0 -46419715.368733406 0 0 0 -86208042.827648163 -46265832.839795113 0 0 0 -46265832.839795113 0 0 0 -85922260.988189697 -46113509.076271057 0 0 0 -46113509.076271057 0 0 0 -85639373.998788834 -45962757.658848763 0 0 0 -45962757.658848763 0 0 0 -85359407.080718994 -45813591.095622063 0 0 0 -45813591.095622063 0 0 0 -85082383.46329689 -45666020.83864212 0 0 0 -45666020.83864212 0 0 0 -84808324.414619446 -45520057.301252365 0 0 0 -45520057.301252365 0 0 0 -84537249.273756027 -45375709.876158714 0 0 0 -45375709.876158714 0 0 0 -84269175.484294891 -45232986.954205513 0 0 0 -45232986.954205513 0 0 0 -84004118.629238129 -45091895.943714142 0 0 0 -45091895.943714142 0 0 0 -83742092.466897964 -44952443.290448189 0 0 0 -44952443.290448189 0 0 0 -83483108.967975616 -44814634.497992516 0 0 0 -44814634.497992516 0 0 0 -83227178.353414536 -44678474.148614883 0 0 0 -44678474.148614883 0 0 0 -82974309.133140564 -44543965.92450428 0 0 0 -44543965.92450428 0 0 0 -82724508.145507812 -44411112.62932682 0 0 0 -44411112.62932682 0 0 0 -82477780.597322464 -44279916.210068703 0 0 0 -44279916.210068703 0 0 0 -82234130.104412079 -44150377.779117584 0 0 0 -44150377.779117584 0 0 0 -81993558.732648849 -44022497.636528969 0 0 0 -44022497.636528969 0 0 0 -81756067.039268494 -43896275.292420387 0 0 0 -43896275.292420387 0 0 0 -81521654.114494324 -43771709.489494324 0 0 0 -43771709.489494324 0 0 0 -81290317.623348236 -43648798.225609779 0 0 0 -43648798.225609779 0 0 0 -81062053.84756279 -43527538.776377678 0 0 0 -43527538.776377678 0 0 0 -80836857.727558136 -43407927.717751503 0 0 0 -43407927.717751503 0 0 0 -80614722.904396057 -43289960.948584557 0 0 0 -43289960.948584557 0 0 0 -80395641.761657715 -43173633.713096619 0 0 0 -43173633.713096619 0 0 0 -80179605.467180252 -43058940.623253822 0 0 0 -43058940.623253822 0 0 0 -79966604.014614105 -42945875.681015968 0 0 0 -42945875.681015968 0 0 0 -79756626.264743805 -42834432.300411224 0 0 0 -42834432.300411224 0 0 0 -79549659.986476898 -42724603.329451561 0 0 0 -42724603.329451561 0 0 0 -79345691.89755249 -42616381.071833611 0 0 0 -42616381.071833611 0 0 0 -79144707.704833984 -42509757.308414459 0 0 0 -42509757.308414459 0 0 0 -78946692.144199371 -42404723.318444252 0 0 0 -42404723.318444252 0 0 0 -78751629.019968033 -42301269.900543213 0 0 0 -42301269.900543213 0 0 0 -78559501.243865967 -42199387.393389702 0 0 0 -42199387.393389702 0 0 0 -78370290.873437881 -42099065.696122169 0 0 0 -42099065.696122169 0 0 0 -78183979.149942398 -42000294.288438797 0 0 0 -42000294.288438797 0 0 0 -78000546.535671234 -41903062.250344276 0 0 0 -41903062.250344276 0 0 0 -77819972.750638962 -41807358.281615257 0 0 0 -41807358.281615257 0 0 0 -77642236.808713913 -41713170.720877647 0 0 0 -41713170.720877647 0 0 0 -77467317.053058624 -41620487.564350128 0 0 0 -41620487.564350128 0 0 0 -77295191.190937042 -41529296.484231949 0 0 0 -41529296.484231949 0 0 0 -77125836.327857971 -41439584.846714973 0 0 0 -41439584.846714973 0 0 0 -76959229.00104332 -41351339.729621887 0 0 0 -41351339.729621887 0 0 0 -76795345.212154388 -41264547.939675331 0 0 0 -41264547.939675331 0 0 0 -76634160.459396362 -41179196.029373169 0 0 0 -41179196.029373169 0 0 0 -76475649.768836975 -41095270.313467026 0 0 0 -41095270.313467026 0 0 0 -76319787.725008011 -41012756.885077477 0 0 0 -41012756.885077477 0 0 0 -76166548.5008564 -40931641.631391525 0 0 0 -40931641.631391525 0 0 0 -76015905.886871338 -40851910.248981476 0 0 0 -40851910.248981476 0 0 0 -75867833.319536209 -40773548.25871563 0 0 0 -40773548.25871563 0 0 0 -75722303.909044266 -40696541.020299911 0 0 0 -40696541.020299911 0 0 0 -75579290.466270447 -40620873.746384621 0 0 0 -40620873.746384621 0 0 0 -75438765.529001236 -40546531.516312599 0 0 0 -40546531.516312599 0 0 0 -75300701.38743782 -40473499.289463043 0 0 0 -40473499.289463043 0 0 0 -75165070.109003067 -40401761.918204308 0 0 0 -40401761.918204308 0 0 0 -75031843.562379837 -40331304.160456657 0 0 0 -40331304.160456657 0 0 0 -74900993.440849304 -40262110.691870689 0 0 0 -40262110.691870689 0 0 0 -74772491.284902573 -40194166.11764431 0 0 0 -40194166.11764431 0 0 0 -74646308.504196167 -40127454.983925819 0 0 0 -40127454.983925819 0 0 0 -74522416.398719788 -40061961.788874626 0 0 0 -40061961.788874626 0 0 0 -74400786.179338455 -39997670.993330956 0 0 0 -39997670.993330956 0 0 0 -74281388.987613678 -39934567.03113842 0 0 0 -39934567.03113842 0 0 0 -74164195.914972305 -39872634.319091797 0 0 0 -39872634.319091797 0 0 0 -74049178.021173477 -39811857.266543388 0 0 0 -39811857.266543388 0 0 0 -73936306.352149963 -39752220.284626961 0 0 0 -39752220.284626961 0 0 0 -73825551.957164764 -39693707.795208931 0 0 0 -39693707.795208931 0 0 0 -73716885.905385971 -39636304.239398956 0 0 0 -39636304.239398956 0 0 0 -73610279.301742554 -39579994.085832596 0 0 0 -39579994.085832596 0 0 0 -73505703.302259445 -39524761.838534355 0 0 0 -39524761.838534355 0 0 0 -73403129.128707886 -39470592.044540405 0 0 0 -39470592.044540405 0 0 0 -73302528.082715988 -39417469.301136971 0 0 0 -39417469.301136971 0 0 0 -73203871.559253693 -39365378.262852669 0 0 0 -39365378.262852669 0 0 0 -73107131.059583664 -39314303.648089409 0 0 0 -39314303.648089409 0 0 0 -73012278.203596115 -39264230.245512009 0 0 0 -39264230.245512009 0 0 0 -72919284.741664886 -39215142.920105934 0 0 0 -39215142.920105934 0 0 0 -72828122.565910339 -39167026.618989944 0 0 0 -39167026.618989944 0 0 0 -72738763.720981598 -39119866.376907349 0 0 0 -39119866.376907349 0 0 0 -72651180.41425705 -39073647.321491241 0 0 0 -39073647.321491241 0 0 0 -72565345.025627136 -39028354.678258896 0 0 0 -39028354.678258896 0 0 0 -72481230.116765976 -38983973.775325775 0 0 0 -38983973.775325775 0 0 0 -72398808.439889908 -38940490.047883034 0 0 0 -38940490.047883034 0 0 0 -72318052.946069717 -38897889.042448997 0 0 0 -38897889.042448997 0 0 0 -72238936.793117523 -38856156.42085743 0 0 0 -38856156.42085743 0 0 0 -72161433.353019714 -38815277.964024544 0 0 0 -38815277.964024544 0 0 0 -72085516.218902588 -38775239.575512886 0 0 0 -38775239.575512886 0 0 0 -72011159.211668015 -38736027.284835815 0 0 0 -38736027.284835815 0 0 0 -71938336.386123657 -38697627.250602722 0 0 0 -38697627.250602722 0 0 0 -71867022.036834717 -38660025.763406754 0 0 0 -38660025.763406754 0 0 0 -71797190.70347023 -38623209.24855423 0 0 0 -38623209.24855423 0 0 0 -71728817.175888062 -38587164.268582344 0 0 0 -38587164.268582344 0 0 0 -71661876.498795509 -38551877.525597572 0 0 0 -38551877.525597572 0 0 0 -71596343.976109505 -38517335.863425255 0 0 0 -38517335.863425255 0 0 0 -71532195.17493248 -38483526.269598007 0 0 0 -38483526.269598007 0 0 0 -71469405.929253578 -38450435.877167702 0 0 0 -38450435.877167702 0 0 0 -71407952.343312263 -38418051.966348648 0 0 0 -38418051.966348648 0 0 0 -71347810.79464817 -38386361.966010094 0 0 0 -38386361.966010094 0 0 0 -71288957.936875343 -38355353.455022335 0 0 0 -38355353.455022335 0 0 0 -71231370.702183723 -38325014.163442135 0 0 0 -38325014.163442135 0 0 0 -71175026.303536415 -38295331.973574162 0 0 0 -38295331.973574162 0 0 0 -71119902.236637115 -38266294.920880795 0 0 0 -38266294.920880795 0 0 0 -71065976.281636238 -38237891.194770813 0 0 0 -38237891.194770813 0 0 0 -71013226.504573822 -38210109.139251709 0 0 0 -38210109.139251709 0 0 0 -70961631.258610725 -38182937.253479958 0 0 0 -38182937.253479958 0 0 0 -70911169.185034752 -38156364.192176342 0 0 0 -38156364.192176342 0 0 0 -70861819.214040756 -38130378.765940189 0 0 0 -38130378.765940189 0 0 0 -70813560.565317154 -38104969.941454411 0 0 0 -38104969.941454411 0 0 0 -70766372.748414993 -38080126.841583729 0 0 0 -38080126.841583729 0 0 0 -70720235.562940598 -38055838.745388985 0 0 0 -38055838.745388985 0 0 0 -70675129.098579407 -38032095.088027954 0 0 0 -38032095.088027954 0 0 0 -70631033.734909058 -38008885.460583687 0 0 0 -38008885.460583687 0 0 0 -70587930.141083717 -37986199.609793663 0 0 0 -37986199.609793663 0 0 0 -70545799.275331497 -37964027.437715054 0 0 0 -37964027.437715054 0 0 0 -70504622.384327888 -37942359.001299381 0 0 0 -37942359.001299381 0 0 0 -70464381.002412796 -37921184.511893272 0 0 0 -37921184.511893272 0 0 0 -70425056.950658798 -37900494.334674358 0 0 0 -37900494.334674358 0 0 0 -70386632.335824013 -37880278.988018036 0 0 0 -37880278.988018036 0 0 0 -70349089.54917717 -37860529.142807007 0 0 0 -37860529.142807007 0 0 0 -70312411.265213013 -37841235.621677399 0 0 0 -37841235.621677399 0 0 0 -70276580.440258026 -37822389.398199081 0 0 0 -37822389.398199081 0 0 0 -70241580.310940742 -37803981.596025467 0 0 0 -37803981.596025467 0 0 0 -70207394.392618179 -37786003.48797226 0 0 0 -37786003.48797226 0 0 0 -70174006.477662086 -37768446.495050907 0 0 0 -37768446.495050907 0 0 0 -70141400.633666992 -37751302.185483456 0 0 0 -37751302.185483456 0 0 0 -70109561.201612473 -37734562.273642063 0 0 0 -37734562.273642063 0 0 0 -70078472.793907166 -37718218.618972301 0 0 0 -37718218.618972301 0 0 0 -70048120.292377472 -37702263.224868298 0 0 0 -37702263.224868298 0 0 0 -70018488.846183777 -37686688.237526417 0 0 0 -37686688.237526417 0 0 0 -69989563.869691849 -37671485.944761276 0 0 0 -37671485.944761276 0 0 0 -69961331.040271759 -37656648.774793625 0 0 0 -37656648.774793625 0 0 0 -69933776.296045303 -37642169.295011997 0 0 0 -37642169.295011997 0 0 0 -69906885.833593369 -37628040.210718632 0 0 0 -37628040.210718632 0 0 0 -69880646.105620384 -37614254.363841057 0 0 0 -37614254.363841057 0 0 0 -69855043.818561554 -37600804.731635094 0 0 0 -37600804.731635094 0 0 0 -69830065.930179596 -37587684.425367832 0 0 0 -37587684.425367832 0 0 0 -69805699.647111893 -37574886.688978195 0 0 0 -37574886.688978195 0 0 0 -69781932.422388077 -37562404.897738934 0 0 0 -37562404.897738934 0 0 0 -69758751.952942848 -37550232.556887627 0 0 0 -37550232.556887627 0 0 0 -69736146.17707634 -37538363.300266743 0 0 0 -37538363.300266743 0 0 0 -69714103.271924973 -37526790.888948917 0 0 0 -37526790.888948917 0 0 0 -69692611.650905609 -37515509.20984602 0 0 0 -37515509.20984602 0 0 0 -69671659.961143494 -37504512.274328232 0 0 0 -37504512.274328232 0 0 0 -69651237.080895424 -37493794.216832161 0 0 0 -37493794.216832161 0 0 0 -69631332.116973877 -37483349.293464184 0 0 0 -37483349.293464184 0 0 0 -69611934.402148247 -37473171.880614758 0 0 0 -37473171.880614758 0 0 0 -69593033.492570877 -37463256.47356081 0 0 0 -37463256.47356081 0 0 0 -69574619.165184021 -37453597.685074806 0 0 0 -37453597.685074806 0 0 0 -69556681.415139198 -37444190.244040012 0 0 0 -37444190.244040012 0 0 0 -69539210.453217506 -37435028.994069099 0 0 0 -37435028.994069099 0 0 0 -69522196.703271866 -37426108.892127991 0 0 0 -37426108.892127991 0 0 0 -69505630.799665928 -37417425.007162094 0 0 0 -37417425.007162094 0 0 0 -69489503.584730625 -37408972.518741608 0 0 0 -37408972.518741608 0 0 0 -69473806.10623455 -37400746.71570015 0 0 0 -37400746.71570015 0 0 0 -69458529.614871979 -37392742.994799852 0 0 0 -37392742.994799852 0 0 0 -69443665.561771393 -37384956.859392405 0 0 0 -37384956.859392405 0 0 0 -69429205.596014023 -37377383.918104649 0 0 0 -37377383.918104649 0 0 0 -69415141.562193871 -37370019.883527517 0 0 0 -37370019.883527517 0 0 0 -69401465.497979641 -37362860.570919752 0 0 0 -37362860.570919752 0 0 0 -69388169.631708145 -37355901.896929502 0 0 0 -37355901.896929502 0 0 0 -69375246.380012035 -37349139.8783288 0 0 0 -37349139.8783288 0 0 0 -69362688.345467567 -37342570.630761623 0 0 0 -37342570.630761623 0 0 0 -69350488.31427145 -37336190.367510319 0 0 0 -37336190.367510319 0 0 0 -69338639.253947258 -37329995.398278713 0 0 0 -37329995.398278713 0 0 0 -69327134.311089039 -37323982.127991199 0 0 0 -37323982.127991199 0 0 0 -69315966.809126854 -37318147.055615187 0 0 0 -37318147.055615187 0 0 0 -69305130.246142387 -37312486.772990465 0 0 0 -37312486.772990465 0 0 0 -69294618.292696953 -37306997.963685989 0 0 0 -37306997.963685989 0 0 0 -69284424.789702415 -37301677.401883364 0 0 0 -37301677.401883364 0 0 0 -69274543.746355057 -37296521.951263428 0 0 0 -37296521.951263428 0 0 0 -69264969.338060379 -37291528.563924074 0 0 0 -37291528.563924074 0 0 0 -69255695.904430389 -37286694.279319525 0 0 0 -37286694.279319525 0 0 0 -69246717.947307587 -37282016.223216057 0 0 0 -37282016.223216057 0 0 0 -69238030.128829956 -37277491.606671572 0 0 0 -37277491.606671572 0 0 0 -69229627.269533157 -37273117.725037098 0 0 0 -37273117.725037098 0 0 0 -69221504.346497536 -37268891.956981897 0 0 0 -37268891.956981897 0 0 0 -69213656.491538048 -37264811.763541222 0 0 0 -37264811.763541222 0 0 0 -69206078.989433765 -37260874.687182426 0 0 0 -37260874.687182426 0 0 0 -69198767.27619648 -37257078.350900888 0 0 0 -37257078.350900888 0 0 0 -69191716.937387466 -37253420.457336903 0 0 0 -37253420.457336903 0 0 0 -69184923.70648241 -37249898.787914276 0 0 0 -37249898.787914276 0 0 0 -69178383.463269234 -37246511.202003717 0 0 0 -37246511.202003717 0 0 0 -69172092.232292891 -37243255.636115789 0 0 0 -37243255.636115789 0 0 0 -69166046.181358099 -37240130.103111625 0 0 0 -37240130.103111625 0 0 0 -69160241.620064259 -37237132.691438556 0 0 0 -37237132.691438556 0 0 0 -69154674.998385906 -37234261.564398289 0 0 0 -37234261.564398289 0 0 0 -69149342.905311346 -37231514.959429979 0 0 0 -37231514.959429979 0 0 0 -69144242.067512989 -37228891.187425733 0 0 0 -37228891.187425733 0 0 0 -69139369.348076344 -37226388.632066965 0 0 0 -37226388.632066965 0 0 0 -69134721.745266914 -37224005.749191165 0 0 0 -37224005.749191165 0 0 0 -69130296.391355038 -37221741.066180468 0 0 0 -37221741.066180468 0 0 0 -69126090.551478148 -37219593.181374431 0 0 0 -37219593.181374431 0 0 0 -69122101.622552633 -37217560.763515592 0 0 0 -37217560.763515592 0 0 0 -69118327.132243395 -37215642.551212072 0 0 0 -37215642.551212072 0 0 0 -69114764.737965345 -37213837.352435112 0 0 0 -37213837.352435112 0 0 0 -69111412.225950718 -37212144.044035673 0 0 0 -37212144.044035673 0 0 0 -69108267.510352135 -37210561.5712924 0 0 0 -37210561.5712924 0 0 0 -69105328.632400155 -37209088.947481275 0 0 0 -37209088.947481275 0 0 0 -69102593.75960815 -37207725.253476024 0 0 0 -37207725.253476024 0 0 0 -69100061.185027003 -37206469.637372196 0 0 0 -37206469.637372196 0 0 0 -69097729.326548338 -37205321.314139605 0 0 0 -37205321.314139605 0 0 0 -69095596.726259351 -37204279.565299332 0 0 0 -37204279.565299332 0 0 0 -69093662.049841523 -37203343.738629162 0 0 0 -37203343.738629162 0 0 0 -69091924.086025476 -37202513.247895777 0 0 0 -37202513.247895777 0 0 0 -69090381.7460922 -37201787.572611988 0 0 0 -37201787.572611988 0 0 0 -69089034.063422263 -37201166.257821888 0 0 0 -37201166.257821888 0 0 0 -69087880.19309777 -37200648.913913071 0 0 0 -37200648.913913071 0 0 0 -69086919.411552787 -37200235.216455042 0 0 0 -37200235.216455042 0 0 0 -69086151.116273642 -37199924.906064838 0 0 0 -37199924.906064838 0 0 0 -69085574.825549006 -37199717.788299635 0 0 0 -37199717.788299635 0 0 0 -69085190.178270757 -37199613.733575463 0 0 0 -37199613.733575463 0 0 0 -69084996.933783025 
</DataArray>
</CellData>
</Piece>
</UnstructuredGrid>
</VTKFile>
