<?xml version="1.0"?>
<VTKFile type="UnstructuredGrid" version="0.1" byte_order="LittleEndian">
<UnstructuredGrid>
<Piece NumberOfPoints="500" NumberOfCells="250">
<Points>
<DataArray type="Float64" NumberOfComponents="3" format="ascii">
0 0 0 0 0 -0.00099999999999810158 0 0 -0.00099999999999810158 0 0 -0.001999999999996204 0 0 -0.001999999999996204 0 0 -0.0029999999999943271 0 0 -0.0029999999999943271 0 0 -0.0039999999999924488 0 0 -0.0039999999999924488 0 0 -0.004999999999990571 0 0 -0.004999999999990571 0 0 -0.0059999999999886811 0 0 -0.0059999999999886811 0 0 -0.0069999999999867156 0 0 -0.0069999999999867156 0 0 -0.007999999999984719 0 0 -0.007999999999984719 0 0 -0.008999999999982581 0 0 -0.008999999999982581 0 0 -0.0099999999999804221 0 0 -0.0099999999999804221 0 0 -0.010999999999978201 0 0 -0.010999999999978201 0 0 -0.011999999999975971 0 0 -0.011999999999975971 0 0 -0.01299999999997375 0 0 -0.01299999999997375 0 0 -0.01399999999997158 0 0 -0.01399999999997158 0 0 -0.014999999999969531 0 0 -0.014999999999969531 0 0 -0.01599999999996761 0 0 -0.01599999999996761 0 0 -0.0169999999999659 0 0 -0.0169999999999659 0 0 -0.01799999999996427 0 0 -0.01799999999996427 0 0 -0.018999999999962731 0 0 -0.018999999999962731 0 0 -0.019999999999961209 0 0 -0.019999999999961209 0 0 -0.020999999999959669 0 0 -0.020999999999959669 0 0 -0.02199999999995814 0 0 -0.02199999999995814 0 0 -0.022999999999956611 0 0 -0.022999999999956611 0 0 -0.023999999999955082 0 0 -0.023999999999955082 0 0 -0.024999999999953549 0 0 -0.024999999999953549 0 0 -0.02599999999995202 0 0 -0.02599999999995202 0 0 -0.02699999999995048 0 0 -0.02699999999995048 0 0 -0.027999999999948951 0 0 -0.027999999999948951 0 0 -0.028999999999947419 0 0 -0.028999999999947419 0 0 -0.02999999999994565 0 0 -0.02999999999994565 0 0 -0.03099999999994377 0 0 -0.03099999999994377 0 0 -0.031999999999941367 0 0 -0.031999999999941367 0 0 -0.032999999999938787 0 0 -0.032999999999938787 0 0 -0.033999999999935943 0 0 -0.033999999999935943 0 0 -0.034999999999933022 0 0 -0.034999999999933022 0 0 -0.035999999999930102 0 0 -0.035999999999930102 0 0 -0.036999999999927188 0 0 -0.036999999999927188 0 0 -0.037999999999924268 0 0 -0.037999999999924268 0 0 -0.038999999999921348 0 0 -0.038999999999921348 0 0 -0.039999999999918427 0 0 -0.039999999999918427 0 0 -0.040999999999915507 0 0 -0.040999999999915507 0 0 -0.041999999999912593 0 0 -0.041999999999912593 0 0 -0.042999999999909673 0 0 -0.042999999999909673 0 0 -0.043999999999906753 0 0 -0.043999999999906753 0 0 -0.044999999999903832 0 0 -0.044999999999903832 0 0 -0.045999999999900919 0 0 -0.045999999999900919 0 0 -0.046999999999897998 0 0 -0.046999999999897998 0 0 -0.047999999999895078 0 0 -0.047999999999895078 0 0 -0.048999999999892158 0 0 -0.048999999999892158 0 0 -0.049999999999889237 0 0 -0.049999999999889237 0 0 -0.050999999999886317 0 0 -0.050999999999886317 0 0 -0.051999999999883403 0 0 -0.051999999999883403 0 0 -0.052999999999880483 0 0 -0.052999999999880483 0 0 -0.053999999999877563 0 0 -0.053999999999877563 0 0 -0.054999999999874642 0 0 -0.054999999999874642 0 0 -0.055999999999871722 0 0 -0.055999999999871722 0 0 -0.056999999999868801 0 0 -0.056999999999868801 0 0 -0.057999999999865881 0 0 -0.057999999999865881 0 0 -0.058999999999862961 0 0 -0.058999999999862961 0 0 -0.059999999999860047 0 0 -0.059999999999860047 0 0 -0.060999999999857127 0 0 -0.060999999999857127 0 0 -0.061999999999854213 0 0 -0.061999999999854213 0 0 -0.062999999999851286 0 0 -0.062999999999851286 0 0 -0.063999999999848373 0 0 -0.063999999999848373 0 0 -0.064999999999845445 0 0 -0.064999999999845445 0 0 -0.065999999999842532 0 0 -0.065999999999842532 0 0 -0.066999999999839618 0 0 -0.066999999999839618 0 0 -0.067999999999836705 0 0 -0.067999999999836705 0 0 -0.068999999999833792 0 0 -0.068999999999833792 0 0 -0.069999999999830878 0 0 -0.069999999999830878 0 0 -0.070999999999827965 0 0 -0.070999999999827965 0 0 -0.071999999999825051 0 0 -0.071999999999825051 0 0 -0.072999999999822124 0 0 -0.072999999999822124 0 0 -0.07399999999981921 0 0 -0.07399999999981921 0 0 -0.074999999999816297 0 0 -0.074999999999816297 0 0 -0.075999999999813383 0 0 -0.075999999999813383 0 0 -0.07699999999981047 0 0 -0.07699999999981047 0 0 -0.077999999999807557 0 0 -0.077999999999807557 0 0 -0.078999999999804643 0 0 -0.078999999999804643 0 0 -0.07999999999980173 0 0 -0.07999999999980173 0 0 -0.080999999999798802 0 0 -0.080999999999798802 0 0 -0.081999999999795889 0 0 -0.081999999999795889 0 0 -0.082999999999792975 0 0 -0.082999999999792975 0 0 -0.083999999999790062 0 0 -0.083999999999790062 0 0 -0.084999999999787149 0 0 -0.084999999999787149 0 0 -0.085999999999784235 0 0 -0.085999999999784235 0 0 -0.086999999999781322 0 0 -0.086999999999781322 0 0 -0.087999999999778394 0 0 -0.087999999999778394 0 0 -0.088999999999775481 0 0 -0.088999999999775481 0 0 -0.089999999999772567 0 0 -0.089999999999772567 0 0 -0.090999999999769654 0 0 -0.090999999999769654 0 0 -0.091999999999766741 0 0 -0.091999999999766741 0 0 -0.092999999999763827 0 0 -0.092999999999763827 0 0 -0.093999999999760914 0 0 -0.093999999999760914 0 0 -0.094999999999758 0 0 -0.094999999999758 0 0 -0.095999999999755073 0 0 -0.095999999999755073 0 0 -0.096999999999752159 0 0 -0.096999999999752159 0 0 -0.097999999999749246 0 0 -0.097999999999749246 0 0 -0.098999999999746333 0 0 -0.098999999999746333 0 0 -0.099999999999743419 0 0 -0.099999999999743419 0 0 -0.10099999999974051 0 0 -0.10099999999974051 0 0 -0.10199999999973761 0 0 -0.10199999999973761 0 0 -0.10299999999973471 0 0 -0.10299999999973471 0 0 -0.10399999999973179 0 0 -0.10399999999973179 0 0 -0.1049999999997288 0 0 -0.1049999999997288 0 0 -0.1059999999997259 0 0 -0.1059999999997259 0 0 -0.106999999999723 0 0 -0.106999999999723 0 0 -0.1079999999997201 0 0 -0.1079999999997201 0 0 -0.1089999999997172 0 0 -0.1089999999997172 0 0 -0.1099999999997143 0 0 -0.1099999999997143 0 0 -0.1109999999997113 0 0 -0.1109999999997113 0 0 -0.1119999999997084 0 0 -0.1119999999997084 0 0 -0.1129999999997055 0 0 -0.1129999999997055 0 0 -0.1139999999997026 0 0 -0.1139999999997026 0 0 -0.1149999999996997 0 0 -0.1149999999996997 0 0 -0.1159999999996968 0 0 -0.1159999999996968 0 0 -0.11699999999969379 0 0 -0.11699999999969379 0 0 -0.11799999999969089 0 0 -0.11799999999969089 0 0 -0.11899999999968799 0 0 -0.11899999999968799 0 0 -0.11999999999968509 0 0 -0.11999999999968509 0 0 -0.1209999999996822 0 0 -0.1209999999996822 0 0 -0.1219999999996793 0 0 -0.1219999999996793 0 0 -0.1229999999996764 0 0 -0.1229999999996764 0 0 -0.1239999999996748 0 0 -0.1239999999996748 0 0 -0.12499999999967321 0 0 -0.12499999999967321 0 0 -0.12599999999967451 0 0 -0.12599999999967451 0 0 -0.12699999999967579 0 0 -0.12699999999967579 0 0 -0.1279999999996784 0 0 -0.1279999999996784 0 0 -0.12899999999968109 0 0 -0.12899999999968109 0 0 -0.1299999999996837 0 0 -0.1299999999996837 0 0 -0.13099999999968631 0 0 -0.13099999999968631 0 0 -0.13199999999968889 0 0 -0.13199999999968889 0 0 -0.13299999999969159 0 0 -0.13299999999969159 0 0 -0.1339999999996942 0 0 -0.1339999999996942 0 0 -0.13499999999969689 0 0 -0.13499999999969689 0 0 -0.1359999999996995 0 0 -0.1359999999996995 0 0 -0.13699999999970211 0 0 -0.13699999999970211 0 0 -0.1379999999997048 0 0 -0.1379999999997048 0 0 -0.13899999999970741 0 0 -0.13899999999970741 0 0 -0.13999999999971011 0 0 -0.13999999999971011 0 0 -0.14099999999971269 0 0 -0.14099999999971269 0 0 -0.1419999999997153 0 0 -0.1419999999997153 0 0 -0.14299999999971799 0 0 -0.14299999999971799 0 0 -0.1439999999997206 0 0 -0.1439999999997206 0 0 -0.14499999999972321 0 0 -0.14499999999972321 0 0 -0.14599999999972579 0 0 -0.14599999999972579 0 0 -0.14699999999972849 0 0 -0.14699999999972849 0 0 -0.1479999999997311 0 0 -0.1479999999997311 0 0 -0.14899999999973379 0 0 -0.14899999999973379 0 0 -0.1499999999997364 0 0 -0.1499999999997364 0 0 -0.15099999999973901 0 0 -0.15099999999973901 0 0 -0.1519999999997417 0 0 -0.1519999999997417 0 0 -0.15299999999974431 0 0 -0.15299999999974431 0 0 -0.15399999999974701 0 0 -0.15399999999974701 0 0 -0.15499999999974959 0 0 -0.15499999999974959 0 0 -0.1559999999997522 0 0 -0.1559999999997522 0 0 -0.15699999999975489 0 0 -0.15699999999975489 0 0 -0.1579999999997575 0 0 -0.1579999999997575 0 0 -0.15899999999976011 0 0 -0.15899999999976011 0 0 -0.1599999999997628 0 0 -0.1599999999997628 0 0 -0.16099999999976539 0 0 -0.16099999999976539 0 0 -0.161999999999768 0 0 -0.161999999999768 0 0 -0.16299999999977069 0 0 -0.16299999999977069 0 0 -0.1639999999997733 0 0 -0.1639999999997733 0 0 -0.16499999999977599 0 0 -0.16499999999977599 0 0 -0.1659999999997786 0 0 -0.1659999999997786 0 0 -0.16699999999978121 0 0 -0.16699999999978121 0 0 -0.16799999999978391 0 0 -0.16799999999978391 0 0 -0.16899999999978649 0 0 -0.16899999999978649 0 0 -0.1699999999997891 0 0 -0.1699999999997891 0 0 -0.17099999999979171 0 0 -0.17099999999979171 0 0 -0.1719999999997944 0 0 -0.1719999999997944 0 0 -0.17299999999979701 0 0 -0.17299999999979701 0 0 -0.1739999999997997 0 0 -0.1739999999997997 0 0 -0.17499999999980231 0 0 -0.17499999999980231 0 0 -0.17599999999980501 0 0 -0.17599999999980501 0 0 -0.17699999999980759 0 0 -0.17699999999980759 0 0 -0.1779999999998102 0 0 -0.1779999999998102 0 0 -0.17899999999981281 0 0 -0.17899999999981281 0 0 -0.1799999999998155 0 0 -0.1799999999998155 0 0 -0.18099999999981811 0 0 -0.18099999999981811 0 0 -0.18199999999982069 0 0 -0.18199999999982069 0 0 -0.18299999999982339 0 0 -0.18299999999982339 0 0 -0.183999999999826 0 0 -0.183999999999826 0 0 -0.18499999999982869 0 0 -0.18499999999982869 0 0 -0.1859999999998313 0 0 -0.1859999999998313 0 0 -0.18699999999983391 0 0 -0.18699999999983391 0 0 -0.1879999999998366 0 0 -0.1879999999998366 0 0 -0.18899999999983921 0 0 -0.18899999999983921 0 0 -0.18999999999984191 0 0 -0.18999999999984191 0 0 -0.19099999999984449 0 0 -0.19099999999984449 0 0 -0.1919999999998471 0 0 -0.1919999999998471 0 0 -0.19299999999984971 0 0 -0.19299999999984971 0 0 -0.1939999999998524 0 0 -0.1939999999998524 0 0 -0.19499999999985501 0 0 -0.19499999999985501 0 0 -0.1959999999998577 0 0 -0.1959999999998577 0 0 -0.19699999999986029 0 0 -0.19699999999986029 0 0 -0.19799999999986301 0 0 -0.19799999999986301 0 0 -0.19899999999986559 0 0 -0.19899999999986559 0 0 -0.1999999999998682 0 0 -0.1999999999998682 0 0 -0.20099999999987081 0 0 -0.20099999999987081 0 0 -0.2019999999998735 0 0 -0.2019999999998735 0 0 -0.20299999999987611 0 0 -0.20299999999987611 0 0 -0.20399999999987881 0 0 -0.20399999999987881 0 0 -0.20499999999988139 0 0 -0.20499999999988139 0 0 -0.205999999999884 0 0 -0.205999999999884 0 0 -0.20699999999988669 0 0 -0.20699999999988669 0 0 -0.2079999999998893 0 0 -0.2079999999998893 0 0 -0.20899999999989191 0 0 -0.20899999999989191 0 0 -0.2099999999998946 0 0 -0.2099999999998946 0 0 -0.21099999999989719 0 0 -0.21099999999989719 0 0 -0.21199999999989991 0 0 -0.21199999999989991 0 0 -0.21299999999990249 0 0 -0.21299999999990249 0 0 -0.2139999999999051 0 0 -0.2139999999999051 0 0 -0.21499999999990771 0 0 -0.21499999999990771 0 0 -0.2159999999999104 0 0 -0.2159999999999104 0 0 -0.21699999999991301 0 0 -0.21699999999991301 0 0 -0.21799999999991571 0 0 -0.21799999999991571 0 0 -0.21899999999991829 0 0 -0.21899999999991829 0 0 -0.2199999999999209 0 0 -0.2199999999999209 0 0 -0.22099999999992359 0 0 -0.22099999999992359 0 0 -0.2219999999999262 0 0 -0.2219999999999262 0 0 -0.22299999999992881 0 0 -0.22299999999992881 0 0 -0.22399999999993139 0 0 -0.22399999999993139 0 0 -0.22499999999993411 0 0 -0.22499999999993411 0 0 -0.2259999999999367 0 0 -0.2259999999999367 0 0 -0.22699999999993939 0 0 -0.22699999999993939 0 0 -0.227999999999942 0 0 -0.227999999999942 0 0 -0.22899999999994469 0 0 -0.22899999999994469 0 0 -0.2299999999999473 0 0 -0.2299999999999473 0 0 -0.23099999999994991 0 0 -0.23099999999994991 0 0 -0.23199999999995249 0 0 -0.23199999999995249 0 0 -0.23299999999995519 0 0 -0.23299999999995519 0 0 -0.2339999999999578 0 0 -0.2339999999999578 0 0 -0.23499999999996049 0 0 -0.23499999999996049 0 0 -0.2359999999999631 0 0 -0.2359999999999631 0 0 -0.23699999999996571 0 0 -0.23699999999996571 0 0 -0.2379999999999684 0 0 -0.2379999999999684 0 0 -0.23899999999997101 0 0 -0.23899999999997101 0 0 -0.2399999999999736 0 0 -0.2399999999999736 0 0 -0.24099999999997629 0 0 -0.24099999999997629 0 0 -0.2419999999999789 0 0 -0.2419999999999789 0 0 -0.24299999999998159 0 0 -0.24299999999998159 0 0 -0.2439999999999842 0 0 -0.2439999999999842 0 0 -0.24499999999998681 0 0 -0.24499999999998681 0 0 -0.24599999999998939 0 0 -0.24599999999998939 0 0 -0.24699999999999209 0 0 -0.24699999999999209 0 0 -0.2479999999999947 0 0 -0.2479999999999947 0 0 -0.24899999999999739 0 0 -0.24899999999999739 0 0 -0.25 
</DataArray>
</Points>
<Cells>
<DataArray type="UInt32" Name="connectivity" format="ascii">
0 1 2 3 4 5 6 7 8 9 10 11 12 13 14 15 16 17 18 19 20 21 22 23 24 25 26 27 28 29 30 31 32 33 34 35 36 37 38 39 40 41 42 43 44 45 46 47 48 49 50 51 52 53 54 55 56 57 58 59 60 61 62 63 64 65 66 67 68 69 70 71 72 73 74 75 76 77 78 79 80 81 82 83 84 85 86 87 88 89 90 91 92 93 94 95 96 97 98 99 100 101 102 103 104 105 106 107 108 109 110 111 112 113 114 115 116 117 118 119 120 121 122 123 124 125 126 127 128 129 130 131 132 133 134 135 136 137 138 139 140 141 142 143 144 145 146 147 148 149 150 151 152 153 154 155 156 157 158 159 160 161 162 163 164 165 166 167 168 169 170 171 172 173 174 175 176 177 178 179 180 181 182 183 184 185 186 187 188 189 190 191 192 193 194 195 196 197 198 199 200 201 202 203 204 205 206 207 208 209 210 211 212 213 214 215 216 217 218 219 220 221 222 223 224 225 226 227 228 229 230 231 232 233 234 235 236 237 238 239 240 241 242 243 244 245 246 247 248 249 250 251 252 253 254 255 256 257 258 259 260 261 262 263 264 265 266 267 268 269 270 271 272 273 274 275 276 277 278 279 280 281 282 283 284 285 286 287 288 289 290 291 292 293 294 295 296 297 298 299 300 301 302 303 304 305 306 307 308 309 310 311 312 313 314 315 316 317 318 319 320 321 322 323 324 325 326 327 328 329 330 331 332 333 334 335 336 337 338 339 340 341 342 343 344 345 346 347 348 349 350 351 352 353 354 355 356 357 358 359 360 361 362 363 364 365 366 367 368 369 370 371 372 373 374 375 376 377 378 379 380 381 382 383 384 385 386 387 388 389 390 391 392 393 394 395 396 397 398 399 400 401 402 403 404 405 406 407 408 409 410 411 412 413 414 415 416 417 418 419 420 421 422 423 424 425 426 427 428 429 430 431 432 433 434 435 436 437 438 439 440 441 442 443 444 445 446 447 448 449 450 451 452 453 454 455 456 457 458 459 460 461 462 463 464 465 466 467 468 469 470 471 472 473 474 475 476 477 478 479 480 481 482 483 484 485 486 487 488 489 490 491 492 493 494 495 496 497 498 499 
</DataArray>
<DataArray type="UInt32" Name="offsets" format="ascii">
2 4 6 8 10 12 14 16 18 20 22 24 26 28 30 32 34 36 38 40 42 44 46 48 50 52 54 56 58 60 62 64 66 68 70 72 74 76 78 80 82 84 86 88 90 92 94 96 98 100 102 104 106 108 110 112 114 116 118 120 122 124 126 128 130 132 134 136 138 140 142 144 146 148 150 152 154 156 158 160 162 164 166 168 170 172 174 176 178 180 182 184 186 188 190 192 194 196 198 200 202 204 206 208 210 212 214 216 218 220 222 224 226 228 230 232 234 236 238 240 242 244 246 248 250 252 254 256 258 260 262 264 266 268 270 272 274 276 278 280 282 284 286 288 290 292 294 296 298 300 302 304 306 308 310 312 314 316 318 320 322 324 326 328 330 332 334 336 338 340 342 344 346 348 350 352 354 356 358 360 362 364 366 368 370 372 374 376 378 380 382 384 386 388 390 392 394 396 398 400 402 404 406 408 410 412 414 416 418 420 422 424 426 428 430 432 434 436 438 440 442 444 446 448 450 452 454 456 458 460 462 464 466 468 470 472 474 476 478 480 482 484 486 488 490 492 494 496 498 500 
</DataArray>
<DataArray type="UInt32" Name="types" format="ascii">
3 3 3 3 3 3 3 3 3 3 3 3 3 3 3 3 3 3 3 3 3 3 3 3 3 3 3 3 3 3 3 3 3 3 3 3 3 3 3 3 3 3 3 3 3 3 3 3 3 3 3 3 3 3 3 3 3 3 3 3 3 3 3 3 3 3 3 3 3 3 3 3 3 3 3 3 3 3 3 3 3 3 3 3 3 3 3 3 3 3 3 3 3 3 3 3 3 3 3 3 3 3 3 3 3 3 3 3 3 3 3 3 3 3 3 3 3 3 3 3 3 3 3 3 3 3 3 3 3 3 3 3 3 3 3 3 3 3 3 3 3 3 3 3 3 3 3 3 3 3 3 3 3 3 3 3 3 3 3 3 3 3 3 3 3 3 3 3 3 3 3 3 3 3 3 3 3 3 3 3 3 3 3 3 3 3 3 3 3 3 3 3 3 3 3 3 3 3 3 3 3 3 3 3 3 3 3 3 3 3 3 3 3 3 3 3 3 3 3 3 3 3 3 3 3 3 3 3 3 3 3 3 3 3 3 3 3 3 3 3 3 3 3 3 3 3 3 3 3 3 
</DataArray>
</Cells>
<PointData Scalars="" Vectors="displacement," Tensors="">
<DataArray type="Float64" Name="displacement" NumberOfComponents="3" format="ascii">
0 0 -0.00045249803833708098 0 0 -0.0004501935916907366 0 0 -0.0004501935916907366 0 0 -0.00044789563588171493 0 0 -0.00044789563588171493 0 0 -0.00044560416945420224 0 0 -0.00044560416945420224 0 0 -0.00044331918998277345 0 0 -0.00044331918998277345 0 0 -0.00044104069407378734 0 0 -0.00044104069407378734 0 0 -0.00043876867736733678 0 0 -0.00043876867736733678 0 0 -0.00043650313453975188 0 0 -0.00043650313453975188 0 0 -0.00043424405930665244 0 0 -0.00043424405930665244 0 0 -0.00043199144442654678 0 0 -0.00043199144442654678 0 0 -0.00042974528170496847 0 0 -0.00042974528170496847 0 0 -0.00042750556199915301 0 0 -0.00042750556199915301 0 0 -0.00042527227522323735 0 0 -0.00042527227522323735 0 0 -0.00042304541035398635 0 0 -0.00042304541035398635 0 0 -0.00042082495543703161 0 0 -0.00042082495543703161 0 0 -0.00041861089759361757 0 0 -0.00041861089759361757 0 0 -0.00041640322302784563 0 0 -0.00041640322302784563 0 0 -0.00041420191703440626 0 0 -0.00041420191703440626 0 0 -0.00041200696400679081 0 0 -0.00041200696400679081 0 0 -0.00040981834744597086 0 0 -0.00040981834744597086 0 0 -0.00040763604996953525 0 0 -0.00040763604996953525 0 0 -0.00040546005332127449 0 0 -0.00040546005332127449 0 0 -0.00040329033838119849 0 0 -0.00040329033838119849 0 0 -0.00040112688517597735 0 0 -0.00040112688517597735 0 0 -0.00039896967288979206 0 0 -0.00039896967288979206 0 0 -0.00039681867987558195 0 0 -0.00039681867987558195 0 0 -0.00039467388366667581 0 0 -0.00039467388366667581 0 0 -0.00039253526098879319 0 0 -0.00039253526098879319 0 0 -0.00039040278777240171 0 0 -0.00039040278777240171 0 0 -0.00038827643916541693 0 0 -0.00038827643916541693 0 0 -0.00038615618954623138 0 0 -0.00038615618954623138 0 0 -0.00038404201253705345 0 0 -0.00038404201253705345 0 0 -0.00038193388101754997 0 0 -0.00038193388101754997 0 0 -0.00037983176713876876 0 0 -0.00037983176713876876 0 0 -0.00037773564233733315 0 0 -0.00037773564233733315 0 0 -0.00037564547734989006 0 0 -0.00037564547734989006 0 0 -0.00037356124222779702 0 0 -0.00037356124222779702 0 0 -0.0003714829063520344 0 0 -0.0003714829063520344 0 0 -0.00036941043844832634 0 0 -0.00036941043844832634 0 0 -0.00036734380660245579 0 0 -0.00036734380660245579 0 0 -0.00036528297827575953 0 0 -0.00036528297827575953 0 0 -0.00036322792032078766 0 0 -0.00036322792032078766 0 0 -0.0003611785989971123 0 0 -0.0003611785989971123 0 0 -0.00035913497998727183 0 0 -0.00035913497998727183 0 0 -0.00035709702841283482 0 0 -0.00035709702841283482 0 0 -0.00035506470885057144 0 0 -0.00035506470885057144 0 0 -0.00035303798534871484 0 0 -0.00035303798534871484 0 0 -0.00035101682144330178 0 0 -0.00035101682144330178 0 0 -0.00034900118017457582 0 0 -0.00034900118017457582 0 0 -0.00034699102410344152 0 0 -0.00034699102410344152 0 0 -0.00034498631532795486 0 0 -0.00034498631532795486 0 0 -0.00034298701549983758 0 0 -0.00034298701549983758 0 0 -0.00034099308584100113 0 0 -0.00034099308584100113 0 0 -0.00033900448716006951 0 0 -0.00033900448716006951 0 0 -0.00033702117986888667 0 0 -0.00033702117986888667 0 0 -0.00033504312399899752 0 0 -0.00033504312399899752 0 0 -0.00033307027921809025 0 0 -0.00033307027921809025 0 0 -0.00033110260484638836 0 0 -0.00033110260484638836 0 0 -0.00032914005987298169 0 0 -0.00032914005987298169 0 0 -0.00032718260297208402 0 0 -0.00032718260297208402 0 0 -0.00032523019251920888 0 0 -0.00032523019251920888 0 0 -0.00032328278660725122 0 0 -0.00032328278660725122 0 0 -0.00032134034306246622 0 0 -0.00032134034306246622 0 0 -0.00031940281946033497 0 0 -0.00031940281946033497 0 0 -0.0003174701731413078 0 0 -0.0003174701731413078 0 0 -0.00031554236122641714 0 0 -0.00031554236122641714 0 0 -0.00031361934063274917 0 0 -0.00031361934063274917 0 0 -0.000311701068088769 0 0 -0.000311701068088769 0 0 -0.0003097875001494884 0 0 -0.0003097875001494884 0 0 -0.00030787859321147011 0 0 -0.00030787859321147011 0 0 -0.00030597430352766197 0 0 -0.00030597430352766197 0 0 -0.0003040745872220519 0 0 -0.0003040745872220519 0 0 -0.00030217940030413925 0 0 -0.00030217940030413925 0 0 -0.00030028869868321508 0 0 -0.00030028869868321508 0 0 -0.00029840243818244554 0 0 -0.00029840243818244554 0 0 -0.00029652057455275313 0 0 -0.00029652057455275313 0 0 -0.00029464306348648991 0 0 -0.00029464306348648991 0 0 -0.00029276986063089849 0 0 -0.00029276986063089849 0 0 -0.00029090092160135548 0 0 -0.00029090092160135548 0 0 -0.00028903620199439349 0 0 -0.00028903620199439349 0 0 -0.00028717565740049729 0 0 -0.00028717565740049729 0 0 -0.0002853192434166709 0 0 -0.0002853192434166709 0 0 -0.00028346691565877153 0 0 -0.00028346691565877153 0 0 -0.00028161862977360807 0 0 -0.00028161862977360807 0 0 -0.00027977434145080025 0 0 -0.00027977434145080025 0 0 -0.00027793400643439644 0 0 -0.00027793400643439644 0 0 -0.0002760975805342486 0 0 -0.0002760975805342486 0 0 -0.00027426501963714043 0 0 -0.00027426501963714043 0 0 -0.00027243627971766898 0 0 -0.00027243627971766898 0 0 -0.00027061131684887713 0 0 -0.00027061131684887713 0 0 -0.00026879008721263548 0 0 -0.00026879008721263548 0 0 -0.00026697254710977364 0 0 -0.00026697254710977364 0 0 -0.00026515865296995885 0 0 -0.00026515865296995885 0 0 -0.00026334836136132281 0 0 -0.00026334836136132281 0 0 -0.00026154162899983503 0 0 -0.00026154162899983503 0 0 -0.00025973841275842382 0 0 -0.00025973841275842382 0 0 -0.00025793866967584389 0 0 -0.00025793866967584389 0 0 -0.0002561423569652918 0 0 -0.0002561423569652918 0 0 -0.0002543494320227693 0 0 -0.0002543494320227693 0 0 -0.0002525598524351951 0 0 -0.0002525598524351951 0 0 -0.00025077357598826645 0 0 -0.00025077357598826645 0 0 -0.00024899056067407085 0 0 -0.00024899056067407085 0 0 -0.00024721076469845006 0 0 -0.00024721076469845006 0 0 -0.00024543414648811704 0 0 -0.00024543414648811704 0 0 -0.00024366066469752733 0 0 -0.00024366066469752733 0 0 -0.00024189027821550719 0 0 -0.00024189027821550719 0 0 -0.00024012294617163933 0 0 -0.00024012294617163933 0 0 -0.00023835862794240951 0 0 -0.00023835862794240951 0 0 -0.00023659728315711471 0 0 -0.00023659728315711471 0 0 -0.00023483887170353598 0 0 -0.00023483887170353598 0 0 -0.00023308335373337766 0 0 -0.00023308335373337766 0 0 -0.00023133068966747636 0 0 -0.00023133068966747636 0 0 -0.00022958084020078032 0 0 -0.00022958084020078032 0 0 -0.00022783376630710502 0 0 -0.00022783376630710502 0 0 -0.00022608942924366384 0 0 -0.00022608942924366384 0 0 -0.00022434779055537945 0 0 -0.00022434779055537945 0 0 -0.00022260881207897799 0 0 -0.00022260881207897799 0 0 -0.00022087245594686812 0 0 -0.00022087245594686812 0 0 -0.00021913868459080916 0 0 -0.00021913868459080916 0 0 -0.00021740746074537187 0 0 -0.00021740746074537187 0 0 -0.0002156787474511921 0 0 -0.0002156787474511921 0 0 -0.00021395250805802377 0 0 -0.00021395250805802377 0 0 -0.0002122287062275931 0 0 -0.0002122287062275931 0 0 -0.00021050730593625742 0 0 -0.00021050730593625742 0 0 -0.00020878827147746909 0 0 -0.00020878827147746909 0 0 -0.00020707156746406052 0 0 -0.00020707156746406052 0 0 -0.0002053571588303249 0 0 -0.0002053571588303249 0 0 -0.00020364501083394419 0 0 -0.00020364501083394419 0 0 -0.00020193508905770361 0 0 -0.00020193508905770361 0 0 -0.00020022735941106103 0 0 -0.00020022735941106103 0 0 -0.00019852178813152638 0 0 -0.00019852178813152638 0 0 -0.00019681834178588066 0 0 -0.00019681834178588066 0 0 -0.00019511698727122978 0 0 -0.00019511698727122978 0 0 -0.00019341769181589608 0 0 -0.00019341769181589608 0 0 -0.00019172042298015398 0 0 -0.00019172042298015398 0 0 -0.00019002514865680914 0 0 -0.00019002514865680914 0 0 -0.00018833183707162951 0 0 -0.00018833183707162951 0 0 -0.00018664045678362754 0 0 -0.00018664045678362754 0 0 -0.0001849509766851997 0 0 -0.0001849509766851997 0 0 -0.00018326336600212617 0 0 -0.00018326336600212617 0 0 -0.00018157759429343208 0 0 -0.00018157759429343208 0 0 -0.00017989363145111775 0 0 -0.00017989363145111775 0 0 -0.00017821144769975686 0 0 -0.00017821144769975686 0 0 -0.00017653101359596984 0 0 -0.00017653101359596984 0 0 -0.0001748523000277734 0 0 -0.0001748523000277734 0 0 -0.00017317527821380943 0 0 -0.00017317527821380943 0 0 -0.00017149991970245851 0 0 -0.00017149991970245851 0 0 -0.00016982619637083911 0 0 -0.00016982619637083911 0 0 -0.00016815408042369798 0 0 -0.00016815408042369798 0 0 -0.00016648354439219152 0 0 -0.00016648354439219152 0 0 -0.00016481456113256565 0 0 -0.00016481456113256565 0 0 -0.00016314710382473322 0 0 -0.00016314710382473322 0 0 -0.00016148114597075466 0 0 -0.00016148114597075466 0 0 -0.00015981666139322452 0 0 -0.00015981666139322452 0 0 -0.00015815362423356457 0 0 -0.00015815362423356457 0 0 -0.00015649200895023082 0 0 -0.00015649200895023082 0 0 -0.00015483179031683207 0 0 -0.00015483179031683207 0 0 -0.00015317294342016808 0 0 -0.00015317294342016808 0 0 -0.00015151544365818619 0 0 -0.00015151544365818619 0 0 -0.00014985926673786036 0 0 -0.00014985926673786036 0 0 -0.00014820438867299641 0 0 -0.00014820438867299641 0 0 -0.00014655078578196558 0 0 -0.00014655078578196558 0 0 -0.00014489843468536701 0 0 -0.00014489843468536701 0 0 -0.00014324731230362555 0 0 -0.00014324731230362555 0 0 -0.00014159739585452438 0 0 -0.00014159739585452438 0 0 -0.00013994866285067483 0 0 -0.00013994866285067483 0 0 -0.00013830109109692895 0 0 -0.00013830109109692895 0 0 -0.00013665465868773304 0 0 -0.00013665465868773304 0 0 -0.00013500934400442763 0 0 -0.00013500934400442763 0 0 -0.00013336512571249527 0 0 -0.00013336512571249527 0 0 -0.00013172198275875654 0 0 -0.00013172198275875654 0 0 -0.00013007989436851985 0 0 -0.00013007989436851985 0 0 -0.00012843884004268383 0 0 -0.00012843884004268383 0 0 -0.00012679879955479725 0 0 -0.00012679879955479725 0 0 -0.00012515975294807516 0 0 -0.00012515975294807516 0 0 -0.00012352168053237709 0 0 -0.00012352168053237709 0 0 -0.00012188456288114548 0 0 -0.00012188456288114548 0 0 -0.00012024838082830962 0 0 -0.00012024838082830962 0 0 -0.00011861311546515348 0 0 -0.00011861311546515348 0 0 -0.00011697874813715237 0 0 -0.00011697874813715237 0 0 -0.00011534526044077779 0 0 -0.00011534526044077779 0 0 -0.00011371263422027389 0 0 -0.00011371263422027389 0 0 -0.00011208085156440484 0 0 -0.00011208085156440484 0 0 -0.00011044989480317756 0 0 -0.00011044989480317756 0 0 -0.00010881974650453962 0 0 -0.00010881974650453962 0 0 -0.00010719038947105276 0 0 -0.00010719038947105276 0 0 -0.00010556180673654667 0 0 -0.00010556180673654667 0 0 -0.00010393398156275062 0 0 -0.00010393398156275062 0 0 -0.00010230689743590714 0 0 -0.00010230689743590714 0 0 -0.00010068053806336827 0 0 -0.00010068053806336827 0 0 -9.905488737017352e-05 0 0 -9.905488737017352e-05 0 0 -9.7429929495614976e-05 0 0 -9.7429929495614976e-05 0 0 -9.580564878978582e-05 0 0 -9.580564878978582e-05 0 0 -9.4182029810117686e-05 0 0 -9.4182029810117686e-05 0 0 -9.2559057317904728e-05 0 0 -9.2559057317904728e-05 0 0 -9.0936716274817817e-05 0 0 -9.0936716274817817e-05 0 0 -8.9314991839406944e-05 0 0 -8.9314991839406944e-05 0 0 -8.7693869363596739e-05 0 0 -8.7693869363596739e-05 0 0 -8.6073334389171383e-05 0 0 -8.6073334389171383e-05 0 0 -8.4453372644254835e-05 0 0 -8.4453372644254835e-05 0 0 -8.283397003978168e-05 0 0 -8.283397003978168e-05 0 0 -8.1215112665964314e-05 0 0 -8.1215112665964314e-05 0 0 -7.9596786788754023e-05 0 0 -7.9596786788754023e-05 0 0 -7.7978978846298644e-05 0 0 -7.7978978846298644e-05 0 0 -7.6361675445394721e-05 0 0 -7.6361675445394721e-05 0 0 -7.4744863357939165e-05 0 0 -7.4744863357939165e-05 0 0 -7.3128529517375797e-05 0 0 -7.3128529517375797e-05 0 0 -7.1512661015142188e-05 0 0 -7.1512661015142188e-05 0 0 -6.9897245097114206e-05 0 0 -6.9897245097114206e-05 0 0 -6.8282269160049075e-05 0 0 -6.8282269160049075e-05 0 0 -6.6667720748028999e-05 0 0 -6.6667720748028999e-05 0 0 -6.5053587548904876e-05 0 0 -6.5053587548904876e-05 0 0 -6.3439857390738919e-05 0 0 -6.3439857390738919e-05 0 0 -6.1826518238250613e-05 0 0 -6.1826518238250613e-05 0 0 -6.0213558189260907e-05 0 0 -6.0213558189260907e-05 0 0 -5.8600965471140225e-05 0 0 -5.8600965471140225e-05 0 0 -5.69887284372568e-05 0 0 -5.69887284372568e-05 0 0 -5.5376835563428194e-05 0 0 -5.5376835563428194e-05 0 0 -5.3765275444373295e-05 0 0 -5.3765275444373295e-05 0 0 -5.2154036790169004e-05 0 0 -5.2154036790169004e-05 0 0 -5.0543108422707268e-05 0 0 -5.0543108422707268e-05 0 0 -4.893247927215677e-05 0 0 -4.893247927215677e-05 0 0 -4.7322138373426966e-05 0 0 -4.7322138373426966e-05 0 0 -4.571207486263436e-05 0 0 -4.571207486263436e-05 0 0 -4.4102277973573175e-05 0 0 -4.4102277973573175e-05 0 0 -4.2492737034188223e-05 0 0 -4.2492737034188223e-05 0 0 -4.0883441463052625e-05 0 0 -4.0883441463052625e-05 0 0 -3.9274380765846245e-05 0 0 -3.9274380765846245e-05 0 0 -3.7665544531840611e-05 0 0 -3.7665544531840611e-05 0 0 -3.6056922430384275e-05 0 0 -3.6056922430384275e-05 0 0 -3.444850420739403e-05 0 0 -3.444850420739403e-05 0 0 -3.2840279681847354e-05 0 0 -3.2840279681847354e-05 0 0 -3.1232238742279616e-05 0 0 -3.1232238742279616e-05 0 0 -2.9624371343283464e-05 0 0 -2.9624371343283464e-05 0 0 -2.8016667502012632e-05 0 0 -2.8016667502012632e-05 0 0 -2.6409117294686826e-05 0 0 -2.6409117294686826e-05 0 0 -2.4801710853101793e-05 0 0 -2.4801710853101793e-05 0 0 -2.3194438361140222e-05 0 0 -2.3194438361140222e-05 0 0 -2.1587290051286647e-05 0 0 -2.1587290051286647e-05 0 0 -1.998025620114494e-05 0 0 -1.998025620114494e-05 0 0 -1.8373327129957046e-05 0 0 -1.8373327129957046e-05 0 0 -1.6766493195125051e-05 0 0 -1.6766493195125051e-05 0 0 -1.5159744788735754e-05 0 0 -1.5159744788735754e-05 0 0 -1.3553072334085392e-05 0 0 -1.3553072334085392e-05 0 0 -1.1946466282208437e-05 0 0 -1.1946466282208437e-05 0 0 -1.0339917108405883e-05 0 0 -1.0339917108405883e-05 0 0 -8.7334153087764837e-06 0 0 -8.7334153087764837e-06 0 0 -7.1269513967481673e-06 0 0 -7.1269513967481673e-06 0 0 -5.520515899611712e-06 0 0 -5.520515899611712e-06 0 0 -3.9140993550533383e-06 0 0 -3.9140993550533383e-06 0 0 -2.3076923076901354e-06 
</DataArray>
</PointData>
<CellData Scalars="" Vectors="" Tensors="stress,">
<DataArray type="Float64" Name="stress" NumberOfComponents="9" format="ascii">
-53770421.74813652 0 0 0 -53770421.74813652 0 0 0 -99859354.675113678 -53618968.87727356 0 0 0 -53618968.87727356 0 0 0 -99578085.057796478 -53467549.97539711 0 0 0 -53467549.97539711 0 0 0 -99296878.525737762 -53316187.666772842 0 0 0 -53316187.666772842 0 0 0 -99015777.095436096 -53164904.543109894 0 0 0 -53164904.543109894 0 0 0 -98734822.722915649 -53013723.150613785 0 0 0 -53013723.150613785 0 0 0 -98454057.279712677 -52862665.977085114 0 0 0 -52862665.977085114 0 0 0 -98173522.528873444 -52711755.439092636 0 0 0 -52711755.439092636 0 0 0 -97893260.101173401 -52561013.869245529 0 0 0 -52561013.869245529 0 0 0 -97613311.47145462 -52410463.503606796 0 0 0 -52410463.503606796 0 0 0 -97333717.935272217 -52260126.469142914 0 0 0 -52260126.469142914 0 0 0 -97054520.585552216 -52110024.77148056 0 0 0 -52110024.77148056 0 0 0 -96775760.289894104 -51960180.28263855 0 0 0 -51960180.28263855 0 0 0 -96497477.667758942 -51810614.729057312 0 0 0 -51810614.729057312 0 0 0 -96219713.068244934 -51661349.679765701 0 0 0 -51661349.679765701 0 0 0 -95942506.548141479 -51512406.534776688 0 0 0 -51512406.534776688 0 0 0 -95665897.850299835 -51363806.513673782 0 0 0 -51363806.513673782 0 0 0 -95389926.382534027 -51215570.644443512 0 0 0 -51215570.644443512 0 0 0 -95114631.19682312 -51067719.752542496 0 0 0 -51067719.752542496 0 0 0 -94840050.969009399 -50920274.450241089 0 0 0 -50920274.450241089 0 0 0 -94566223.979019165 -50773255.126163483 0 0 0 -50773255.126163483 0 0 0 -94293188.091445923 -50626681.935184479 0 0 0 -50626681.935184479 0 0 0 -94020980.73677063 -50480574.788570404 0 0 0 -50480574.788570404 0 0 0 -93749638.893058777 -50334953.344400406 0 0 0 -50334953.344400406 0 0 0 -93479199.068172455 -50189836.998311996 0 0 0 -50189836.998311996 0 0 0 -93209697.282581329 -50045244.874551773 0 0 0 -50045244.874551773 0 0 0 -92941169.052742004 -49901195.817337036 0 0 0 -49901195.817337036 0 0 0 -92673649.375055313 -49757708.382545471 0 0 0 -49757708.382545471 0 0 0 -92407172.710437775 -49614800.829719543 0 0 0 -49614800.829719543 0 0 0 -92141772.969480515 -49472491.11441803 0 0 0 -49472491.11441803 0 0 0 -91877483.49820137 -49330796.880910873 0 0 0 -49330796.880910873 0 0 0 -91614337.064548492 -49189735.455198288 0 0 0 -49189735.455198288 0 0 0 -91352365.845371246 -49049323.838354111 0 0 0 -49049323.838354111 0 0 0 -91091601.414087296 -48909578.700304031 0 0 0 -48909578.700304031 0 0 0 -90832074.729135513 -48770516.373815536 0 0 0 -48770516.373815536 0 0 0 -90573816.12279892 -48632152.848978043 0 0 0 -48632152.848978043 0 0 0 -90316855.290960312 -48494503.767934799 0 0 0 -48494503.767934799 0 0 0 -90061221.283308029 -48357584.419996262 0 0 0 -48357584.419996262 0 0 0 -89806942.494279861 -48221409.737119675 0 0 0 -48221409.737119675 0 0 0 -89554046.654651642 -48085994.289720535 0 0 0 -48085994.289720535 0 0 0 -89302560.823764801 -47951352.282816887 0 0 0 -47951352.282816887 0 0 0 -89052511.38237381 -47817497.552563667 0 0 0 -47817497.552563667 0 0 0 -88803924.026189804 -47684443.563083649 0 0 0 -47684443.563083649 0 0 0 -88556823.76001358 -47552203.403669357 0 0 0 -47552203.403669357 0 0 0 -88311234.892528534 -47420789.786283493 0 0 0 -47420789.786283493 0 0 0 -88067181.031669617 -47290215.043457985 0 0 0 -47290215.043457985 0 0 0 -87824685.080709457 -47160491.126441956 0 0 0 -47160491.126441956 0 0 0 -87583769.23482132 -47031629.603743553 0 0 0 -47031629.603743553 0 0 0 -87344454.978380203 -46903641.659936905 0 0 0 -46903641.659936905 0 0 0 -87106763.082740784 -46776538.094825745 0 0 0 -46776538.094825745 0 0 0 -86870713.604675293 -46650329.322872162 0 0 0 -46650329.322872162 0 0 0 -86636325.885334015 -46525025.37298584 0 0 0 -46525025.37298584 0 0 0 -86403618.54983139 -46400635.888540268 0 0 0 -46400635.888540268 0 0 0 -86172609.507287979 -46277170.127734184 0 0 0 -46277170.127734184 0 0 0 -85943315.951507568 -46154636.964215279 0 0 0 -46154636.964215279 0 0 0 -85715754.362113953 -46033044.887970924 0 0 0 -46033044.887970924 0 0 0 -85489940.506231308 -45912402.006510735 0 0 0 -45912402.006510735 0 0 0 -85265889.440664291 -45792716.046289444 0 0 0 -45792716.046289444 0 0 0 -85043615.514535904 -45673994.354413033 0 0 0 -45673994.354413033 0 0 0 -84823132.372480392 -45556243.900551796 0 0 0 -45556243.900551796 0 0 0 -84604452.958169937 -45439471.279144287 0 0 0 -45439471.279144287 0 0 0 -84387589.518411636 -45323682.711781502 0 0 0 -45323682.711781502 0 0 0 -84172553.607593536 -45208884.049861908 0 0 0 -45208884.049861908 0 0 0 -83959356.092599869 -45095080.777432442 0 0 0 -45095080.777432442 0 0 0 -83748007.158086777 -44982278.014246941 0 0 0 -44982278.014246941 0 0 0 -83538516.312173843 -44870480.519049644 0 0 0 -44870480.519049644 0 0 0 -83330892.392522812 -44759692.693001747 0 0 0 -44759692.693001747 0 0 0 -83125143.572715759 -44649918.583343506 0 0 0 -44649918.583343506 0 0 0 -82921277.369068146 -44541161.887223244 0 0 0 -44541161.887223244 0 0 0 -82719300.647699356 -44433425.955653191 0 0 0 -44433425.955653191 0 0 0 -82519219.63192749 -44326713.797697067 0 0 0 -44326713.797697067 0 0 0 -82321039.910009384 -44221028.084757805 0 0 0 -44221028.084757805 0 0 0 -82124766.443120956 -44116371.155026436 0 0 0 -44116371.155026436 0 0 0 -81930403.57362175 -44012745.018084526 0 0 0 -44012745.018084526 0 0 0 -81737955.033586502 -43910151.359617233 0 0 0 -43910151.359617233 0 0 0 -81547423.953575134 -43808591.546269417 0 0 0 -43808591.546269417 0 0 0 -81358812.871643066 -43708066.630594254 0 0 0 -43708066.630594254 0 0 0 -81172123.742530823 -43608577.3561306 0 0 0 -43608577.3561306 0 0 0 -80987357.947099686 -43510124.162572861 0 0 0 -43510124.162572861 0 0 0 -80804516.301921844 -43412707.191037178 0 0 0 -43412707.191037178 0 0 0 -80623599.069068909 -43316326.289408684 0 0 0 -43316326.289408684 0 0 0 -80444605.96604538 -43220981.017778397 0 0 0 -43220981.017778397 0 0 0 -80267536.175872803 -43126670.653939247 0 0 0 -43126670.653939247 0 0 0 -80092388.357316971 -43033394.198974609 0 0 0 -43033394.198974609 0 0 0 -79919160.655239105 -42941150.382881165 0 0 0 -42941150.382881165 0 0 0 -79747850.711063385 -42849937.670240402 0 0 0 -42849937.670240402 0 0 0 -79578455.673305511 -42759754.265982628 0 0 0 -42759754.265982628 0 0 0 -79410972.208251953 -42670598.121126175 0 0 0 -42670598.121126175 0 0 0 -79245396.510662079 -42582466.93860054 0 0 0 -42582466.93860054 0 0 0 -79081724.314544678 -42495358.179096222 0 0 0 -42495358.179096222 0 0 0 -78919950.904033661 -42409269.0668993 0 0 0 -42409269.0668993 0 0 0 -78760071.124242783 -42324196.595802307 0 0 0 -42324196.595802307 0 0 0 -78602079.392202377 -42240137.534963608 0 0 0 -42240137.534963608 0 0 0 -78445969.707790375 -42157088.434837341 0 0 0 -42157088.434837341 0 0 0 -78291735.664699554 -42075045.633050919 0 0 0 -42075045.633050919 0 0 0 -78139370.461380005 -41994005.260320663 0 0 0 -41994005.260320663 0 0 0 -77988866.912025452 -41913963.246337891 0 0 0 -41913963.246337891 0 0 0 -77840217.457485199 -41834915.3256464 0 0 0 -41834915.3256464 0 0 0 -77693414.176200867 -41756857.043519974 0 0 0 -41756857.043519974 0 0 0 -77548448.795108795 -41679783.761790276 0 0 0 -41679783.761790276 0 0 0 -77405312.700466156 -41603690.664685249 0 0 0 -41603690.664685249 0 0 0 -77263996.948699951 -41528572.764605522 0 0 0 -41528572.764605522 0 0 0 -77124492.277124405 -41454424.907891273 0 0 0 -41454424.907891273 0 0 0 -76986789.114654541 -41381241.780547142 0 0 0 -41381241.780547142 0 0 0 -76850877.592445374 -41309017.913927078 0 0 0 -41309017.913927078 0 0 0 -76716747.55443573 -41237747.690369606 0 0 0 -41237747.690369606 0 0 0 -76584388.567829132 -41167425.348814964 0 0 0 -41167425.348814964 0 0 0 -76453789.933513641 -41098044.990330696 0 0 0 -41098044.990330696 0 0 0 -76324940.696329117 -41029600.583622932 0 0 0 -41029600.583622932 0 0 0 -76197829.65530014 -40962085.970479965 0 0 0 -40962085.970479965 0 0 0 -76072445.373746872 -40895494.871152878 0 0 0 -40895494.871152878 0 0 0 -75948776.189283371 -40829820.88969326 0 0 0 -40829820.88969326 0 0 0 -75826810.223714828 -40765057.519207954 0 0 0 -40765057.519207954 0 0 0 -75706535.392814636 -40701198.147079468 0 0 0 -40701198.147079468 0 0 0 -75587939.416004181 -40638236.060087204 0 0 0 -40638236.060087204 0 0 0 -75471009.825876236 -40576164.449484825 0 0 0 -40576164.449484825 0 0 0 -75355733.977615356 -40514976.41601944 0 0 0 -40514976.41601944 0 0 0 -75242099.058320999 -40454664.974825859 0 0 0 -40454664.974825859 0 0 0 -75130092.096107483 -40395223.060320854 0 0 0 -40395223.060320854 0 0 0 -75019699.969165802 -40336643.530978203 0 0 0 -40336643.530978203 0 0 0 -74910909.414674759 -40278919.174044609 0 0 0 -40278919.174044609 0 0 0 -74803707.037509918 -40222042.710165024 0 0 0 -40222042.710165024 0 0 0 -74698079.318880081 -40166006.797949791 0 0 0 -40166006.797949791 0 0 0 -74594012.624761581 -40110804.03845787 0 0 0 -40110804.03845787 0 0 0 -74491493.214279175 -40056426.979598045 0 0 0 -40056426.979598045 0 0 0 -74390507.247823715 -40002868.120445251 0 0 0 -40002868.120445251 0 0 0 -74291040.79511261 -39950119.915498734 0 0 0 -39950119.915498734 0 0 0 -74193079.843069077 -39898174.778842926 0 0 0 -39898174.778842926 0 0 0 -74096610.303565979 -39847025.088218689 0 0 0 -39847025.088218689 0 0 0 -74001618.020978928 -39796663.189037323 0 0 0 -39796663.189037323 0 0 0 -73908088.779642105 -39747081.39829731 0 0 0 -39747081.39829731 0 0 0 -73816008.311121941 -39698272.008418083 0 0 0 -39698272.008418083 0 0 0 -73725362.301346779 -39650227.291012764 0 0 0 -39650227.291012764 0 0 0 -73636136.397595406 -39602939.500545502 0 0 0 -39602939.500545502 0 0 0 -73548316.215298653 -39556400.877940178 0 0 0 -39556400.877940178 0 0 0 -73461887.344745636 -39510603.65408802 0 0 0 -39510603.65408802 0 0 0 -73376835.357592583 -39465540.053277016 0 0 0 -39465540.053277016 0 0 0 -73293145.813227654 -39421202.296544075 0 0 0 -39421202.296544075 0 0 0 -73210804.26500988 -39377582.604946613 0 0 0 -39377582.604946613 0 0 0 -73129796.266327858 -39334673.202755928 0 0 0 -39334673.202755928 0 0 0 -73050107.37654686 -39292466.320566177 0 0 0 -39292466.320566177 0 0 0 -72971723.166766167 -39250954.198318481 0 0 0 -39250954.198318481 0 0 0 -72894629.225448608 -39210129.088258266 0 0 0 -39210129.088258266 0 0 0 -72818811.163908005 -39169983.257814884 0 0 0 -39169983.257814884 0 0 0 -72744254.621655464 -39130508.992390156 0 0 0 -39130508.992390156 0 0 0 -72670945.271582603 -39091698.598087311 0 0 0 -39091698.598087311 0 0 0 -72598868.825019836 -39053544.40434742 0 0 0 -39053544.40434742 0 0 0 -72528011.036644936 -39016038.766524792 0 0 0 -39016038.766524792 0 0 0 -72458357.709259987 -38979174.068378925 0 0 0 -38979174.068378925 0 0 0 -72389894.698418617 -38942942.72450161 0 0 0 -38942942.72450161 0 0 0 -72322607.916932106 -38907337.182655334 0 0 0 -38907337.182655334 0 0 0 -72256483.339216232 -38872349.926062107 0 0 0 -38872349.926062107 0 0 0 -72191507.005542755 -38837973.475601673 0 0 0 -38837973.475601673 0 0 0 -72127665.026118279 -38804200.391961098 0 0 0 -38804200.391961098 0 0 0 -72064943.585069656 -38771023.277687073 0 0 0 -38771023.277687073 0 0 0 -72003328.94427681 -38738434.779202938 0 0 0 -38738434.779202938 0 0 0 -71942807.447092056 -38706427.588722229 0 0 0 -38706427.588722229 0 0 0 -71883365.521912575 -38674994.44614315 0 0 0 -38674994.44614315 0 0 0 -71824989.685694695 -38644128.140835285 0 0 0 -38644128.140835285 0 0 0 -71767666.547265053 -38613821.513388157 0 0 0 -38613821.513388157 0 0 0 -71711382.810578346 -38584067.457286358 0 0 0 -38584067.457286358 0 0 0 -71656125.277817726 -38554858.920532227 0 0 0 -38554858.920532227 0 0 0 -71601880.852417946 -38526188.907196999 0 0 0 -38526188.907196999 0 0 0 -71548636.541936874 -38498050.478927135 0 0 0 -38498050.478927135 0 0 0 -71496379.460864067 -38470436.756385803 0 0 0 -38470436.756385803 0 0 0 -71445096.833288193 -38443340.920637131 0 0 0 -38443340.920637131 0 0 0 -71394775.995469093 -38416756.214470863 0 0 0 -38416756.214470863 0 0 0 -71345404.398303032 -38390675.943689823 0 0 0 -38390675.943689823 0 0 0 -71296969.60970974 -38365093.478322506 0 0 0 -38365093.478322506 0 0 0 -71249459.316884995 -38340002.25380373 0 0 0 -38340002.25380373 0 0 0 -71202861.328493118 -38315395.772089481 0 0 0 -38315395.772089481 0 0 0 -71157163.576737404 -38291267.602737427 0 0 0 -38291267.602737427 0 0 0 -71112354.119369507 -38267611.383920193 0 0 0 -38267611.383920193 0 0 0 -71068421.141566277 -38244420.823412418 0 0 0 -38244420.823412418 0 0 0 -71025352.957765579 -38221689.699522018 0 0 0 -38221689.699522018 0 0 0 -70983138.013397217 -38199411.86196804 0 0 0 -38199411.86196804 0 0 0 -70941764.886511803 -38177581.232738018 0 0 0 -38177581.232738018 0 0 0 -70901222.289370537 -38156191.806876659 0 0 0 -38156191.806876659 0 0 0 -70861499.069913864 -38135237.653259754 0 0 0 -38135237.653259754 0 0 0 -70822584.213196754 -38114712.915304184 0 0 0 -38114712.915304184 0 0 0 -70784466.842707634 -38094611.811658382 0 0 0 -38094611.811658382 0 0 0 -70747136.221651077 -38074928.636846066 0 0 0 -38074928.636846066 0 0 0 -70710581.754142761 -38055657.761867523 0 0 0 -38055657.761867523 0 0 0 -70674792.986325264 -38036793.634785652 0 0 0 -38036793.634785652 0 0 0 -70639759.607459068 -38018330.781258106 0 0 0 -38018330.781258106 0 0 0 -70605471.450906754 -38000263.805043221 0 0 0 -38000263.805043221 0 0 0 -70571918.495079994 -37982587.388475418 0 0 0 -37982587.388475418 0 0 0 -70539090.864311218 -37965296.292912006 0 0 0 -37965296.292912006 0 0 0 -70506978.829693794 -37948385.35914135 0 0 0 -37948385.35914135 0 0 0 -70475572.80983448 -37931849.50777483 0 0 0 -37931849.50777483 0 0 0 -70444863.371582508 -37915683.739601612 0 0 0 -37915683.739601612 0 0 0 -70414841.230688572 -37899883.135914326 0 0 0 -37899883.135914326 0 0 0 -70385497.252412796 -37884442.858824253 0 0 0 -37884442.858824253 0 0 0 -70356822.452102184 -37869358.151533604 0 0 0 -37869358.151533604 0 0 0 -70328807.995705605 -37854624.338595867 0 0 0 -37854624.338595867 0 0 0 -70301445.200249195 -37840236.826151609 0 0 0 -37840236.826151609 0 0 0 -70274725.534281731 -37826191.102140427 0 0 0 -37826191.102140427 0 0 0 -70248640.61826086 -37812482.736488819 0 0 0 -37812482.736488819 0 0 0 -70223182.224907875 -37799107.381288528 0 0 0 -37799107.381288528 0 0 0 -70198342.27953577 -37786060.770941734 0 0 0 -37786060.770941734 0 0 0 -70174112.860320091 -37773338.722306728 0 0 0 -37773338.722306728 0 0 0 -70150486.198569298 -37760937.134804964 0 0 0 -37760937.134804964 0 0 0 -70127454.678923607 -37748851.990527153 0 0 0 -37748851.990527153 0 0 0 -70105010.839550018 -37737079.354323149 0 0 0 -37737079.354323149 0 0 0 -70083147.37231493 -37725615.373865604 0 0 0 -37725615.373865604 0 0 0 -70061857.122893333 -37714456.279713631 0 0 0 -37714456.279713631 0 0 0 -70041133.090896606 -37703598.385349274 0 0 0 -37703598.385349274 0 0 0 -70020968.429934502 -37693038.087221146 0 0 0 -37693038.087221146 0 0 0 -70001356.447696686 -37682771.864754915 0 0 0 -37682771.864754915 0 0 0 -69982290.605972767 -37672796.280366898 0 0 0 -37672796.280366898 0 0 0 -69963764.520681381 -37663107.979465485 0 0 0 -37663107.979465485 0 0 0 -69945771.961864471 -37653703.690436363 0 0 0 -37653703.690436363 0 0 0 -69928306.853667736 -37644580.224629879 0 0 0 -37644580.224629879 0 0 0 -69911363.274312496 -37635734.476328373 0 0 0 -37635734.476328373 0 0 0 -69894935.456038475 -37627163.422717571 0 0 0 -37627163.422717571 0 0 0 -69879017.785047054 -37618864.123845339 0 0 0 -37618864.123845339 0 0 0 -69863604.801426888 -37610833.722569227 0 0 0 -37610833.722569227 0 0 0 -69848691.199057102 -37603069.444513083 0 0 0 -37603069.444513083 0 0 0 -69834271.825523853 -37595568.598002911 0 0 0 -37595568.598002911 0 0 0 -69820341.682005405 -37588328.57400918 0 0 0 -37588328.57400918 0 0 0 -69806895.923159599 -37581346.846077204 0 0 0 -37581346.846077204 0 0 0 -69793929.857000113 -37574620.970264196 0 0 0 -37574620.970264196 0 0 0 -69781438.944776058 -37568148.585062623 0 0 0 -37568148.585062623 0 0 0 -69769418.800830841 -37561927.411330581 0 0 0 -37561927.411330581 0 0 0 -69757865.192471266 -37555955.252213359 0 0 0 -37555955.252213359 0 0 0 -69746774.039824724 -37550229.993067026 0 0 0 -37550229.993067026 0 0 0 -69736141.415695906 -37544749.601381063 0 0 0 -37544749.601381063 0 0 0 -69725963.545422077 -37539512.126700163 0 0 0 -37539512.126700163 0 0 0 -69716236.80672884 -37534515.700546741 0 0 0 -37534515.700546741 0 0 0 -69706957.72958684 -37529758.53634119 0 0 0 -37529758.53634119 0 0 0 -69698122.99606204 -37525238.929324389 0 0 0 -37525238.929324389 0 0 0 -69689729.440174103 -37520955.256483674 0 0 0 -37520955.256483674 0 0 0 -69681774.047755241 -37516905.976475835 0 0 0 -37516905.976475835 0 0 0 -69674253.95631218 -37513089.629554749 0 0 0 -37513089.629554749 0 0 0 -69667166.45488739 -37509504.837501049 0 0 0 -37509504.837501049 0 0 0 -69660508.983930588 -37506150.303552866 0 0 0 -37506150.303552866 0 0 0 -69654279.135169506 -37503024.812338829 0 0 0 -37503024.812338829 0 0 0 -69648474.651486397 -37500127.229815781 0 0 0 -37500127.229815781 0 0 0 -69643093.426800728 -37497456.503208637 0 0 0 -37497456.503208637 0 0 0 -69638133.505958915 -37495011.660953999 0 0 0 -37495011.660953999 0 0 0 -69633593.08462882 -37492791.812645614 0 0 0 -37492791.812645614 0 0 0 -69629470.509198904 -37490796.148985684 0 0 0 -37490796.148985684 0 0 0 -69625764.276687741 -37489023.941740811 0 0 0 -37489023.941740811 0 0 0 -69622473.034661531 -37487474.543697774 0 0 0 -37487474.543697774 0 0 0 -69619595.581152976 -37486147.388628393 0 0 0 -37486147.388628393 0 0 0 -69617130.864595652 -37485041.99125585 0 0 0 -37485041.99125585 0 0 0 -69615077.983760893 -37484157.947226435 0 0 0 -37484157.947226435 0 0 0 -69613436.187706232 -37483494.933086097 0 0 0 -37483494.933086097 0 0 0 -69612204.875731379 -37483052.706261098 0 0 0 -37483052.706261098 0 0 0 -69611383.597342044 -37482831.10504356 0 0 0 -37482831.10504356 0 0 0 -69610972.052223772 
</DataArray>
</CellData>
</Piece>
</UnstructuredGrid>
</VTKFile>
