<?xml version="1.0"?>
<VTKFile type="UnstructuredGrid" version="0.1" byte_order="LittleEndian">
<UnstructuredGrid>
<Piece NumberOfPoints="500" NumberOfCells="250">
<Points>
<DataArray type="Float64" NumberOfComponents="3" format="ascii">
0 0 0 0 0 -0.00099999999999810158 0 0 -0.00099999999999810158 0 0 -0.001999999999996204 0 0 -0.001999999999996204 0 0 -0.0029999999999943271 0 0 -0.0029999999999943271 0 0 -0.0039999999999924488 0 0 -0.0039999999999924488 0 0 -0.004999999999990571 0 0 -0.004999999999990571 0 0 -0.0059999999999886811 0 0 -0.0059999999999886811 0 0 -0.0069999999999867156 0 0 -0.0069999999999867156 0 0 -0.007999999999984719 0 0 -0.007999999999984719 0 0 -0.008999999999982581 0 0 -0.008999999999982581 0 0 -0.0099999999999804221 0 0 -0.0099999999999804221 0 0 -0.010999999999978201 0 0 -0.010999999999978201 0 0 -0.011999999999975971 0 0 -0.011999999999975971 0 0 -0.01299999999997375 0 0 -0.01299999999997375 0 0 -0.01399999999997158 0 0 -0.01399999999997158 0 0 -0.014999999999969531 0 0 -0.014999999999969531 0 0 -0.01599999999996761 0 0 -0.01599999999996761 0 0 -0.0169999999999659 0 0 -0.0169999999999659 0 0 -0.01799999999996427 0 0 -0.01799999999996427 0 0 -0.018999999999962731 0 0 -0.018999999999962731 0 0 -0.019999999999961209 0 0 -0.019999999999961209 0 0 -0.020999999999959669 0 0 -0.020999999999959669 0 0 -0.02199999999995814 0 0 -0.02199999999995814 0 0 -0.022999999999956611 0 0 -0.022999999999956611 0 0 -0.023999999999955082 0 0 -0.023999999999955082 0 0 -0.024999999999953549 0 0 -0.024999999999953549 0 0 -0.02599999999995202 0 0 -0.02599999999995202 0 0 -0.02699999999995048 0 0 -0.02699999999995048 0 0 -0.027999999999948951 0 0 -0.027999999999948951 0 0 -0.028999999999947419 0 0 -0.028999999999947419 0 0 -0.02999999999994565 0 0 -0.02999999999994565 0 0 -0.03099999999994377 0 0 -0.03099999999994377 0 0 -0.031999999999941367 0 0 -0.031999999999941367 0 0 -0.032999999999938787 0 0 -0.032999999999938787 0 0 -0.033999999999935943 0 0 -0.033999999999935943 0 0 -0.034999999999933022 0 0 -0.034999999999933022 0 0 -0.035999999999930102 0 0 -0.035999999999930102 0 0 -0.036999999999927188 0 0 -0.036999999999927188 0 0 -0.037999999999924268 0 0 -0.037999999999924268 0 0 -0.038999999999921348 0 0 -0.038999999999921348 0 0 -0.039999999999918427 0 0 -0.039999999999918427 0 0 -0.040999999999915507 0 0 -0.040999999999915507 0 0 -0.041999999999912593 0 0 -0.041999999999912593 0 0 -0.042999999999909673 0 0 -0.042999999999909673 0 0 -0.043999999999906753 0 0 -0.043999999999906753 0 0 -0.044999999999903832 0 0 -0.044999999999903832 0 0 -0.045999999999900919 0 0 -0.045999999999900919 0 0 -0.046999999999897998 0 0 -0.046999999999897998 0 0 -0.047999999999895078 0 0 -0.047999999999895078 0 0 -0.048999999999892158 0 0 -0.048999999999892158 0 0 -0.049999999999889237 0 0 -0.049999999999889237 0 0 -0.050999999999886317 0 0 -0.050999999999886317 0 0 -0.051999999999883403 0 0 -0.051999999999883403 0 0 -0.052999999999880483 0 0 -0.052999999999880483 0 0 -0.053999999999877563 0 0 -0.053999999999877563 0 0 -0.054999999999874642 0 0 -0.054999999999874642 0 0 -0.055999999999871722 0 0 -0.055999999999871722 0 0 -0.056999999999868801 0 0 -0.056999999999868801 0 0 -0.057999999999865881 0 0 -0.057999999999865881 0 0 -0.058999999999862961 0 0 -0.058999999999862961 0 0 -0.059999999999860047 0 0 -0.059999999999860047 0 0 -0.060999999999857127 0 0 -0.060999999999857127 0 0 -0.061999999999854213 0 0 -0.061999999999854213 0 0 -0.062999999999851286 0 0 -0.062999999999851286 0 0 -0.063999999999848373 0 0 -0.063999999999848373 0 0 -0.064999999999845445 0 0 -0.064999999999845445 0 0 -0.065999999999842532 0 0 -0.065999999999842532 0 0 -0.066999999999839618 0 0 -0.066999999999839618 0 0 -0.067999999999836705 0 0 -0.067999999999836705 0 0 -0.068999999999833792 0 0 -0.068999999999833792 0 0 -0.069999999999830878 0 0 -0.069999999999830878 0 0 -0.070999999999827965 0 0 -0.070999999999827965 0 0 -0.071999999999825051 0 0 -0.071999999999825051 0 0 -0.072999999999822124 0 0 -0.072999999999822124 0 0 -0.07399999999981921 0 0 -0.07399999999981921 0 0 -0.074999999999816297 0 0 -0.074999999999816297 0 0 -0.075999999999813383 0 0 -0.075999999999813383 0 0 -0.07699999999981047 0 0 -0.07699999999981047 0 0 -0.077999999999807557 0 0 -0.077999999999807557 0 0 -0.078999999999804643 0 0 -0.078999999999804643 0 0 -0.07999999999980173 0 0 -0.07999999999980173 0 0 -0.080999999999798802 0 0 -0.080999999999798802 0 0 -0.081999999999795889 0 0 -0.081999999999795889 0 0 -0.082999999999792975 0 0 -0.082999999999792975 0 0 -0.083999999999790062 0 0 -0.083999999999790062 0 0 -0.084999999999787149 0 0 -0.084999999999787149 0 0 -0.085999999999784235 0 0 -0.085999999999784235 0 0 -0.086999999999781322 0 0 -0.086999999999781322 0 0 -0.087999999999778394 0 0 -0.087999999999778394 0 0 -0.088999999999775481 0 0 -0.088999999999775481 0 0 -0.089999999999772567 0 0 -0.089999999999772567 0 0 -0.090999999999769654 0 0 -0.090999999999769654 0 0 -0.091999999999766741 0 0 -0.091999999999766741 0 0 -0.092999999999763827 0 0 -0.092999999999763827 0 0 -0.093999999999760914 0 0 -0.093999999999760914 0 0 -0.094999999999758 0 0 -0.094999999999758 0 0 -0.095999999999755073 0 0 -0.095999999999755073 0 0 -0.096999999999752159 0 0 -0.096999999999752159 0 0 -0.097999999999749246 0 0 -0.097999999999749246 0 0 -0.098999999999746333 0 0 -0.098999999999746333 0 0 -0.099999999999743419 0 0 -0.099999999999743419 0 0 -0.10099999999974051 0 0 -0.10099999999974051 0 0 -0.10199999999973761 0 0 -0.10199999999973761 0 0 -0.10299999999973471 0 0 -0.10299999999973471 0 0 -0.10399999999973179 0 0 -0.10399999999973179 0 0 -0.1049999999997288 0 0 -0.1049999999997288 0 0 -0.1059999999997259 0 0 -0.1059999999997259 0 0 -0.106999999999723 0 0 -0.106999999999723 0 0 -0.1079999999997201 0 0 -0.1079999999997201 0 0 -0.1089999999997172 0 0 -0.1089999999997172 0 0 -0.1099999999997143 0 0 -0.1099999999997143 0 0 -0.1109999999997113 0 0 -0.1109999999997113 0 0 -0.1119999999997084 0 0 -0.1119999999997084 0 0 -0.1129999999997055 0 0 -0.1129999999997055 0 0 -0.1139999999997026 0 0 -0.1139999999997026 0 0 -0.1149999999996997 0 0 -0.1149999999996997 0 0 -0.1159999999996968 0 0 -0.1159999999996968 0 0 -0.11699999999969379 0 0 -0.11699999999969379 0 0 -0.11799999999969089 0 0 -0.11799999999969089 0 0 -0.11899999999968799 0 0 -0.11899999999968799 0 0 -0.11999999999968509 0 0 -0.11999999999968509 0 0 -0.1209999999996822 0 0 -0.1209999999996822 0 0 -0.1219999999996793 0 0 -0.1219999999996793 0 0 -0.1229999999996764 0 0 -0.1229999999996764 0 0 -0.1239999999996748 0 0 -0.1239999999996748 0 0 -0.12499999999967321 0 0 -0.12499999999967321 0 0 -0.12599999999967451 0 0 -0.12599999999967451 0 0 -0.12699999999967579 0 0 -0.12699999999967579 0 0 -0.1279999999996784 0 0 -0.1279999999996784 0 0 -0.12899999999968109 0 0 -0.12899999999968109 0 0 -0.1299999999996837 0 0 -0.1299999999996837 0 0 -0.13099999999968631 0 0 -0.13099999999968631 0 0 -0.13199999999968889 0 0 -0.13199999999968889 0 0 -0.13299999999969159 0 0 -0.13299999999969159 0 0 -0.1339999999996942 0 0 -0.1339999999996942 0 0 -0.13499999999969689 0 0 -0.13499999999969689 0 0 -0.1359999999996995 0 0 -0.1359999999996995 0 0 -0.13699999999970211 0 0 -0.13699999999970211 0 0 -0.1379999999997048 0 0 -0.1379999999997048 0 0 -0.13899999999970741 0 0 -0.13899999999970741 0 0 -0.13999999999971011 0 0 -0.13999999999971011 0 0 -0.14099999999971269 0 0 -0.14099999999971269 0 0 -0.1419999999997153 0 0 -0.1419999999997153 0 0 -0.14299999999971799 0 0 -0.14299999999971799 0 0 -0.1439999999997206 0 0 -0.1439999999997206 0 0 -0.14499999999972321 0 0 -0.14499999999972321 0 0 -0.14599999999972579 0 0 -0.14599999999972579 0 0 -0.14699999999972849 0 0 -0.14699999999972849 0 0 -0.1479999999997311 0 0 -0.1479999999997311 0 0 -0.14899999999973379 0 0 -0.14899999999973379 0 0 -0.1499999999997364 0 0 -0.1499999999997364 0 0 -0.15099999999973901 0 0 -0.15099999999973901 0 0 -0.1519999999997417 0 0 -0.1519999999997417 0 0 -0.15299999999974431 0 0 -0.15299999999974431 0 0 -0.15399999999974701 0 0 -0.15399999999974701 0 0 -0.15499999999974959 0 0 -0.15499999999974959 0 0 -0.1559999999997522 0 0 -0.1559999999997522 0 0 -0.15699999999975489 0 0 -0.15699999999975489 0 0 -0.1579999999997575 0 0 -0.1579999999997575 0 0 -0.15899999999976011 0 0 -0.15899999999976011 0 0 -0.1599999999997628 0 0 -0.1599999999997628 0 0 -0.16099999999976539 0 0 -0.16099999999976539 0 0 -0.161999999999768 0 0 -0.161999999999768 0 0 -0.16299999999977069 0 0 -0.16299999999977069 0 0 -0.1639999999997733 0 0 -0.1639999999997733 0 0 -0.16499999999977599 0 0 -0.16499999999977599 0 0 -0.1659999999997786 0 0 -0.1659999999997786 0 0 -0.16699999999978121 0 0 -0.16699999999978121 0 0 -0.16799999999978391 0 0 -0.16799999999978391 0 0 -0.16899999999978649 0 0 -0.16899999999978649 0 0 -0.1699999999997891 0 0 -0.1699999999997891 0 0 -0.17099999999979171 0 0 -0.17099999999979171 0 0 -0.1719999999997944 0 0 -0.1719999999997944 0 0 -0.17299999999979701 0 0 -0.17299999999979701 0 0 -0.1739999999997997 0 0 -0.1739999999997997 0 0 -0.17499999999980231 0 0 -0.17499999999980231 0 0 -0.17599999999980501 0 0 -0.17599999999980501 0 0 -0.17699999999980759 0 0 -0.17699999999980759 0 0 -0.1779999999998102 0 0 -0.1779999999998102 0 0 -0.17899999999981281 0 0 -0.17899999999981281 0 0 -0.1799999999998155 0 0 -0.1799999999998155 0 0 -0.18099999999981811 0 0 -0.18099999999981811 0 0 -0.18199999999982069 0 0 -0.18199999999982069 0 0 -0.18299999999982339 0 0 -0.18299999999982339 0 0 -0.183999999999826 0 0 -0.183999999999826 0 0 -0.18499999999982869 0 0 -0.18499999999982869 0 0 -0.1859999999998313 0 0 -0.1859999999998313 0 0 -0.18699999999983391 0 0 -0.18699999999983391 0 0 -0.1879999999998366 0 0 -0.1879999999998366 0 0 -0.18899999999983921 0 0 -0.18899999999983921 0 0 -0.18999999999984191 0 0 -0.18999999999984191 0 0 -0.19099999999984449 0 0 -0.19099999999984449 0 0 -0.1919999999998471 0 0 -0.1919999999998471 0 0 -0.19299999999984971 0 0 -0.19299999999984971 0 0 -0.1939999999998524 0 0 -0.1939999999998524 0 0 -0.19499999999985501 0 0 -0.19499999999985501 0 0 -0.1959999999998577 0 0 -0.1959999999998577 0 0 -0.19699999999986029 0 0 -0.19699999999986029 0 0 -0.19799999999986301 0 0 -0.19799999999986301 0 0 -0.19899999999986559 0 0 -0.19899999999986559 0 0 -0.1999999999998682 0 0 -0.1999999999998682 0 0 -0.20099999999987081 0 0 -0.20099999999987081 0 0 -0.2019999999998735 0 0 -0.2019999999998735 0 0 -0.20299999999987611 0 0 -0.20299999999987611 0 0 -0.20399999999987881 0 0 -0.20399999999987881 0 0 -0.20499999999988139 0 0 -0.20499999999988139 0 0 -0.205999999999884 0 0 -0.205999999999884 0 0 -0.20699999999988669 0 0 -0.20699999999988669 0 0 -0.2079999999998893 0 0 -0.2079999999998893 0 0 -0.20899999999989191 0 0 -0.20899999999989191 0 0 -0.2099999999998946 0 0 -0.2099999999998946 0 0 -0.21099999999989719 0 0 -0.21099999999989719 0 0 -0.21199999999989991 0 0 -0.21199999999989991 0 0 -0.21299999999990249 0 0 -0.21299999999990249 0 0 -0.2139999999999051 0 0 -0.2139999999999051 0 0 -0.21499999999990771 0 0 -0.21499999999990771 0 0 -0.2159999999999104 0 0 -0.2159999999999104 0 0 -0.21699999999991301 0 0 -0.21699999999991301 0 0 -0.21799999999991571 0 0 -0.21799999999991571 0 0 -0.21899999999991829 0 0 -0.21899999999991829 0 0 -0.2199999999999209 0 0 -0.2199999999999209 0 0 -0.22099999999992359 0 0 -0.22099999999992359 0 0 -0.2219999999999262 0 0 -0.2219999999999262 0 0 -0.22299999999992881 0 0 -0.22299999999992881 0 0 -0.22399999999993139 0 0 -0.22399999999993139 0 0 -0.22499999999993411 0 0 -0.22499999999993411 0 0 -0.2259999999999367 0 0 -0.2259999999999367 0 0 -0.22699999999993939 0 0 -0.22699999999993939 0 0 -0.227999999999942 0 0 -0.227999999999942 0 0 -0.22899999999994469 0 0 -0.22899999999994469 0 0 -0.2299999999999473 0 0 -0.2299999999999473 0 0 -0.23099999999994991 0 0 -0.23099999999994991 0 0 -0.23199999999995249 0 0 -0.23199999999995249 0 0 -0.23299999999995519 0 0 -0.23299999999995519 0 0 -0.2339999999999578 0 0 -0.2339999999999578 0 0 -0.23499999999996049 0 0 -0.23499999999996049 0 0 -0.2359999999999631 0 0 -0.2359999999999631 0 0 -0.23699999999996571 0 0 -0.23699999999996571 0 0 -0.2379999999999684 0 0 -0.2379999999999684 0 0 -0.23899999999997101 0 0 -0.23899999999997101 0 0 -0.2399999999999736 0 0 -0.2399999999999736 0 0 -0.24099999999997629 0 0 -0.24099999999997629 0 0 -0.2419999999999789 0 0 -0.2419999999999789 0 0 -0.24299999999998159 0 0 -0.24299999999998159 0 0 -0.2439999999999842 0 0 -0.2439999999999842 0 0 -0.24499999999998681 0 0 -0.24499999999998681 0 0 -0.24599999999998939 0 0 -0.24599999999998939 0 0 -0.24699999999999209 0 0 -0.24699999999999209 0 0 -0.2479999999999947 0 0 -0.2479999999999947 0 0 -0.24899999999999739 0 0 -0.24899999999999739 0 0 -0.25 
</DataArray>
</Points>
<Cells>
<DataArray type="UInt32" Name="connectivity" format="ascii">
0 1 2 3 4 5 6 7 8 9 10 11 12 13 14 15 16 17 18 19 20 21 22 23 24 25 26 27 28 29 30 31 32 33 34 35 36 37 38 39 40 41 42 43 44 45 46 47 48 49 50 51 52 53 54 55 56 57 58 59 60 61 62 63 64 65 66 67 68 69 70 71 72 73 74 75 76 77 78 79 80 81 82 83 84 85 86 87 88 89 90 91 92 93 94 95 96 97 98 99 100 101 102 103 104 105 106 107 108 109 110 111 112 113 114 115 116 117 118 119 120 121 122 123 124 125 126 127 128 129 130 131 132 133 134 135 136 137 138 139 140 141 142 143 144 145 146 147 148 149 150 151 152 153 154 155 156 157 158 159 160 161 162 163 164 165 166 167 168 169 170 171 172 173 174 175 176 177 178 179 180 181 182 183 184 185 186 187 188 189 190 191 192 193 194 195 196 197 198 199 200 201 202 203 204 205 206 207 208 209 210 211 212 213 214 215 216 217 218 219 220 221 222 223 224 225 226 227 228 229 230 231 232 233 234 235 236 237 238 239 240 241 242 243 244 245 246 247 248 249 250 251 252 253 254 255 256 257 258 259 260 261 262 263 264 265 266 267 268 269 270 271 272 273 274 275 276 277 278 279 280 281 282 283 284 285 286 287 288 289 290 291 292 293 294 295 296 297 298 299 300 301 302 303 304 305 306 307 308 309 310 311 312 313 314 315 316 317 318 319 320 321 322 323 324 325 326 327 328 329 330 331 332 333 334 335 336 337 338 339 340 341 342 343 344 345 346 347 348 349 350 351 352 353 354 355 356 357 358 359 360 361 362 363 364 365 366 367 368 369 370 371 372 373 374 375 376 377 378 379 380 381 382 383 384 385 386 387 388 389 390 391 392 393 394 395 396 397 398 399 400 401 402 403 404 405 406 407 408 409 410 411 412 413 414 415 416 417 418 419 420 421 422 423 424 425 426 427 428 429 430 431 432 433 434 435 436 437 438 439 440 441 442 443 444 445 446 447 448 449 450 451 452 453 454 455 456 457 458 459 460 461 462 463 464 465 466 467 468 469 470 471 472 473 474 475 476 477 478 479 480 481 482 483 484 485 486 487 488 489 490 491 492 493 494 495 496 497 498 499 
</DataArray>
<DataArray type="UInt32" Name="offsets" format="ascii">
2 4 6 8 10 12 14 16 18 20 22 24 26 28 30 32 34 36 38 40 42 44 46 48 50 52 54 56 58 60 62 64 66 68 70 72 74 76 78 80 82 84 86 88 90 92 94 96 98 100 102 104 106 108 110 112 114 116 118 120 122 124 126 128 130 132 134 136 138 140 142 144 146 148 150 152 154 156 158 160 162 164 166 168 170 172 174 176 178 180 182 184 186 188 190 192 194 196 198 200 202 204 206 208 210 212 214 216 218 220 222 224 226 228 230 232 234 236 238 240 242 244 246 248 250 252 254 256 258 260 262 264 266 268 270 272 274 276 278 280 282 284 286 288 290 292 294 296 298 300 302 304 306 308 310 312 314 316 318 320 322 324 326 328 330 332 334 336 338 340 342 344 346 348 350 352 354 356 358 360 362 364 366 368 370 372 374 376 378 380 382 384 386 388 390 392 394 396 398 400 402 404 406 408 410 412 414 416 418 420 422 424 426 428 430 432 434 436 438 440 442 444 446 448 450 452 454 456 458 460 462 464 466 468 470 472 474 476 478 480 482 484 486 488 490 492 494 496 498 500 
</DataArray>
<DataArray type="UInt32" Name="types" format="ascii">
3 3 3 3 3 3 3 3 3 3 3 3 3 3 3 3 3 3 3 3 3 3 3 3 3 3 3 3 3 3 3 3 3 3 3 3 3 3 3 3 3 3 3 3 3 3 3 3 3 3 3 3 3 3 3 3 3 3 3 3 3 3 3 3 3 3 3 3 3 3 3 3 3 3 3 3 3 3 3 3 3 3 3 3 3 3 3 3 3 3 3 3 3 3 3 3 3 3 3 3 3 3 3 3 3 3 3 3 3 3 3 3 3 3 3 3 3 3 3 3 3 3 3 3 3 3 3 3 3 3 3 3 3 3 3 3 3 3 3 3 3 3 3 3 3 3 3 3 3 3 3 3 3 3 3 3 3 3 3 3 3 3 3 3 3 3 3 3 3 3 3 3 3 3 3 3 3 3 3 3 3 3 3 3 3 3 3 3 3 3 3 3 3 3 3 3 3 3 3 3 3 3 3 3 3 3 3 3 3 3 3 3 3 3 3 3 3 3 3 3 3 3 3 3 3 3 3 3 3 3 3 3 3 3 3 3 3 3 3 3 3 3 3 3 3 3 3 3 3 3 
</DataArray>
</Cells>
<PointData Scalars="" Vectors="displacement," Tensors="">
<DataArray type="Float64" Name="displacement" NumberOfComponents="3" format="ascii">
0 0 -0.00043618165101017557 0 0 -0.0004338789047353402 0 0 -0.0004338789047353402 0 0 -0.00043158604831038838 0 0 -0.00043158604831038838 0 0 -0.00042930307509625622 0 0 -0.00042930307509625622 0 0 -0.00042702997405514632 0 0 -0.00042702997405514632 0 0 -0.00042476672978969648 0 0 -0.00042476672978969648 0 0 -0.00042251332259533972 0 0 -0.00042251332259533972 0 0 -0.0004202697285244848 0 0 -0.0004202697285244848 0 0 -0.00041803591946123814 0 0 -0.00041803591946123814 0 0 -0.00041581186320548206 0 0 -0.00041581186320548206 0 0 -0.00041359752356520332 0 0 -0.00041359752356520332 0 0 -0.00041139286045605272 0 0 -0.00041139286045605272 0 0 -0.00040919783000717847 0 0 -0.00040919783000717847 0 0 -0.00040701238467246326 0 0 -0.00040701238467246326 0 0 -0.00040483647334634492 0 0 -0.00040483647334634492 0 0 -0.00040267004148347252 0 0 -0.00040267004148347252 0 0 -0.00040051303122150435 0 0 -0.00040051303122150435 0 0 -0.00039836538150640733 0 0 -0.00039836538150640733 0 0 -0.00039622702821967304 0 0 -0.00039622702821967304 0 0 -0.00039409790430690843 0 0 -0.00039409790430690843 0 0 -0.00039197793990730748 0 0 -0.00039197793990730748 0 0 -0.00038986706248355334 0 0 -0.00038986706248355334 0 0 -0.00038776519695173415 0 0 -0.00038776519695173415 0 0 -0.00038567226581090062 0 0 -0.00038567226581090062 0 0 -0.00038358818927192076 0 0 -0.00038358818927192076 0 0 -0.00038151288538532422 0 0 -0.00038151288538532422 0 0 -0.00037944627016785562 0 0 -0.00037944627016785562 0 0 -0.00037738825772748734 0 0 -0.00037738825772748734 0 0 -0.00037533876038666538 0 0 -0.00037533876038666538 0 0 -0.00037329768880358798 0 0 -0.00037329768880358798 0 0 -0.00037126495209134169 0 0 -0.00037126495209134169 0 0 -0.00036924045793473159 0 0 -0.00036924045793473159 0 0 -0.00036722411270467771 0 0 -0.00036722411270467771 0 0 -0.00036521582157004957 0 0 -0.00036521582157004957 0 0 -0.00036321548860684439 0 0 -0.00036321548860684439 0 0 -0.00036122301690461717 0 0 -0.00036122301690461717 0 0 -0.00035923830867009399 0 0 -0.00035923830867009399 0 0 -0.0003572612653279077 0 0 -0.0003572612653279077 0 0 -0.00035529178761841161 0 0 -0.00035529178761841161 0 0 -0.00035332977569253391 0 0 -0.00035332977569253391 0 0 -0.00035137512920365154 0 0 -0.00035137512920365154 0 0 -0.00034942774739646544 0 0 -0.00034942774739646544 0 0 -0.00034748752919287306 0 0 -0.00034748752919287306 0 0 -0.00034555437327483946 0 0 -0.00034555437327483946 0 0 -0.00034362817816427561 0 0 -0.00034362817816427561 0 0 -0.00034170884229994168 0 0 -0.00034170884229994168 0 0 -0.00033979626411139439 0 0 -0.00033979626411139439 0 0 -0.00033789034209000886 0 0 -0.00033789034209000886 0 0 -0.00033599097485710486 0 0 -0.00033599097485710486 0 0 -0.0003340980612292161 0 0 -0.0003340980612292161 0 0 -0.00033221150028054232 0 0 -0.00033221150028054232 0 0 -0.00033033119140262872 0 0 -0.00033033119140262872 0 0 -0.00032845703436132015 0 0 -0.00032845703436132015 0 0 -0.00032658892935104024 0 0 -0.00032658892935104024 0 0 -0.00032472677704644819 0 0 -0.00032472677704644819 0 0 -0.00032287047865152798 0 0 -0.00032287047865152798 0 0 -0.00032101993594616554 0 0 -0.00032101993594616554 0 0 -0.00031917505133027292 0 0 -0.00031917505133027292 0 0 -0.00031733572786551777 0 0 -0.00031733572786551777 0 0 -0.00031550186931471872 0 0 -0.00031550186931471872 0 0 -0.00031367338017896691 0 0 -0.00031367338017896691 0 0 -0.00031185016573253579 0 0 -0.00031185016573253579 0 0 -0.00031003213205564085 0 0 -0.00031003213205564085 0 0 -0.00030821918606510976 0 0 -0.00030821918606510976 0 0 -0.0003064112355430282 0 0 -0.0003064112355430282 0 0 -0.00030460818916342 0 0 -0.00030460818916342 0 0 -0.00030280995651702462 0 0 -0.00030280995651702462 0 0 -0.00030101644813423375 0 0 -0.00030101644813423375 0 0 -0.00029922757550624715 0 0 -0.00029922757550624715 0 0 -0.00029744325110450773 0 0 -0.00029744325110450773 0 0 -0.00029566338839847678 0 0 -0.00029566338839847678 0 0 -0.00029388790187180694 0 0 -0.00029388790187180694 0 0 -0.00029211670703697165 0 0 -0.00029211670703697165 0 0 -0.00029034972044840788 0 0 -0.00029034972044840788 0 0 -0.00028858685971422913 0 0 -0.00028858685971422913 0 0 -0.00028682804350656298 0 0 -0.00028682804350656298 0 0 -0.00028507319157056827 0 0 -0.00028507319157056827 0 0 -0.00028332222473218416 0 0 -0.00028332222473218416 0 0 -0.00028157506490466514 0 0 -0.00028157506490466514 0 0 -0.00027983163509395006 0 0 -0.00027983163509395006 0 0 -0.00027809185940291814 0 0 -0.00027809185940291814 0 0 -0.00027635566303457781 0 0 -0.00027635566303457781 0 0 -0.00027462297229423826 0 0 -0.00027462297229423826 0 0 -0.00027289371459070846 0 0 -0.00027289371459070846 0 0 -0.00027116781843656922 0 0 -0.00027116781843656922 0 0 -0.00026944521344756241 0 0 -0.00026944521344756241 0 0 -0.00026772583034113994 0 0 -0.00026772583034113994 0 0 -0.00026600960093421406 0 0 -0.00026600960093421406 0 0 -0.00026429645814014915 0 0 -0.00026429645814014915 0 0 -0.0002625863359650348 0 0 -0.0002625863359650348 0 0 -0.00026087916950327724 0 0 -0.00026087916950327724 0 0 -0.00025917489493254613 0 0 -0.00025917489493254613 0 0 -0.00025747344950811327 0 0 -0.00025747344950811327 0 0 -0.00025577477155661651 0 0 -0.00025577477155661651 0 0 -0.00025407880046928323 0 0 -0.00025407880046928323 0 0 -0.00025238547669464517 0 0 -0.00025238547669464517 0 0 -0.00025069474173077531 0 0 -0.00025069474173077531 0 0 -0.0002490065381170787 0 0 -0.0002490065381170787 0 0 -0.00024732080942566412 0 0 -0.00024732080942566412 0 0 -0.00024563750025232556 0 0 -0.00024563750025232556 0 0 -0.00024395655620716082 0 0 -0.00024395655620716082 0 0 -0.00024227792390485277 0 0 -0.00024227792390485277 0 0 -0.00024060155095463848 0 0 -0.00024060155095463848 0 0 -0.00023892738594999012 0 0 -0.00023892738594999012 0 0 -0.00023725537845803091 0 0 -0.00023725537845803091 0 0 -0.00023558547900870796 0 0 -0.00023558547900870796 0 0 -0.00023391763908374392 0 0 -0.00023391763908374392 0 0 -0.00023225181110538809 0 0 -0.00023225181110538809 0 0 -0.00023058794842498485 0 0 -0.00023058794842498485 0 0 -0.00022892600531138069 0 0 -0.00022892600531138069 0 0 -0.000227265936939186 0 0 -0.000227265936939186 0 0 -0.00022560769937690956 0 0 -0.00022560769937690956 0 0 -0.00022395124957498135 0 0 -0.00022395124957498135 0 0 -0.00022229654535368154 0 0 -0.00022229654535368154 0 0 -0.00022064354539098793 0 0 -0.00022064354539098793 0 0 -0.00021899220921035774 0 0 -0.00021899220921035774 0 0 -0.00021734249716845705 0 0 -0.00021734249716845705 0 0 -0.00021569437044285066 0 0 -0.00021569437044285066 0 0 -0.00021404779101966479 0 0 -0.00021404779101966479 0 0 -0.00021240272168123576 0 0 -0.00021240272168123576 0 0 -0.00021075912599375206 0 0 -0.00021075912599375206 0 0 -0.00020911696829490443 0 0 -0.00020911696829490443 0 0 -0.00020747621368155192 0 0 -0.00020747621368155192 0 0 -0.00020583682799741376 0 0 -0.00020583682799741376 0 0 -0.00020419877782079361 0 0 -0.00020419877782079361 0 0 -0.00020256203045235618 0 0 -0.00020256203045235618 0 0 -0.00020092655390293682 0 0 -0.00020092655390293682 0 0 -0.00019929231688143798 0 0 -0.00019929231688143798 0 0 -0.00019765928878275792 0 0 -0.00019765928878275792 0 0 -0.00019602743967582021 0 0 -0.00019602743967582021 0 0 -0.00019439674029166445 0 0 -0.00019439674029166445 0 0 -0.00019276716201162852 0 0 -0.00019276716201162852 0 0 -0.00019113867685562047 0 0 -0.00019113867685562047 0 0 -0.00018951125747048391 0 0 -0.00018951125747048391 0 0 -0.00018788487711846472 0 0 -0.00018788487711846472 0 0 -0.00018625950966577953 0 0 -0.00018625950966577953 0 0 -0.00018463512957129485 0 0 -0.00018463512957129485 0 0 -0.00018301171187531614 0 0 -0.00018301171187531614 0 0 -0.000181389232188493 0 0 -0.000181389232188493 0 0 -0.00017976766668084348 0 0 -0.00017976766668084348 0 0 -0.00017814699207089777 0 0 -0.00017814699207089777 0 0 -0.00017652718561496816 0 0 -0.00017652718561496816 0 0 -0.00017490822509654306 0 0 -0.00017490822509654306 0 0 -0.00017329008881581144 0 0 -0.00017329008881581144 0 0 -0.00017167275557931658 0 0 -0.00017167275557931658 0 0 -0.00017005620468974123 0 0 -0.00017005620468974123 0 0 -0.00016844041593582762 0 0 -0.00016844041593582762 0 0 -0.00016682536958243044 0 0 -0.00016682536958243044 0 0 -0.00016521104636070788 0 0 -0.00016521104636070788 0 0 -0.00016359742745844635 0 0 -0.00016359742745844635 0 0 -0.00016198449451052546 0 0 -0.00016198449451052546 0 0 -0.00016037222958951866 0 0 -0.00016037222958951866 0 0 -0.00015876061519643324 0 0 -0.00015876061519643324 0 0 -0.00015714963425158946 0 0 -0.00015714963425158946 0 0 -0.00015553927008563618 0 0 -0.00015553927008563618 0 0 -0.00015392950643070775 0 0 -0.00015392950643070775 0 0 -0.00015232032741171691 0 0 -0.00015232032741171691 0 0 -0.00015071171753778799 0 0 -0.00015071171753778799 0 0 -0.00014910366169382664 0 0 -0.00014910366169382664 0 0 -0.00014749614513222657 0 0 -0.00014749614513222657 0 0 -0.00014588915346471401 0 0 -0.00014588915346471401 0 0 -0.00014428267265432796 0 0 -0.00014428267265432796 0 0 -0.00014267668900753446 0 0 -0.00014267668900753446 0 0 -0.0001410711891664771 0 0 -0.0001410711891664771 0 0 -0.00013946616010135986 0 0 -0.00013946616010135986 0 0 -0.0001378615891029617 0 0 -0.0001378615891029617 0 0 -0.00013625746377528435 0 0 -0.00013625746377528435 0 0 -0.0001346537720283283 0 0 -0.0001346537720283283 0 0 -0.00013305050207099901 0 0 -0.00013305050207099901 0 0 -0.00013144764240414087 0 0 -0.00013144764240414087 0 0 -0.00012984518181369619 0 0 -0.00012984518181369619 0 0 -0.00012824310936399101 0 0 -0.00012824310936399101 0 0 -0.00012664141439114288 0 0 -0.00012664141439114288 0 0 -0.00012504008649659272 0 0 -0.00012504008649659272 0 0 -0.00012343911554075463 0 0 -0.00012343911554075463 0 0 -0.0001218384916367879 0 0 -0.0001218384916367879 0 0 -0.0001202382051444839 0 0 -0.0001202382051444839 0 0 -0.00011863824666427146 0 0 -0.00011863824666427146 0 0 -0.00011703860703133426 0 0 -0.00011703860703133426 0 0 -0.00011543927730984289 0 0 -0.00011543927730984289 0 0 -0.00011384024878729706 0 0 -0.00011384024878729706 0 0 -0.00011224151296897804 0 0 -0.00011224151296897804 0 0 -0.00011064306157250735 0 0 -0.00011064306157250735 0 0 -0.00010904488652251312 0 0 -0.00010904488652251312 0 0 -0.00010744697994540073 0 0 -0.00010744697994540073 0 0 -0.00010584933416422434 0 0 -0.00010584933416422434 0 0 -0.00010425194169366173 0 0 -0.00010425194169366173 0 0 -0.00010265479523508625 0 0 -0.00010265479523508625 0 0 -0.00010105788767173742 0 0 -0.00010105788767173742 0 0 -9.9461212063987344e-05 0 0 -9.9461212063987344e-05 0 0 -9.7864761644699455e-05 0 0 -9.7864761644699455e-05 0 0 -9.6268529814681704e-05 0 0 -9.6268529814681704e-05 0 0 -9.4672510138228011e-05 0 0 -9.4672510138228011e-05 0 0 -9.3076696338750023e-05 0 0 -9.3076696338750023e-05 0 0 -9.1481082294494882e-05 0 0 -9.1481082294494882e-05 0 0 -8.9885662034348902e-05 0 0 -8.9885662034348902e-05 0 0 -8.8290429733723443e-05 0 0 -8.8290429733723443e-05 0 0 -8.6695379710524276e-05 0 0 -8.6695379710524276e-05 0 0 -8.5100506421198808e-05 0 0 -8.5100506421198808e-05 0 0 -8.3505804456864263e-05 0 0 -8.3505804456864263e-05 0 0 -8.1911268539509337e-05 0 0 -8.1911268539509337e-05 0 0 -8.0316893518273214e-05 0 0 -8.0316893518273214e-05 0 0 -7.872267436579645e-05 0 0 -7.872267436579645e-05 0 0 -7.7128606174644047e-05 0 0 -7.7128606174644047e-05 0 0 -7.553468415379709e-05 0 0 -7.553468415379709e-05 0 0 -7.3940903625214368e-05 0 0 -7.3940903625214368e-05 0 0 -7.2347260020458361e-05 0 0 -7.2347260020458361e-05 0 0 -7.0753748877387895e-05 0 0 -7.0753748877387895e-05 0 0 -6.9160365836913221e-05 0 0 -6.9160365836913221e-05 0 0 -6.7567106639811916e-05 0 0 -6.7567106639811916e-05 0 0 -6.5973967123605958e-05 0 0 -6.5973967123605958e-05 0 0 -6.4380943219496896e-05 0 0 -6.4380943219496896e-05 0 0 -6.278803094935649e-05 0 0 -6.278803094935649e-05 0 0 -6.1195226422775006e-05 0 0 -6.1195226422775006e-05 0 0 -5.9602525834160187e-05 0 0 -5.9602525834160187e-05 0 0 -5.8009925459890701e-05 0 0 -5.8009925459890701e-05 0 0 -5.6417421655518714e-05 0 0 -5.6417421655518714e-05 0 0 -5.4825010853022505e-05 0 0 -5.4825010853022505e-05 0 0 -5.3232689558104919e-05 0 0 -5.3232689558104919e-05 0 0 -5.1640454347539979e-05 0 0 -5.1640454347539979e-05 0 0 -5.0048301866561654e-05 0 0 -5.0048301866561654e-05 0 0 -4.8456228826297474e-05 0 0 -4.8456228826297474e-05 0 0 -4.6864232001243104e-05 0 0 -4.6864232001243104e-05 0 0 -4.5272308226776055e-05 0 0 -4.5272308226776055e-05 0 0 -4.3680454396709315e-05 0 0 -4.3680454396709315e-05 0 0 -4.2088667460881108e-05 0 0 -4.2088667460881108e-05 0 0 -4.0496944422781854e-05 0 0 -4.0496944422781854e-05 0 0 -3.8905282337212916e-05 0 0 -3.8905282337212916e-05 0 0 -3.7313678307981323e-05 0 0 -3.7313678307981323e-05 0 0 -3.5722129485623187e-05 0 0 -3.5722129485623187e-05 0 0 -3.4130633065159607e-05 0 0 -3.4130633065159607e-05 0 0 -3.2539186283879389e-05 0 0 -3.2539186283879389e-05 0 0 -3.094778641915049e-05 0 0 -3.094778641915049e-05 0 0 -2.9356430786256573e-05 0 0 -2.9356430786256573e-05 0 0 -2.7765116736259442e-05 0 0 -2.7765116736259442e-05 0 0 -2.617384165388281e-05 0 0 -2.617384165388281e-05 0 0 -2.4582602955420336e-05 0 0 -2.4582602955420336e-05 0 0 -2.2991398086662264e-05 0 0 -2.2991398086662264e-05 0 0 -2.1400224520842688e-05 0 0 -2.1400224520842688e-05 0 0 -1.980907975660481e-05 0 0 -1.980907975660481e-05 0 0 -1.8217961315981769e-05 0 0 -1.8217961315981769e-05 0 0 -1.662686674239383e-05 0 0 -1.662686674239383e-05 0 0 -1.5035793598660063e-05 0 0 -1.5035793598660063e-05 0 0 -1.3444739465021053e-05 0 0 -1.3444739465021053e-05 0 0 -1.1853701937175336e-05 0 0 -1.1853701937175336e-05 0 0 -1.0262678624324013e-05 0 0 -1.0262678624324013e-05 0 0 -8.6716671472257714e-06 0 0 -8.6716671472257714e-06 0 0 -7.0806651362585487e-06 0 0 -7.0806651362585487e-06 0 0 -5.4896702294887825e-06 0 0 -5.4896702294887825e-06 0 0 -3.898680070743869e-06 0 0 -3.898680070743869e-06 0 0 -2.3076923076906343e-06 
</DataArray>
</PointData>
<CellData Scalars="" Vectors="" Tensors="stress,">
<DataArray type="Float64" Name="stress" NumberOfComponents="9" format="ascii">
-53730746.412927628 0 0 0 -53730746.412927628 0 0 0 -99785671.909725189 -53499983.248977661 0 0 0 -53499983.248977661 0 0 0 -99357111.748100281 -53269374.996517181 0 0 0 -53269374.996517181 0 0 0 -98928839.279247284 -53039024.292663574 0 0 0 -53039024.292663574 0 0 0 -98501045.114948273 -52809032.860595703 0 0 0 -52809032.860595703 0 0 0 -98073918.169677734 -52579501.201757431 0 0 0 -52579501.201757431 0 0 0 -97647645.088977814 -52350528.320051193 0 0 0 -52350528.320051193 0 0 0 -97222409.737236023 -52122211.475860596 0 0 0 -52122211.475860596 0 0 0 -96798392.740882874 -51894645.967752457 0 0 0 -51894645.967752457 0 0 0 -96375771.082969666 -51667924.939949036 0 0 0 -51667924.939949036 0 0 0 -95954717.745616913 -51442139.213628769 0 0 0 -51442139.213628769 0 0 0 -95535401.396736145 -51217377.140512466 0 0 0 -51217377.140512466 0 0 0 -95117986.118095398 -50993724.476800919 0 0 0 -50993724.476800919 0 0 0 -94702631.171203613 -50771264.276205063 0 0 0 -50771264.276205063 0 0 0 -94289490.798664093 -50550076.800458908 0 0 0 -50550076.800458908 0 0 0 -93878714.057994843 -50330239.446020126 0 0 0 -50330239.446020126 0 0 0 -93470444.685466766 -50111826.685682297 0 0 0 -50111826.685682297 0 0 0 -93064820.987697601 -49894910.023881912 0 0 0 -49894910.023881912 0 0 0 -92661975.758636475 -49679557.964584351 0 0 0 -49679557.964584351 0 0 0 -92262036.219942093 -49465835.990764618 0 0 0 -49465835.990764618 0 0 0 -91865123.982847214 -49253806.554338455 0 0 0 -49253806.554338455 0 0 0 -91471355.029485703 -49043529.075857162 0 0 0 -49043529.075857162 0 0 0 -91080839.712305069 -48835059.952856064 0 0 0 -48835059.952856064 0 0 0 -90693682.769590378 -48628452.576271057 0 0 0 -48628452.576271057 0 0 0 -90309983.355932236 -48423757.353992462 0 0 0 -48423757.353992462 0 0 0 -89929835.085987091 -48221021.741006851 0 0 0 -48221021.741006851 0 0 0 -89553326.090442657 -48020290.275333405 0 0 0 -48020290.275333405 0 0 0 -89180539.082763672 -47821604.619253159 0 0 0 -47821604.619253159 0 0 0 -88811551.435752869 -47625003.605211258 0 0 0 -47625003.605211258 0 0 0 -88446435.266822815 -47430523.285829544 0 0 0 -47430523.285829544 0 0 0 -88085257.530828476 -47238196.987657547 0 0 0 -47238196.987657547 0 0 0 -87728080.119935989 -47048055.36803627 0 0 0 -47048055.36803627 0 0 0 -87374959.969211578 -46860126.474778175 0 0 0 -46860126.474778175 0 0 0 -87025949.167442322 -46674435.808253288 0 0 0 -46674435.808253288 0 0 0 -86681095.072471619 -46491006.385437965 0 0 0 -46491006.385437965 0 0 0 -86340440.430099487 -46309858.80567646 0 0 0 -46309858.80567646 0 0 0 -86004023.496255875 -46131011.317814827 0 0 0 -46131011.317814827 0 0 0 -85671878.161657333 -45954479.888376236 0 0 0 -45954479.888376236 0 0 0 -85344034.07841301 -45780278.27061367 0 0 0 -45780278.27061367 0 0 0 -85020516.788282394 -45608418.074054718 0 0 0 -45608418.074054718 0 0 0 -84701347.851816177 -45438908.834474564 0 0 0 -45438908.834474564 0 0 0 -84386544.978311539 -45271758.083953857 0 0 0 -45271758.083953857 0 0 0 -84076122.155914307 -45106971.420915604 0 0 0 -45106971.420915604 0 0 0 -83770089.781702042 -44944552.579954147 0 0 0 -44944552.579954147 0 0 0 -83468454.791343689 -44784503.501255989 0 0 0 -44784503.501255989 0 0 0 -83171220.788045883 -44626824.399567604 0 0 0 -44626824.399567604 0 0 0 -82878388.170623779 -44471513.832458496 0 0 0 -44471513.832458496 0 0 0 -82589954.260280609 -44318568.767889023 0 0 0 -44318568.767889023 0 0 0 -82305913.426080704 -44167984.650867462 0 0 0 -44167984.650867462 0 0 0 -82026257.208753586 -44019755.469182968 0 0 0 -44019755.469182968 0 0 0 -81750974.442768097 -43873873.818112373 0 0 0 -43873873.818112373 0 0 0 -81480051.376493454 -43730330.963994026 0 0 0 -43730330.963994026 0 0 0 -81213471.790273666 -43589116.906658173 0 0 0 -43589116.906658173 0 0 0 -80951217.112365723 -43450220.440608978 0 0 0 -43450220.440608978 0 0 0 -80693266.532558441 -43313629.214930534 0 0 0 -43313629.214930534 0 0 0 -80439597.113443375 -43179329.791916847 0 0 0 -43179329.791916847 0 0 0 -80190183.899274826 -43047307.704286575 0 0 0 -43047307.704286575 0 0 0 -79945000.022245407 -42917547.511078835 0 0 0 -42917547.511078835 0 0 0 -79704016.806289673 -42790032.852103233 0 0 0 -42790032.852103233 0 0 0 -79467203.868190765 -42664746.500999451 0 0 0 -42664746.500999451 0 0 0 -79234529.216142654 -42541670.416851044 0 0 0 -42541670.416851044 0 0 0 -79005959.345581055 -42420785.79433918 0 0 0 -42420785.79433918 0 0 0 -78781459.332344055 -42302073.112516403 0 0 0 -42302073.112516403 0 0 0 -78560992.923244476 -42185512.182025909 0 0 0 -42185512.182025909 0 0 0 -78344522.623762131 -42071082.190981865 0 0 0 -42071082.190981865 0 0 0 -78132009.783250809 -41958761.749347687 0 0 0 -41958761.749347687 0 0 0 -77923414.677360535 -41848528.931909561 0 0 0 -41848528.931909561 0 0 0 -77718696.587831497 -41740361.31980896 0 0 0 -41740361.31980896 0 0 0 -77517813.879644394 -41634236.040707588 0 0 0 -41634236.040707588 0 0 0 -77320724.075601578 -41530129.807509422 0 0 0 -41530129.807509422 0 0 0 -77127383.928232193 -41428018.955750465 0 0 0 -41428018.955750465 0 0 0 -76937749.489250183 -41327879.479610443 0 0 0 -41327879.479610443 0 0 0 -76751776.176420212 -41229687.066608429 0 0 0 -41229687.066608429 0 0 0 -76569418.8379879 -41133417.13095665 0 0 0 -41133417.13095665 0 0 0 -76390631.814634323 -41039044.845664024 0 0 0 -41039044.845664024 0 0 0 -76215368.999088287 -40946545.1733284 0 0 0 -40946545.1733284 0 0 0 -76043583.893325806 -40855892.895748138 0 0 0 -40855892.895748138 0 0 0 -75875229.663532257 -40767062.642230034 0 0 0 -40767062.642230034 0 0 0 -75710259.192712784 -40680028.91680336 0 0 0 -40680028.91680336 0 0 0 -75548625.131206512 -40594766.124196053 0 0 0 -40594766.124196053 0 0 0 -75390279.944936752 -40511248.594725609 0 0 0 -40511248.594725609 0 0 0 -75235175.961633682 -40429450.60804081 0 0 0 -40429450.60804081 0 0 0 -75083265.414934158 -40349346.415813446 0 0 0 -40349346.415813446 0 0 0 -74934500.486509323 -40270910.263365746 0 0 0 -40270910.263365746 0 0 0 -74788833.346250534 -40194116.410276413 0 0 0 -40194116.410276413 0 0 0 -74646216.190513611 -40118939.149973869 0 0 0 -40118939.149973869 0 0 0 -74506601.278524399 -40045352.82838726 0 0 0 -40045352.82838726 0 0 0 -74369940.967004776 -39973331.861631393 0 0 0 -39973331.861631393 0 0 0 -74236187.743028641 -39902850.752784729 0 0 0 -39902850.752784729 0 0 0 -74105294.255170822 -39833884.107791901 0 0 0 -39833884.107791901 0 0 0 -73977213.343042374 -39766406.650508881 0 0 0 -39766406.650508881 0 0 0 -73851898.065231323 -39700393.23688221 0 0 0 -39700393.23688221 0 0 0 -73729301.725637436 -39635818.868372917 0 0 0 -39635818.868372917 0 0 0 -73609377.898406982 -39572658.704558372 0 0 0 -39572658.704558372 0 0 0 -73492080.451324463 -39510888.075003624 0 0 0 -39510888.075003624 0 0 0 -73377363.567861557 -39450482.490412712 0 0 0 -39450482.490412712 0 0 0 -73265181.767908096 -39391417.653035164 0 0 0 -39391417.653035164 0 0 0 -73155489.927066803 -39333669.466454506 0 0 0 -39333669.466454506 0 0 0 -73048243.294843674 -39277214.044681549 0 0 0 -39277214.044681549 0 0 0 -72943397.511550903 -39222027.720624924 0 0 0 -39222027.720624924 0 0 0 -72840908.624017715 -39168087.05396843 0 0 0 -39168087.05396843 0 0 0 -72740733.100227356 -39115368.838447571 0 0 0 -39115368.838447571 0 0 0 -72642827.842830658 -39063850.108574867 0 0 0 -39063850.108574867 0 0 0 -72547150.201639175 -39013508.145829201 0 0 0 -39013508.145829201 0 0 0 -72453657.985109329 -38964320.484318733 0 0 0 -38964320.484318733 0 0 0 -72362309.470878601 -38916264.915940285 0 0 0 -38916264.915940285 0 0 0 -72273063.415317535 -38869319.495081902 0 0 0 -38869319.495081902 0 0 0 -72185879.062295914 -38823462.542854309 0 0 0 -38823462.542854309 0 0 0 -72100716.151016235 -38778672.650876999 0 0 0 -38778672.650876999 0 0 0 -72017534.923055649 -38734928.684654236 0 0 0 -38734928.684654236 0 0 0 -71936296.128644943 -38692209.786565781 0 0 0 -38692209.786565781 0 0 0 -71856961.032194138 -38650495.378437042 0 0 0 -38650495.378437042 0 0 0 -71779491.417097092 -38609765.16377449 0 0 0 -38609765.16377449 0 0 0 -71703849.589866638 -38569999.129629135 0 0 0 -38569999.129629135 0 0 0 -71629998.383598328 -38531177.548149109 0 0 0 -38531177.548149109 0 0 0 -71557901.160848618 -38493280.977794647 0 0 0 -38493280.977794647 0 0 0 -71487521.815904617 -38456290.26426506 0 0 0 -38456290.26426506 0 0 0 -71418824.776493073 -38420186.541114807 0 0 0 -38420186.541114807 0 0 0 -71351775.004926682 -38384951.230122566 0 0 0 -38384951.230122566 0 0 0 -71286337.99879837 -38350566.041397095 0 0 0 -38350566.041397095 0 0 0 -71222479.791168213 -38317012.973222733 0 0 0 -38317012.973222733 0 0 0 -71160166.950269699 -38284274.31166935 0 0 0 -38284274.31166935 0 0 0 -71099366.578813553 -38252332.630002022 0 0 0 -38252332.630002022 0 0 0 -71040046.312860489 -38221170.787864685 0 0 0 -38221170.787864685 0 0 0 -70982174.320320129 -38190771.930267334 0 0 0 -38190771.930267334 0 0 0 -70925719.299068451 -38161119.486401558 0 0 0 -38161119.486401558 0 0 0 -70870650.474746704 -38132197.168257713 0 0 0 -38132197.168257713 0 0 0 -70816937.598192215 -38103988.969101906 0 0 0 -38103988.969101906 0 0 0 -70764550.942617416 -38076479.161777496 0 0 0 -38076479.161777496 0 0 0 -70713461.300443649 -38049652.296868324 0 0 0 -38049652.296868324 0 0 0 -70663639.979898453 -38023493.200738907 0 0 0 -38023493.200738907 0 0 0 -70615058.801372528 -37997986.973423004 0 0 0 -37997986.973423004 0 0 0 -70567690.093499184 -37973118.98641777 0 0 0 -37973118.98641777 0 0 0 -70521506.689061165 -37948874.880349159 0 0 0 -37948874.880349159 0 0 0 -70476481.920647621 -37925240.562552452 0 0 0 -37925240.562552452 0 0 0 -70432589.616168022 -37902202.204544067 0 0 0 -37902202.204544067 0 0 0 -70389804.094152451 -37879746.239403725 0 0 0 -37879746.239403725 0 0 0 -70348100.158894539 -37857859.359104633 0 0 0 -37857859.359104633 0 0 0 -70307453.095480919 -37836528.511723518 0 0 0 -37836528.511723518 0 0 0 -70267838.664628983 -37815740.898631096 0 0 0 -37815740.898631096 0 0 0 -70229233.097458839 -37795483.971592903 0 0 0 -37795483.971592903 0 0 0 -70191613.090101242 -37775745.429820538 0 0 0 -37775745.429820538 0 0 0 -70154955.798237801 -37756513.21696949 0 0 0 -37756513.21696949 0 0 0 -70119238.831515312 -37737775.518114567 0 0 0 -37737775.518114567 0 0 0 -70084440.247927666 -37719520.756659985 0 0 0 -37719520.756659985 0 0 0 -70050538.548082352 -37701737.591220379 0 0 0 -37701737.591220379 0 0 0 -70017512.669409752 -37684414.912499428 0 0 0 -37684414.912499428 0 0 0 -69985341.980355263 -37667541.840094566 0 0 0 -37667541.840094566 0 0 0 -69954006.274461746 -37651107.719334126 0 0 0 -37651107.719334126 0 0 0 -69923485.76447773 -37635102.11805582 0 0 0 -37635102.11805582 0 0 0 -69893761.076389313 -37619514.823393822 0 0 0 -37619514.823393822 0 0 0 -69864813.243445396 -37604335.838558674 0 0 0 -37604335.838558674 0 0 0 -69836623.700180054 -37589555.379590034 0 0 0 -37589555.379590034 0 0 0 -69809174.276381493 -37575163.872142315 0 0 0 -37575163.872142315 0 0 0 -69782447.191121101 -37561151.948233128 0 0 0 -37561151.948233128 0 0 0 -69756425.046717644 -37547510.443021774 0 0 0 -37547510.443021774 0 0 0 -69731090.822753906 -37534230.391573429 0 0 0 -37534230.391573429 0 0 0 -69706427.870065689 -37521303.025666714 0 0 0 -37521303.025666714 0 0 0 -69682419.904809952 -37508719.770570278 0 0 0 -37508719.770570278 0 0 0 -69659051.002487183 -37496472.241858482 0 0 0 -37496472.241858482 0 0 0 -69636305.592022896 -37484552.242244244 0 0 0 -37484552.242244244 0 0 0 -69614168.449882507 -37472951.75841713 0 0 0 -37472951.75841713 0 0 0 -69592624.694203377 -37461662.957903862 0 0 0 -37461662.957903862 0 0 0 -69571659.778964996 -37450678.18597126 0 0 0 -37450678.18597126 0 0 0 -69551259.488232613 -37439989.962522984 0 0 0 -37439989.962522984 0 0 0 -69531409.930398941 -37429590.979040623 0 0 0 -37429590.979040623 0 0 0 -69512097.532503128 -37419474.095543385 0 0 0 -37419474.095543385 0 0 0 -69493309.034581184 -37409632.337582588 0 0 0 -37409632.337582588 0 0 0 -69475031.484082222 -37400058.893260002 0 0 0 -37400058.893260002 0 0 0 -69457252.230340004 -37390747.110278606 0 0 0 -37390747.110278606 0 0 0 -69439958.91908741 -37381690.493023396 0 0 0 -37381690.493023396 0 0 0 -69423139.487044334 -37372882.699688911 0 0 0 -37372882.699688911 0 0 0 -69406782.156564713 -37364317.5394063 0 0 0 -37364317.5394063 0 0 0 -69390875.430325508 -37355988.969455242 0 0 0 -37355988.969455242 0 0 0 -69375408.086130142 -37347891.092459679 0 0 0 -37347891.092459679 0 0 0 -69360369.171710014 -37340018.153659344 0 0 0 -37340018.153659344 0 0 0 -69345747.999653816 -37332364.538193703 0 0 0 -37332364.538193703 0 0 0 -69331534.142360687 -37324924.768436909 0 0 0 -37324924.768436909 0 0 0 -69317717.427098274 -37317693.501368046 0 0 0 -37317693.501368046 0 0 0 -69304287.931111336 -37310665.525969028 0 0 0 -37310665.525969028 0 0 0 -69291235.976799011 -37303835.760679722 0 0 0 -37303835.760679722 0 0 0 -69278552.126976013 -37297199.25088644 0 0 0 -37297199.25088644 0 0 0 -69266227.180217743 -37290751.166431904 0 0 0 -37290751.166431904 0 0 0 -69254252.166230202 -37284486.799191475 0 0 0 -37284486.799191475 0 0 0 -69242618.341356277 -37278401.560682297 0 0 0 -37278401.560682297 0 0 0 -69231317.184123993 -37272490.979696751 0 0 0 -37272490.979696751 0 0 0 -69220340.390865326 -37266750.699997425 0 0 0 -37266750.699997425 0 0 0 -69209679.871423721 -37261176.478038788 0 0 0 -37261176.478038788 0 0 0 -69199327.744929314 -37255764.180737495 0 0 0 -37255764.180737495 0 0 0 -69189276.335655212 -37250509.78328371 0 0 0 -37250509.78328371 0 0 0 -69179518.168955326 -37245409.366984367 0 0 0 -37245409.366984367 0 0 0 -69170045.9672575 -37240459.117155552 0 0 0 -37240459.117155552 0 0 0 -69160852.646146297 -37235655.321055889 0 0 0 -37235655.321055889 0 0 0 -69151931.310532093 -37230994.36585331 0 0 0 -37230994.36585331 0 0 0 -69143275.250869751 -37226472.736642361 0 0 0 -37226472.736642361 0 0 0 -69134877.939478874 -37222087.014493704 0 0 0 -37222087.014493704 0 0 0 -69126733.026917458 -37217833.874551058 0 0 0 -37217833.874551058 0 0 0 -69118834.338452339 -37213710.084159613 0 0 0 -37213710.084159613 0 0 0 -69111175.870582104 -37209712.50104332 0 0 0 -37209712.50104332 0 0 0 -69103751.787652016 -37205838.071517706 0 0 0 -37205838.071517706 0 0 0 -69096556.418532848 -37202083.828745842 0 0 0 -37202083.828745842 0 0 0 -69089584.253385067 -37198446.891024351 0 0 0 -37198446.891024351 0 0 0 -69082829.940473557 -37194924.460125685 0 0 0 -37194924.460125685 0 0 0 -69076288.283090591 -37191513.819662094 0 0 0 -37191513.819662094 0 0 0 -69069954.236515522 -37188212.333500624 0 0 0 -37188212.333500624 0 0 0 -69063822.905072689 -37185017.444209814 0 0 0 -37185017.444209814 0 0 0 -69057889.539246559 -37181926.671544075 0 0 0 -37181926.671544075 0 0 0 -69052149.532867432 -37178937.610978842 0 0 0 -37178937.610978842 0 0 0 -69046598.420389175 -37176047.932266712 0 0 0 -37176047.932266712 0 0 0 -69041231.874209881 -37173255.378038883 0 0 0 -37173255.378038883 0 0 0 -69036045.702072144 -37170557.762448788 0 0 0 -37170557.762448788 0 0 0 -69031035.844547749 -37167952.969841719 0 0 0 -37167952.969841719 0 0 0 -69026198.372562885 -37165438.953471899 0 0 0 -37165438.953471899 0 0 0 -69021529.485019207 -37163013.734248638 0 0 0 -37163013.734248638 0 0 0 -69017025.506462097 -37160675.39952445 0 0 0 -37160675.39952445 0 0 0 -69012682.884830952 -37158422.101912975 0 0 0 -37158422.101912975 0 0 0 -69008498.189266682 -37156252.058147669 0 0 0 -37156252.058147669 0 0 0 -69004468.107988834 -37154163.547976971 0 0 0 -37154163.547976971 0 0 0 -69000589.446243286 -37152154.913085938 0 0 0 -37152154.913085938 0 0 0 -68996859.124302864 -37150224.556064129 0 0 0 -37150224.556064129 0 0 0 -68993274.1755476 -37148370.939397573 0 0 0 -37148370.939397573 0 0 0 -68989831.744595528 -37146592.584505081 0 0 0 -37146592.584505081 0 0 0 -68986529.0855093 -37144888.070800781 0 0 0 -37144888.070800781 0 0 0 -68983363.560058832 -37143256.034794688 0 0 0 -37143256.034794688 0 0 0 -68980332.636047363 -37141695.169223785 0 0 0 -37141695.169223785 0 0 0 -68977433.885701418 -37140204.222219944 0 0 0 -37140204.222219944 0 0 0 -68974664.984122753 -37138781.996508598 0 0 0 -37138781.996508598 0 0 0 -68972023.70780158 -37137427.348640203 0 0 0 -37137427.348640203 0 0 0 -68969507.933188915 -37136139.188256502 0 0 0 -37136139.188256502 0 0 0 -68967115.635333538 -37134916.477386594 0 0 0 -37134916.477386594 0 0 0 -68964844.886575222 -37133758.229774833 0 0 0 -37133758.229774833 0 0 0 -68962693.855295897 -37132663.510245085 0 0 0 -37132663.510245085 0 0 0 -68960660.804740906 -37131631.43409133 0 0 0 -37131631.43409133 0 0 0 -68958744.091883898 -37130661.166502833 0 0 0 -37130661.166502833 0 0 0 -68956942.166362286 -37129751.922021389 0 0 0 -37129751.922021389 0 0 0 -68955253.56946826 -37128902.964027405 0 0 0 -37128902.964027405 0 0 0 -68953676.933193803 -37128113.60425812 0 0 0 -37128113.60425812 0 0 0 -68952210.9793365 -37127383.202356815 0 0 0 -37127383.202356815 0 0 0 -68950854.518662572 -37126711.165453553 0 0 0 -37126711.165453553 0 0 0 -68949606.450128078 -37126096.947775066 0 0 0 -37126096.947775066 0 0 0 -68948465.760153651 -37125540.05028522 0 0 0 -37125540.05028522 0 0 0 -68947431.521958351 -37125040.020357609 0 0 0 -37125040.020357609 0 0 0 -68946502.894949913 -37124596.451476932 0 0 0 -37124596.451476932 0 0 0 -68945679.124171376 -37124208.98296982 0 0 0 -37124208.98296982 0 0 0 -68944959.539801121 -37123877.299767286 0 0 0 -37123877.299767286 0 0 0 -68944343.55671072 -37123601.132196456 0 0 0 -37123601.132196456 0 0 0 -68943830.67407912 -37123380.255801886 0 0 0 -37123380.255801886 0 0 0 -68943420.475060642 -37123214.491197646 0 0 0 -37123214.491197646 0 0 0 -68943112.626509935 -37123103.703947991 0 0 0 -37123103.703947991 0 0 0 -68942906.878760576 -37123047.804478586 0 0 0 -37123047.804478586 0 0 0 -68942803.06546022 
</DataArray>
</CellData>
</Piece>
</UnstructuredGrid>
</VTKFile>
