<?xml version="1.0"?>
<VTKFile type="UnstructuredGrid" version="0.1" byte_order="LittleEndian">
<UnstructuredGrid>
<Piece NumberOfPoints="500" NumberOfCells="250">
<Points>
<DataArray type="Float64" NumberOfComponents="3" format="ascii">
0 0 0 0 0 -0.00099999999999810158 0 0 -0.00099999999999810158 0 0 -0.001999999999996204 0 0 -0.001999999999996204 0 0 -0.0029999999999943271 0 0 -0.0029999999999943271 0 0 -0.0039999999999924488 0 0 -0.0039999999999924488 0 0 -0.004999999999990571 0 0 -0.004999999999990571 0 0 -0.0059999999999886811 0 0 -0.0059999999999886811 0 0 -0.0069999999999867156 0 0 -0.0069999999999867156 0 0 -0.007999999999984719 0 0 -0.007999999999984719 0 0 -0.008999999999982581 0 0 -0.008999999999982581 0 0 -0.0099999999999804221 0 0 -0.0099999999999804221 0 0 -0.010999999999978201 0 0 -0.010999999999978201 0 0 -0.011999999999975971 0 0 -0.011999999999975971 0 0 -0.01299999999997375 0 0 -0.01299999999997375 0 0 -0.01399999999997158 0 0 -0.01399999999997158 0 0 -0.014999999999969531 0 0 -0.014999999999969531 0 0 -0.01599999999996761 0 0 -0.01599999999996761 0 0 -0.0169999999999659 0 0 -0.0169999999999659 0 0 -0.01799999999996427 0 0 -0.01799999999996427 0 0 -0.018999999999962731 0 0 -0.018999999999962731 0 0 -0.019999999999961209 0 0 -0.019999999999961209 0 0 -0.020999999999959669 0 0 -0.020999999999959669 0 0 -0.02199999999995814 0 0 -0.02199999999995814 0 0 -0.022999999999956611 0 0 -0.022999999999956611 0 0 -0.023999999999955082 0 0 -0.023999999999955082 0 0 -0.024999999999953549 0 0 -0.024999999999953549 0 0 -0.02599999999995202 0 0 -0.02599999999995202 0 0 -0.02699999999995048 0 0 -0.02699999999995048 0 0 -0.027999999999948951 0 0 -0.027999999999948951 0 0 -0.028999999999947419 0 0 -0.028999999999947419 0 0 -0.02999999999994565 0 0 -0.02999999999994565 0 0 -0.03099999999994377 0 0 -0.03099999999994377 0 0 -0.031999999999941367 0 0 -0.031999999999941367 0 0 -0.032999999999938787 0 0 -0.032999999999938787 0 0 -0.033999999999935943 0 0 -0.033999999999935943 0 0 -0.034999999999933022 0 0 -0.034999999999933022 0 0 -0.035999999999930102 0 0 -0.035999999999930102 0 0 -0.036999999999927188 0 0 -0.036999999999927188 0 0 -0.037999999999924268 0 0 -0.037999999999924268 0 0 -0.038999999999921348 0 0 -0.038999999999921348 0 0 -0.039999999999918427 0 0 -0.039999999999918427 0 0 -0.040999999999915507 0 0 -0.040999999999915507 0 0 -0.041999999999912593 0 0 -0.041999999999912593 0 0 -0.042999999999909673 0 0 -0.042999999999909673 0 0 -0.043999999999906753 0 0 -0.043999999999906753 0 0 -0.044999999999903832 0 0 -0.044999999999903832 0 0 -0.045999999999900919 0 0 -0.045999999999900919 0 0 -0.046999999999897998 0 0 -0.046999999999897998 0 0 -0.047999999999895078 0 0 -0.047999999999895078 0 0 -0.048999999999892158 0 0 -0.048999999999892158 0 0 -0.049999999999889237 0 0 -0.049999999999889237 0 0 -0.050999999999886317 0 0 -0.050999999999886317 0 0 -0.051999999999883403 0 0 -0.051999999999883403 0 0 -0.052999999999880483 0 0 -0.052999999999880483 0 0 -0.053999999999877563 0 0 -0.053999999999877563 0 0 -0.054999999999874642 0 0 -0.054999999999874642 0 0 -0.055999999999871722 0 0 -0.055999999999871722 0 0 -0.056999999999868801 0 0 -0.056999999999868801 0 0 -0.057999999999865881 0 0 -0.057999999999865881 0 0 -0.058999999999862961 0 0 -0.058999999999862961 0 0 -0.059999999999860047 0 0 -0.059999999999860047 0 0 -0.060999999999857127 0 0 -0.060999999999857127 0 0 -0.061999999999854213 0 0 -0.061999999999854213 0 0 -0.062999999999851286 0 0 -0.062999999999851286 0 0 -0.063999999999848373 0 0 -0.063999999999848373 0 0 -0.064999999999845445 0 0 -0.064999999999845445 0 0 -0.065999999999842532 0 0 -0.065999999999842532 0 0 -0.066999999999839618 0 0 -0.066999999999839618 0 0 -0.067999999999836705 0 0 -0.067999999999836705 0 0 -0.068999999999833792 0 0 -0.068999999999833792 0 0 -0.069999999999830878 0 0 -0.069999999999830878 0 0 -0.070999999999827965 0 0 -0.070999999999827965 0 0 -0.071999999999825051 0 0 -0.071999999999825051 0 0 -0.072999999999822124 0 0 -0.072999999999822124 0 0 -0.07399999999981921 0 0 -0.07399999999981921 0 0 -0.074999999999816297 0 0 -0.074999999999816297 0 0 -0.075999999999813383 0 0 -0.075999999999813383 0 0 -0.07699999999981047 0 0 -0.07699999999981047 0 0 -0.077999999999807557 0 0 -0.077999999999807557 0 0 -0.078999999999804643 0 0 -0.078999999999804643 0 0 -0.07999999999980173 0 0 -0.07999999999980173 0 0 -0.080999999999798802 0 0 -0.080999999999798802 0 0 -0.081999999999795889 0 0 -0.081999999999795889 0 0 -0.082999999999792975 0 0 -0.082999999999792975 0 0 -0.083999999999790062 0 0 -0.083999999999790062 0 0 -0.084999999999787149 0 0 -0.084999999999787149 0 0 -0.085999999999784235 0 0 -0.085999999999784235 0 0 -0.086999999999781322 0 0 -0.086999999999781322 0 0 -0.087999999999778394 0 0 -0.087999999999778394 0 0 -0.088999999999775481 0 0 -0.088999999999775481 0 0 -0.089999999999772567 0 0 -0.089999999999772567 0 0 -0.090999999999769654 0 0 -0.090999999999769654 0 0 -0.091999999999766741 0 0 -0.091999999999766741 0 0 -0.092999999999763827 0 0 -0.092999999999763827 0 0 -0.093999999999760914 0 0 -0.093999999999760914 0 0 -0.094999999999758 0 0 -0.094999999999758 0 0 -0.095999999999755073 0 0 -0.095999999999755073 0 0 -0.096999999999752159 0 0 -0.096999999999752159 0 0 -0.097999999999749246 0 0 -0.097999999999749246 0 0 -0.098999999999746333 0 0 -0.098999999999746333 0 0 -0.099999999999743419 0 0 -0.099999999999743419 0 0 -0.10099999999974051 0 0 -0.10099999999974051 0 0 -0.10199999999973761 0 0 -0.10199999999973761 0 0 -0.10299999999973471 0 0 -0.10299999999973471 0 0 -0.10399999999973179 0 0 -0.10399999999973179 0 0 -0.1049999999997288 0 0 -0.1049999999997288 0 0 -0.1059999999997259 0 0 -0.1059999999997259 0 0 -0.106999999999723 0 0 -0.106999999999723 0 0 -0.1079999999997201 0 0 -0.1079999999997201 0 0 -0.1089999999997172 0 0 -0.1089999999997172 0 0 -0.1099999999997143 0 0 -0.1099999999997143 0 0 -0.1109999999997113 0 0 -0.1109999999997113 0 0 -0.1119999999997084 0 0 -0.1119999999997084 0 0 -0.1129999999997055 0 0 -0.1129999999997055 0 0 -0.1139999999997026 0 0 -0.1139999999997026 0 0 -0.1149999999996997 0 0 -0.1149999999996997 0 0 -0.1159999999996968 0 0 -0.1159999999996968 0 0 -0.11699999999969379 0 0 -0.11699999999969379 0 0 -0.11799999999969089 0 0 -0.11799999999969089 0 0 -0.11899999999968799 0 0 -0.11899999999968799 0 0 -0.11999999999968509 0 0 -0.11999999999968509 0 0 -0.1209999999996822 0 0 -0.1209999999996822 0 0 -0.1219999999996793 0 0 -0.1219999999996793 0 0 -0.1229999999996764 0 0 -0.1229999999996764 0 0 -0.1239999999996748 0 0 -0.1239999999996748 0 0 -0.12499999999967321 0 0 -0.12499999999967321 0 0 -0.12599999999967451 0 0 -0.12599999999967451 0 0 -0.12699999999967579 0 0 -0.12699999999967579 0 0 -0.1279999999996784 0 0 -0.1279999999996784 0 0 -0.12899999999968109 0 0 -0.12899999999968109 0 0 -0.1299999999996837 0 0 -0.1299999999996837 0 0 -0.13099999999968631 0 0 -0.13099999999968631 0 0 -0.13199999999968889 0 0 -0.13199999999968889 0 0 -0.13299999999969159 0 0 -0.13299999999969159 0 0 -0.1339999999996942 0 0 -0.1339999999996942 0 0 -0.13499999999969689 0 0 -0.13499999999969689 0 0 -0.1359999999996995 0 0 -0.1359999999996995 0 0 -0.13699999999970211 0 0 -0.13699999999970211 0 0 -0.1379999999997048 0 0 -0.1379999999997048 0 0 -0.13899999999970741 0 0 -0.13899999999970741 0 0 -0.13999999999971011 0 0 -0.13999999999971011 0 0 -0.14099999999971269 0 0 -0.14099999999971269 0 0 -0.1419999999997153 0 0 -0.1419999999997153 0 0 -0.14299999999971799 0 0 -0.14299999999971799 0 0 -0.1439999999997206 0 0 -0.1439999999997206 0 0 -0.14499999999972321 0 0 -0.14499999999972321 0 0 -0.14599999999972579 0 0 -0.14599999999972579 0 0 -0.14699999999972849 0 0 -0.14699999999972849 0 0 -0.1479999999997311 0 0 -0.1479999999997311 0 0 -0.14899999999973379 0 0 -0.14899999999973379 0 0 -0.1499999999997364 0 0 -0.1499999999997364 0 0 -0.15099999999973901 0 0 -0.15099999999973901 0 0 -0.1519999999997417 0 0 -0.1519999999997417 0 0 -0.15299999999974431 0 0 -0.15299999999974431 0 0 -0.15399999999974701 0 0 -0.15399999999974701 0 0 -0.15499999999974959 0 0 -0.15499999999974959 0 0 -0.1559999999997522 0 0 -0.1559999999997522 0 0 -0.15699999999975489 0 0 -0.15699999999975489 0 0 -0.1579999999997575 0 0 -0.1579999999997575 0 0 -0.15899999999976011 0 0 -0.15899999999976011 0 0 -0.1599999999997628 0 0 -0.1599999999997628 0 0 -0.16099999999976539 0 0 -0.16099999999976539 0 0 -0.161999999999768 0 0 -0.161999999999768 0 0 -0.16299999999977069 0 0 -0.16299999999977069 0 0 -0.1639999999997733 0 0 -0.1639999999997733 0 0 -0.16499999999977599 0 0 -0.16499999999977599 0 0 -0.1659999999997786 0 0 -0.1659999999997786 0 0 -0.16699999999978121 0 0 -0.16699999999978121 0 0 -0.16799999999978391 0 0 -0.16799999999978391 0 0 -0.16899999999978649 0 0 -0.16899999999978649 0 0 -0.1699999999997891 0 0 -0.1699999999997891 0 0 -0.17099999999979171 0 0 -0.17099999999979171 0 0 -0.1719999999997944 0 0 -0.1719999999997944 0 0 -0.17299999999979701 0 0 -0.17299999999979701 0 0 -0.1739999999997997 0 0 -0.1739999999997997 0 0 -0.17499999999980231 0 0 -0.17499999999980231 0 0 -0.17599999999980501 0 0 -0.17599999999980501 0 0 -0.17699999999980759 0 0 -0.17699999999980759 0 0 -0.1779999999998102 0 0 -0.1779999999998102 0 0 -0.17899999999981281 0 0 -0.17899999999981281 0 0 -0.1799999999998155 0 0 -0.1799999999998155 0 0 -0.18099999999981811 0 0 -0.18099999999981811 0 0 -0.18199999999982069 0 0 -0.18199999999982069 0 0 -0.18299999999982339 0 0 -0.18299999999982339 0 0 -0.183999999999826 0 0 -0.183999999999826 0 0 -0.18499999999982869 0 0 -0.18499999999982869 0 0 -0.1859999999998313 0 0 -0.1859999999998313 0 0 -0.18699999999983391 0 0 -0.18699999999983391 0 0 -0.1879999999998366 0 0 -0.1879999999998366 0 0 -0.18899999999983921 0 0 -0.18899999999983921 0 0 -0.18999999999984191 0 0 -0.18999999999984191 0 0 -0.19099999999984449 0 0 -0.19099999999984449 0 0 -0.1919999999998471 0 0 -0.1919999999998471 0 0 -0.19299999999984971 0 0 -0.19299999999984971 0 0 -0.1939999999998524 0 0 -0.1939999999998524 0 0 -0.19499999999985501 0 0 -0.19499999999985501 0 0 -0.1959999999998577 0 0 -0.1959999999998577 0 0 -0.19699999999986029 0 0 -0.19699999999986029 0 0 -0.19799999999986301 0 0 -0.19799999999986301 0 0 -0.19899999999986559 0 0 -0.19899999999986559 0 0 -0.1999999999998682 0 0 -0.1999999999998682 0 0 -0.20099999999987081 0 0 -0.20099999999987081 0 0 -0.2019999999998735 0 0 -0.2019999999998735 0 0 -0.20299999999987611 0 0 -0.20299999999987611 0 0 -0.20399999999987881 0 0 -0.20399999999987881 0 0 -0.20499999999988139 0 0 -0.20499999999988139 0 0 -0.205999999999884 0 0 -0.205999999999884 0 0 -0.20699999999988669 0 0 -0.20699999999988669 0 0 -0.2079999999998893 0 0 -0.2079999999998893 0 0 -0.20899999999989191 0 0 -0.20899999999989191 0 0 -0.2099999999998946 0 0 -0.2099999999998946 0 0 -0.21099999999989719 0 0 -0.21099999999989719 0 0 -0.21199999999989991 0 0 -0.21199999999989991 0 0 -0.21299999999990249 0 0 -0.21299999999990249 0 0 -0.2139999999999051 0 0 -0.2139999999999051 0 0 -0.21499999999990771 0 0 -0.21499999999990771 0 0 -0.2159999999999104 0 0 -0.2159999999999104 0 0 -0.21699999999991301 0 0 -0.21699999999991301 0 0 -0.21799999999991571 0 0 -0.21799999999991571 0 0 -0.21899999999991829 0 0 -0.21899999999991829 0 0 -0.2199999999999209 0 0 -0.2199999999999209 0 0 -0.22099999999992359 0 0 -0.22099999999992359 0 0 -0.2219999999999262 0 0 -0.2219999999999262 0 0 -0.22299999999992881 0 0 -0.22299999999992881 0 0 -0.22399999999993139 0 0 -0.22399999999993139 0 0 -0.22499999999993411 0 0 -0.22499999999993411 0 0 -0.2259999999999367 0 0 -0.2259999999999367 0 0 -0.22699999999993939 0 0 -0.22699999999993939 0 0 -0.227999999999942 0 0 -0.227999999999942 0 0 -0.22899999999994469 0 0 -0.22899999999994469 0 0 -0.2299999999999473 0 0 -0.2299999999999473 0 0 -0.23099999999994991 0 0 -0.23099999999994991 0 0 -0.23199999999995249 0 0 -0.23199999999995249 0 0 -0.23299999999995519 0 0 -0.23299999999995519 0 0 -0.2339999999999578 0 0 -0.2339999999999578 0 0 -0.23499999999996049 0 0 -0.23499999999996049 0 0 -0.2359999999999631 0 0 -0.2359999999999631 0 0 -0.23699999999996571 0 0 -0.23699999999996571 0 0 -0.2379999999999684 0 0 -0.2379999999999684 0 0 -0.23899999999997101 0 0 -0.23899999999997101 0 0 -0.2399999999999736 0 0 -0.2399999999999736 0 0 -0.24099999999997629 0 0 -0.24099999999997629 0 0 -0.2419999999999789 0 0 -0.2419999999999789 0 0 -0.24299999999998159 0 0 -0.24299999999998159 0 0 -0.2439999999999842 0 0 -0.2439999999999842 0 0 -0.24499999999998681 0 0 -0.24499999999998681 0 0 -0.24599999999998939 0 0 -0.24599999999998939 0 0 -0.24699999999999209 0 0 -0.24699999999999209 0 0 -0.2479999999999947 0 0 -0.2479999999999947 0 0 -0.24899999999999739 0 0 -0.24899999999999739 0 0 -0.25 
</DataArray>
</Points>
<Cells>
<DataArray type="UInt32" Name="connectivity" format="ascii">
0 1 2 3 4 5 6 7 8 9 10 11 12 13 14 15 16 17 18 19 20 21 22 23 24 25 26 27 28 29 30 31 32 33 34 35 36 37 38 39 40 41 42 43 44 45 46 47 48 49 50 51 52 53 54 55 56 57 58 59 60 61 62 63 64 65 66 67 68 69 70 71 72 73 74 75 76 77 78 79 80 81 82 83 84 85 86 87 88 89 90 91 92 93 94 95 96 97 98 99 100 101 102 103 104 105 106 107 108 109 110 111 112 113 114 115 116 117 118 119 120 121 122 123 124 125 126 127 128 129 130 131 132 133 134 135 136 137 138 139 140 141 142 143 144 145 146 147 148 149 150 151 152 153 154 155 156 157 158 159 160 161 162 163 164 165 166 167 168 169 170 171 172 173 174 175 176 177 178 179 180 181 182 183 184 185 186 187 188 189 190 191 192 193 194 195 196 197 198 199 200 201 202 203 204 205 206 207 208 209 210 211 212 213 214 215 216 217 218 219 220 221 222 223 224 225 226 227 228 229 230 231 232 233 234 235 236 237 238 239 240 241 242 243 244 245 246 247 248 249 250 251 252 253 254 255 256 257 258 259 260 261 262 263 264 265 266 267 268 269 270 271 272 273 274 275 276 277 278 279 280 281 282 283 284 285 286 287 288 289 290 291 292 293 294 295 296 297 298 299 300 301 302 303 304 305 306 307 308 309 310 311 312 313 314 315 316 317 318 319 320 321 322 323 324 325 326 327 328 329 330 331 332 333 334 335 336 337 338 339 340 341 342 343 344 345 346 347 348 349 350 351 352 353 354 355 356 357 358 359 360 361 362 363 364 365 366 367 368 369 370 371 372 373 374 375 376 377 378 379 380 381 382 383 384 385 386 387 388 389 390 391 392 393 394 395 396 397 398 399 400 401 402 403 404 405 406 407 408 409 410 411 412 413 414 415 416 417 418 419 420 421 422 423 424 425 426 427 428 429 430 431 432 433 434 435 436 437 438 439 440 441 442 443 444 445 446 447 448 449 450 451 452 453 454 455 456 457 458 459 460 461 462 463 464 465 466 467 468 469 470 471 472 473 474 475 476 477 478 479 480 481 482 483 484 485 486 487 488 489 490 491 492 493 494 495 496 497 498 499 
</DataArray>
<DataArray type="UInt32" Name="offsets" format="ascii">
2 4 6 8 10 12 14 16 18 20 22 24 26 28 30 32 34 36 38 40 42 44 46 48 50 52 54 56 58 60 62 64 66 68 70 72 74 76 78 80 82 84 86 88 90 92 94 96 98 100 102 104 106 108 110 112 114 116 118 120 122 124 126 128 130 132 134 136 138 140 142 144 146 148 150 152 154 156 158 160 162 164 166 168 170 172 174 176 178 180 182 184 186 188 190 192 194 196 198 200 202 204 206 208 210 212 214 216 218 220 222 224 226 228 230 232 234 236 238 240 242 244 246 248 250 252 254 256 258 260 262 264 266 268 270 272 274 276 278 280 282 284 286 288 290 292 294 296 298 300 302 304 306 308 310 312 314 316 318 320 322 324 326 328 330 332 334 336 338 340 342 344 346 348 350 352 354 356 358 360 362 364 366 368 370 372 374 376 378 380 382 384 386 388 390 392 394 396 398 400 402 404 406 408 410 412 414 416 418 420 422 424 426 428 430 432 434 436 438 440 442 444 446 448 450 452 454 456 458 460 462 464 466 468 470 472 474 476 478 480 482 484 486 488 490 492 494 496 498 500 
</DataArray>
<DataArray type="UInt32" Name="types" format="ascii">
3 3 3 3 3 3 3 3 3 3 3 3 3 3 3 3 3 3 3 3 3 3 3 3 3 3 3 3 3 3 3 3 3 3 3 3 3 3 3 3 3 3 3 3 3 3 3 3 3 3 3 3 3 3 3 3 3 3 3 3 3 3 3 3 3 3 3 3 3 3 3 3 3 3 3 3 3 3 3 3 3 3 3 3 3 3 3 3 3 3 3 3 3 3 3 3 3 3 3 3 3 3 3 3 3 3 3 3 3 3 3 3 3 3 3 3 3 3 3 3 3 3 3 3 3 3 3 3 3 3 3 3 3 3 3 3 3 3 3 3 3 3 3 3 3 3 3 3 3 3 3 3 3 3 3 3 3 3 3 3 3 3 3 3 3 3 3 3 3 3 3 3 3 3 3 3 3 3 3 3 3 3 3 3 3 3 3 3 3 3 3 3 3 3 3 3 3 3 3 3 3 3 3 3 3 3 3 3 3 3 3 3 3 3 3 3 3 3 3 3 3 3 3 3 3 3 3 3 3 3 3 3 3 3 3 3 3 3 3 3 3 3 3 3 3 3 3 3 3 3 
</DataArray>
</Cells>
<PointData Scalars="" Vectors="displacement," Tensors="">
<DataArray type="Float64" Name="displacement" NumberOfComponents="3" format="ascii">
0 0 -0.00046487491037888702 0 0 -0.0004625698060436708 0 0 -0.0004625698060436708 0 0 -0.00046026987741979163 0 0 -0.00046026987741979163 0 0 -0.00045797512380650249 0 0 -0.00045797512380650249 0 0 -0.00045568554403612978 0 0 -0.00045568554403612978 0 0 -0.00045340113647443031 0 0 -0.00045340113647443031 0 0 -0.00045112189902109137 0 0 -0.00045112189902109137 0 0 -0.00044884782911037182 0 0 -0.00044884782911037182 0 0 -0.00044657892371188594 0 0 -0.00044657892371188594 0 0 -0.00044431517933152839 0 0 -0.00044431517933152839 0 0 -0.00044205659201253852 0 0 -0.00044205659201253852 0 0 -0.00043980315733670882 0 0 -0.00043980315733670882 0 0 -0.00043755487042572693 0 0 -0.00043755487042572693 0 0 -0.00043531172594266061 0 0 -0.00043531172594266061 0 0 -0.00043307371809357881 0 0 -0.00043307371809357881 0 0 -0.00043084084062930893 0 0 -0.00043084084062930893 0 0 -0.00042861308684733081 0 0 -0.00042861308684733081 0 0 -0.00042639044959380361 0 0 -0.00042639044959380361 0 0 -0.00042417292126572745 0 0 -0.00042417292126572745 0 0 -0.00042196049381323529 0 0 -0.00042196049381323529 0 0 -0.00041975315874201533 0 0 -0.00041975315874201533 0 0 -0.00041755090711586413 0 0 -0.00041755090711586413 0 0 -0.00041535372955936483 0 0 -0.00041535372955936483 0 0 -0.00041316161626069281 0 0 -0.00041316161626069281 0 0 -0.00041097455697454449 0 0 -0.00041097455697454449 0 0 -0.00040879254102518938 0 0 -0.00040879254102518938 0 0 -0.00040661555730964161 0 0 -0.00040661555730964161 0 0 -0.00040444359430095073 0 0 -0.00040444359430095073 0 0 -0.00040227664005160885 0 0 -0.00040227664005160885 0 0 -0.0004001146821970724 0 0 -0.0004001146821970724 0 0 -0.00039795770795939792 0 0 -0.00039795770795939792 0 0 -0.00039580570415098442 0 0 -0.00039580570415098442 0 0 -0.00039365865717842915 0 0 -0.00039365865717842915 0 0 -0.00039151655304648438 0 0 -0.00039151655304648438 0 0 -0.00038937937736212129 0 0 -0.00038937937736212129 0 0 -0.00038724711533869423 0 0 -0.00038724711533869423 0 0 -0.00038511975180020359 0 0 -0.00038511975180020359 0 0 -0.00038299727118565536 0 0 -0.00038299727118565536 0 0 -0.00038087965755351471 0 0 -0.00038087965755351471 0 0 -0.00037876689458625094 0 0 -0.00037876689458625094 0 0 -0.00037665896559497115 0 0 -0.00037665896559497115 0 0 -0.00037455585352414106 0 0 -0.00037455585352414106 0 0 -0.00037245754095638833 0 0 -0.00037245754095638833 0 0 -0.0003703640101173877 0 0 -0.0003703640101173877 0 0 -0.00036827524288082395 0 0 -0.00036827524288082395 0 0 -0.00036619122077343109 0 0 -0.00036619122077343109 0 0 -0.00036411192498010366 0 0 -0.00036411192498010366 0 0 -0.00036203733634907837 0 0 -0.00036203733634907837 0 0 -0.00035996743539718298 0 0 -0.00035996743539718298 0 0 -0.00035790220231514977 0 0 -0.00035790220231514977 0 0 -0.00035584161697299052 0 0 -0.00035584161697299052 0 0 -0.00035378565892543018 0 0 -0.00035378565892543018 0 0 -0.00035173430741739664 0 0 -0.00035173430741739664 0 0 -0.00034968754138956323 0 0 -0.00034968754138956323 0 0 -0.00034764533948394171 0 0 -0.00034764533948394171 0 0 -0.00034560768004952277 0 0 -0.00034560768004952277 0 0 -0.00034357454114796035 0 0 -0.00034357454114796035 0 0 -0.00034154590055929831 0 0 -0.00034154590055929831 0 0 -0.00033952173578773512 0 0 -0.00033952173578773512 0 0 -0.00033750202406742481 0 0 -0.00033750202406742481 0 0 -0.00033548674236831062 0 0 -0.00033548674236831062 0 0 -0.00033347586740198912 0 0 -0.00033347586740198912 0 0 -0.000331469375627601 0 0 -0.000331469375627601 0 0 -0.00032946724325774685 0 0 -0.00032946724325774685 0 0 -0.00032746944626442449 0 0 -0.00032746944626442449 0 0 -0.00032547596038498495 0 0 -0.00032547596038498495 0 0 -0.00032348676112810472 0 0 -0.00032348676112810472 0 0 -0.00032150182377977082 0 0 -0.00032150182377977082 0 0 -0.00031952112340927707 0 0 -0.00031952112340927707 0 0 -0.00031754463487522716 0 0 -0.00031754463487522716 0 0 -0.00031557233283154403 0 0 -0.00031557233283154403 0 0 -0.00031360419173348048 0 0 -0.00031360419173348048 0 0 -0.00031164018584363081 0 0 -0.00031164018584363081 0 0 -0.00030968028923793856 0 0 -0.00030968028923793856 0 0 -0.0003077244758116995 0 0 -0.0003077244758116995 0 0 -0.00030577271928555652 0 0 -0.00030577271928555652 0 0 -0.00030382499321148393 0 0 -0.00030382499321148393 0 0 -0.00030188127097875885 0 0 -0.00030188127097875885 0 0 -0.00029994152581991703 0 0 -0.00029994152581991703 0 0 -0.00029800573081669124 0 0 -0.00029800573081669124 0 0 -0.00029607385890592912 0 0 -0.00029607385890592912 0 0 -0.00029414588288548878 0 0 -0.00029414588288548878 0 0 -0.00029222177542010926 0 0 -0.00029222177542010926 0 0 -0.00029030150904725441 0 0 -0.00029030150904725441 0 0 -0.00028838505618292696 0 0 -0.00028838505618292696 0 0 -0.00028647238912745136 0 0 -0.00028647238912745136 0 0 -0.00028456348007122311 0 0 -0.00028456348007122311 0 0 -0.00028265830110042229 0 0 -0.00028265830110042229 0 0 -0.00028075682420268945 0 0 -0.00028075682420268945 0 0 -0.00027885902127276221 0 0 -0.00027885902127276221 0 0 -0.00027696486411806973 0 0 -0.00027696486411806973 0 0 -0.00027507432446428366 0 0 -0.00027507432446428366 0 0 -0.00027318737396082404 0 0 -0.00027318737396082404 0 0 -0.00027130398418631808 0 0 -0.00027130398418631808 0 0 -0.00026942412665400942 0 0 -0.00026942412665400942 0 0 -0.00026754777281711762 0 0 -0.00026754777281711762 0 0 -0.00026567489407414488 0 0 -0.00026567489407414488 0 0 -0.00026380546177412869 0 0 -0.00026380546177412869 0 0 -0.00026193944722184001 0 0 -0.00026193944722184001 0 0 -0.00026007682168292296 0 0 -0.00026007682168292296 0 0 -0.00025821755638897784 0 0 -0.00025821755638897784 0 0 -0.00025636162254258262 0 0 -0.00025636162254258262 0 0 -0.00025450899132225489 0 0 -0.00025450899132225489 0 0 -0.00025265963388735018 0 0 -0.00025265963388735018 0 0 -0.00025081352138289721 0 0 -0.00025081352138289721 0 0 -0.00024897062494436768 0 0 -0.00024897062494436768 0 0 -0.00024713091570238032 0 0 -0.00024713091570238032 0 0 -0.00024529436478733772 0 0 -0.00024529436478733772 0 0 -0.00024346094333399501 0 0 -0.00024346094333399501 0 0 -0.00024163062248595878 0 0 -0.00024163062248595878 0 0 -0.00023980337340011597 0 0 -0.00023980337340011597 0 0 -0.00023797916725099225 0 0 -0.00023797916725099225 0 0 -0.00023615797523503671 0 0 -0.00023615797523503671 0 0 -0.00023433976857483585 0 0 -0.00023433976857483585 0 0 -0.00023252451852325242 0 0 -0.00023252451852325242 0 0 -0.00023071219636749041 0 0 -0.00023071219636749041 0 0 -0.00022890277343308479 0 0 -0.00022890277343308479 0 0 -0.00022709622108781587 0 0 -0.00022709622108781587 0 0 -0.00022529251074554705 0 0 -0.00022529251074554705 0 0 -0.00022349161386998699 0 0 -0.00022349161386998699 0 0 -0.00022169350197837214 0 0 -0.00022169350197837214 0 0 -0.0002198981466450735 0 0 -0.0002198981466450735 0 0 -0.0002181055195051244 0 0 -0.0002181055195051244 0 0 -0.00021631559225766982 0 0 -0.00021631559225766982 0 0 -0.00021452833666933454 0 0 -0.00021452833666933454 0 0 -0.00021274372457752156 0 0 -0.00021274372457752156 0 0 -0.00021096172789361153 0 0 -0.00021096172789361153 0 0 -0.00020918231860611334 0 0 -0.00020918231860611334 0 0 -0.00020740546878369778 0 0 -0.00020740546878369778 0 0 -0.00020563115057818285 0 0 -0.00020563115057818285 0 0 -0.00020385933622741952 0 0 -0.00020385933622741952 0 0 -0.00020208999805810545 0 0 -0.00020208999805810545 0 0 -0.00020032310848851792 0 0 -0.00020032310848851792 0 0 -0.00019855864003116546 0 0 -0.00019855864003116546 0 0 -0.00019679656529536071 0 0 -0.00019679656529536071 0 0 -0.00019503685698971129 0 0 -0.00019503685698971129 0 0 -0.00019327948792453303 0 0 -0.00019327948792453303 0 0 -0.00019152443101418169 0 0 -0.00019152443101418169 0 0 -0.00018977165927930615 0 0 -0.00018977165927930615 0 0 -0.00018802114584902252 0 0 -0.00018802114584902252 0 0 -0.00018627286396300749 0 0 -0.00018627286396300749 0 0 -0.0001845267869735151 0 0 -0.0001845267869735151 0 0 -0.00018278288834731258 0 0 -0.00018278288834731258 0 0 -0.00018104114166754031 0 0 -0.00018104114166754031 0 0 -0.00017930152063549265 0 0 -0.00017930152063549265 0 0 -0.00017756399907232074 0 0 -0.00017756399907232074 0 0 -0.00017582855092065951 0 0 -0.00017582855092065951 0 0 -0.00017409515024617686 0 0 -0.00017409515024617686 0 0 -0.00017236377123904797 0 0 -0.00017236377123904797 0 0 -0.00017063438821535179 0 0 -0.00017063438821535179 0 0 -0.00016890697561839464 0 0 -0.00016890697561839464 0 0 -0.00016718150801995699 0 0 -0.00016718150801995699 0 0 -0.00016545796012146715 0 0 -0.00016545796012146715 0 0 -0.00016373630675510173 0 0 -0.00016373630675510173 0 0 -0.00016201652288481096 0 0 -0.00016201652288481096 0 0 -0.00016029858360727401 0 0 -0.00016029858360727401 0 0 -0.0001585824641527802 0 0 -0.0001585824641527802 0 0 -0.00015686813988604066 0 0 -0.00015686813988604066 0 0 -0.00015515558630692884 0 0 -0.00015515558630692884 0 0 -0.00015344477905114966 0 0 -0.00015344477905114966 0 0 -0.00015173569389084131 0 0 -0.00015173569389084131 0 0 -0.00015002830673510779 0 0 -0.00015002830673510779 0 0 -0.00014832259363048217 0 0 -0.00014832259363048217 0 0 -0.00014661853076132473 0 0 -0.00014661853076132473 0 0 -0.00014491609445015346 0 0 -0.00014491609445015346 0 0 -0.00014321526115790805 0 0 -0.00014321526115790805 0 0 -0.00014151600748415057 0 0 -0.00014151600748415057 0 0 -0.00013981831016720019 0 0 -0.00013981831016720019 0 0 -0.00013812214608420538 0 0 -0.00013812214608420538 0 0 -0.00013642749225115339 0 0 -0.00013642749225115339 0 0 -0.00013473432582281652 0 0 -0.00013473432582281652 0 0 -0.00013304262409263886 0 0 -0.00013304262409263886 0 0 -0.00013135236449256108 0 0 -0.00013135236449256108 0 0 -0.00012966352459278726 0 0 -0.00012966352459278726 0 0 -0.00012797608210149056 0 0 -0.00012797608210149056 0 0 -0.00012629001486446368 0 0 -0.00012629001486446368 0 0 -0.00012460530086470938 0 0 -0.00012460530086470938 0 0 -0.00012292191822197712 0 0 -0.00012292191822197712 0 0 -0.00012123984519224189 0 0 -0.00012123984519224189 0 0 -0.00011955906016713009 0 0 -0.00011955906016713009 0 0 -0.00011787954167329034 0 0 -0.00011787954167329034 0 0 -0.00011620126837171234 0 0 -0.00011620126837171234 0 0 -0.00011452421905699171 0 0 -0.00011452421905699171 0 0 -0.00011284837265654511 0 0 -0.00011284837265654511 0 0 -0.00011117370822977456 0 0 -0.00011117370822977456 0 0 -0.00010950020496718067 0 0 -0.00010950020496718067 0 0 -0.0001078278421894288 0 0 -0.0001078278421894288 0 0 -0.00010615659934636554 0 0 -0.00010615659934636554 0 0 -0.000104486456015989 0 0 -0.000104486456015989 0 0 -0.00010281739190337289 0 0 -0.00010281739190337289 0 0 -0.00010114938683954339 0 0 -0.00010114938683954339 0 0 -9.9482420780313717e-05 0 0 -9.9482420780313717e-05 0 0 -9.7816473805072203e-05 0 0 -9.7816473805072203e-05 0 0 -9.6151526115529596e-05 0 0 -9.6151526115529596e-05 0 0 -9.4487558034422645e-05 0 0 -9.4487558034422645e-05 0 0 -9.2824550004177243e-05 0 0 -9.2824550004177243e-05 0 0 -9.1162482585529581e-05 0 0 -9.1162482585529581e-05 0 0 -8.9501336456109537e-05 0 0 -8.9501336456109537e-05 0 0 -8.7841092408982716e-05 0 0 -8.7841092408982716e-05 0 0 -8.6181731351157281e-05 0 0 -8.6181731351157281e-05 0 0 -8.452323430205015e-05 0 0 -8.452323430205015e-05 0 0 -8.2865582391919413e-05 0 0 -8.2865582391919413e-05 0 0 -8.1208756860259415e-05 0 0 -8.1208756860259415e-05 0 0 -7.9552739054162216e-05 0 0 -7.9552739054162216e-05 0 0 -7.7897510426642972e-05 0 0 -7.7897510426642972e-05 0 0 -7.62430525349345e-05 0 0 -7.62430525349345e-05 0 0 -7.4589347038746793e-05 0 0 -7.4589347038746793e-05 0 0 -7.2936375698496775e-05 0 0 -7.2936375698496775e-05 0 0 -7.1284120373506387e-05 0 0 -7.1284120373506387e-05 0 0 -6.9632563020169657e-05 0 0 -6.9632563020169657e-05 0 0 -6.798168569009147e-05 0 0 -6.798168569009147e-05 0 0 -6.6331470528197716e-05 0 0 -6.6331470528197716e-05 0 0 -6.4681899770815878e-05 0 0 -6.4681899770815878e-05 0 0 -6.3032955743731284e-05 0 0 -6.3032955743731284e-05 0 0 -6.1384620860213806e-05 0 0 -6.1384620860213806e-05 0 0 -5.973687761902146e-05 0 0 -5.973687761902146e-05 0 0 -5.808970860237762e-05 0 0 -5.808970860237762e-05 0 0 -5.6443096473925191e-05 0 0 -5.6443096473925191e-05 0 0 -5.4797023976655714e-05 0 0 -5.4797023976655714e-05 0 0 -5.3151473930817957e-05 0 0 -5.3151473930817957e-05 0 0 -5.1506429231802151e-05 0 0 -5.1506429231802151e-05 0 0 -4.986187284800499e-05 0 0 -4.986187284800499e-05 0 0 -4.8217787818673378e-05 0 0 -4.8217787818673378e-05 0 0 -4.6574157251727493e-05 0 0 -4.6574157251727493e-05 0 0 -4.4930964321566133e-05 0 0 -4.4930964321566133e-05 0 0 -4.3288192266852412e-05 0 0 -4.3288192266852412e-05 0 0 -4.1645824388283385e-05 0 0 -4.1645824388283385e-05 0 0 -4.0003844046340019e-05 0 0 -4.0003844046340019e-05 0 0 -3.8362234659023959e-05 0 0 -3.8362234659023959e-05 0 0 -3.6720979699575704e-05 0 0 -3.6720979699575704e-05 0 0 -3.5080062694180356e-05 0 0 -3.5080062694180356e-05 0 0 -3.3439467219656975e-05 0 0 -3.3439467219656975e-05 0 0 -3.1799176901135808e-05 0 0 -3.1799176901135808e-05 0 0 -3.0159175409721599e-05 0 0 -3.0159175409721599e-05 0 0 -2.8519446460145854e-05 0 0 -2.8519446460145854e-05 0 0 -2.6879973808405571e-05 0 0 -2.6879973808405571e-05 0 0 -2.5240741249393241e-05 0 0 -2.5240741249393241e-05 0 0 -2.3601732614514569e-05 0 0 -2.3601732614514569e-05 0 0 -2.1962931769297872e-05 0 0 -2.1962931769297872e-05 0 0 -2.0324322610994489e-05 0 0 -2.0324322610994489e-05 0 0 -1.8685889066169719e-05 0 0 -1.8685889066169719e-05 0 0 -1.7047615088287078e-05 0 0 -1.7047615088287078e-05 0 0 -1.5409484655285967e-05 0 0 -1.5409484655285967e-05 0 0 -1.3771481767151144e-05 0 0 -1.3771481767151144e-05 0 0 -1.2133590443478734e-05 0 0 -1.2133590443478734e-05 0 0 -1.0495794721035071e-05 0 0 -1.0495794721035071e-05 0 0 -8.8580786513126057e-06 0 0 -8.8580786513126057e-06 0 0 -7.2204262980809525e-06 0 0 -7.2204262980809525e-06 0 0 -5.5828217349360337e-06 0 0 -5.5828217349360337e-06 0 0 -3.9452490428447279e-06 0 0 -3.9452490428447279e-06 0 0 -2.3076923076898801e-06 
</DataArray>
</PointData>
<CellData Scalars="" Vectors="" Tensors="stress,">
<DataArray type="Float64" Name="stress" NumberOfComponents="9" format="ascii">
-53785767.821813583 0 0 0 -53785767.821813583 0 0 0 -99887854.526226044 -53665001.223949432 0 0 0 -53665001.223949432 0 0 0 -99663573.701618195 -53544250.976848602 0 0 0 -53544250.976848602 0 0 0 -99439323.242713928 -53423527.975463867 0 0 0 -53423527.975463867 0 0 0 -99215123.383003235 -53302843.106420517 0 0 0 -53302843.106420517 0 0 0 -98990994.340496063 -53182207.24467659 0 0 0 -53182207.24467659 0 0 0 -98766956.311542511 -53061631.250226974 0 0 0 -53061631.250226974 0 0 0 -98543029.464706421 -52941125.964776993 0 0 0 -52941125.964776993 0 0 0 -98319233.934585571 -52820702.208456039 0 0 0 -52820702.208456039 0 0 0 -98095589.815704346 -52700370.776544571 0 0 0 -52700370.776544571 0 0 0 -97872117.156440735 -52580142.436143875 0 0 0 -52580142.436143875 0 0 0 -97648835.952838898 -52460027.923027039 0 0 0 -52460027.923027039 0 0 0 -97425766.142765045 -52340037.938329697 0 0 0 -52340037.938329697 0 0 0 -97202927.599758148 -52220183.145353317 0 0 0 -52220183.145353317 0 0 0 -96980340.127090454 -52100474.166402817 0 0 0 -52100474.166402817 0 0 0 -96758023.451892853 -51980921.579589844 0 0 0 -51980921.579589844 0 0 0 -96535997.219238281 -51861535.915723801 0 0 0 -51861535.915723801 0 0 0 -96314280.986343384 -51742327.655193329 0 0 0 -51742327.655193329 0 0 0 -96092894.216789246 -51623307.224895477 0 0 0 -51623307.224895477 0 0 0 -95871856.274806976 -51504484.995210648 0 0 0 -51504484.995210648 0 0 0 -95651186.41967392 -51385871.276939392 0 0 0 -51385871.276939392 0 0 0 -95430903.800033569 -51267476.318395615 0 0 0 -51267476.318395615 0 0 0 -95211027.448448181 -51149310.302425385 0 0 0 -51149310.302425385 0 0 0 -94991576.275932312 -51031383.343538284 0 0 0 -51031383.343538284 0 0 0 -94772569.066570282 -50913705.485029221 0 0 0 -50913705.485029221 0 0 0 -94554024.472198486 -50796286.696191788 0 0 0 -50796286.696191788 0 0 0 -94335961.007217407 -50679136.869531631 0 0 0 -50679136.869531631 0 0 0 -94118397.043418884 -50562265.818054199 0 0 0 -50562265.818054199 0 0 0 -93901350.804958344 -50445683.272594452 0 0 0 -50445683.272594452 0 0 0 -93684840.363388062 -50329398.879161835 0 0 0 -50329398.879161835 0 0 0 -93468883.632724762 -50213422.196409225 0 0 0 -50213422.196409225 0 0 0 -93253498.364759445 -50097762.693077087 0 0 0 -50097762.693077087 0 0 0 -93038702.144285202 -49982429.745508194 0 0 0 -49982429.745508194 0 0 0 -92824512.384513855 -49867432.635280609 0 0 0 -49867432.635280609 0 0 0 -92610946.322664261 -49752780.546777725 0 0 0 -49752780.546777725 0 0 0 -92398021.015441895 -49638482.564926147 0 0 0 -49638482.564926147 0 0 0 -92185753.334863663 -49524547.672937393 0 0 0 -49524547.672937393 0 0 0 -91974159.964025497 -49410984.750091553 0 0 0 -49410984.750091553 0 0 0 -91763257.393030167 -49297802.569631577 0 0 0 -49297802.569631577 0 0 0 -91553061.915029526 -49185009.796672821 0 0 0 -49185009.796672821 0 0 0 -91343589.622390747 -49072614.986179352 0 0 0 -49072614.986179352 0 0 0 -91134856.40290451 -48960626.581039429 0 0 0 -48960626.581039429 0 0 0 -90926877.936216354 -48849052.91015625 0 0 0 -48849052.91015625 0 0 0 -90719669.690292358 -48737902.186630249 0 0 0 -48737902.186630249 0 0 0 -90513246.91802597 -48627182.505975723 0 0 0 -48627182.505975723 0 0 0 -90307624.65395546 -48516901.84444809 0 0 0 -48516901.84444809 0 0 0 -90102817.711118698 -48407068.057397842 0 0 0 -48407068.057397842 0 0 0 -89898840.678024292 -48297688.877699852 0 0 0 -48297688.877699852 0 0 0 -89695707.915729523 -48188771.91424942 0 0 0 -48188771.91424942 0 0 0 -89493433.55503273 -48080324.650522232 0 0 0 -48080324.650522232 0 0 0 -89292031.493829727 -47972354.443214417 0 0 0 -47972354.443214417 0 0 0 -89091515.394540787 -47864868.520921707 0 0 0 -47864868.520921707 0 0 0 -88891898.681713104 -47757873.982919693 0 0 0 -47757873.982919693 0 0 0 -88693194.539707184 -47651377.797974586 0 0 0 -47651377.797974586 0 0 0 -88495415.910524368 -47545386.803247452 0 0 0 -47545386.803247452 0 0 0 -88298575.491744995 -47439907.703261375 0 0 0 -47439907.703261375 0 0 0 -88102685.734628677 -47334947.068919182 0 0 0 -47334947.068919182 0 0 0 -87907758.842277527 -47230511.336612701 0 0 0 -47230511.336612701 0 0 0 -87713806.767995834 -47126606.807377815 0 0 0 -47126606.807377815 0 0 0 -87520841.213701248 -47023239.646134377 0 0 0 -47023239.646134377 0 0 0 -87328873.628536224 -46920415.880971909 0 0 0 -46920415.880971909 0 0 0 -87137915.207519531 -46818141.402525902 0 0 0 -46818141.402525902 0 0 0 -86947976.890405655 -46716421.963399887 0 0 0 -46716421.963399887 0 0 0 -86759069.360601425 -46615263.177658081 0 0 0 -46615263.177658081 0 0 0 -86571203.044219971 -46514670.520392418 0 0 0 -46514670.520392418 0 0 0 -86384388.109300613 -46414649.327340126 0 0 0 -46414649.327340126 0 0 0 -86198634.465061188 -46315204.794592857 0 0 0 -46315204.794592857 0 0 0 -86013951.761386871 -46216341.978322029 0 0 0 -46216341.978322029 0 0 0 -85830349.388313293 -46118065.794631958 0 0 0 -46118065.794631958 0 0 0 -85647836.475744247 -46020381.019407272 0 0 0 -46020381.019407272 0 0 0 -85466421.893184662 -45923292.288283348 0 0 0 -45923292.288283348 0 0 0 -85286114.249670029 -45826804.096626282 0 0 0 -45826804.096626282 0 0 0 -85106921.893732071 -45730920.799619675 0 0 0 -45730920.799619675 0 0 0 -84928852.913579941 -45635646.61237812 0 0 0 -45635646.61237812 0 0 0 -84751915.137271881 -45540985.610135078 0 0 0 -45540985.610135078 0 0 0 -84576116.133110046 -45446941.728492737 0 0 0 -45446941.728492737 0 0 0 -84401463.210056305 -45353518.763717651 0 0 0 -45353518.763717651 0 0 0 -84227963.418333054 -45260720.373106956 0 0 0 -45260720.373106956 0 0 0 -84055623.550056458 -45168550.075400352 0 0 0 -45168550.075400352 0 0 0 -83884450.140029907 -45077011.251247406 0 0 0 -45077011.251247406 0 0 0 -83714449.466602325 -44986107.143738747 0 0 0 -44986107.143738747 0 0 0 -83545627.552659988 -44895840.858986855 0 0 0 -44895840.858986855 0 0 0 -83377990.166688919 -44806215.366744041 0 0 0 -44806215.366744041 0 0 0 -83211542.823951721 -44717233.501103401 0 0 0 -44717233.501103401 0 0 0 -83046290.787765503 -44628897.961227417 0 0 0 -44628897.961227417 0 0 0 -82882239.070850372 -44541211.312122345 0 0 0 -44541211.312122345 0 0 0 -82719392.436798096 -44454175.985482216 0 0 0 -44454175.985482216 0 0 0 -82557755.401609421 -44367794.280562401 0 0 0 -44367794.280562401 0 0 0 -82397332.235330582 -44282068.365098 0 0 0 -44282068.365098 0 0 0 -82238126.963752747 -44197000.276286125 0 0 0 -44197000.276286125 0 0 0 -82080143.370246887 -44112591.921803474 0 0 0 -44112591.921803474 0 0 0 -81923384.997634888 -44028845.080852509 0 0 0 -44028845.080852509 0 0 0 -81767855.150154114 -43945761.405267715 0 0 0 -43945761.405267715 0 0 0 -81613556.895496368 -43863342.42066288 0 0 0 -43863342.42066288 0 0 0 -81460493.06694603 -43781589.527603149 0 0 0 -43781589.527603149 0 0 0 -81308666.265548706 -43700504.002824783 0 0 0 -43700504.002824783 0 0 0 -81158078.862388611 -43620087.000505447 0 0 0 -43620087.000505447 0 0 0 -81008733.000938416 -43540339.553529739 0 0 0 -43540339.553529739 0 0 0 -80860630.599411011 -43461262.574856758 0 0 0 -43461262.574856758 0 0 0 -80713773.353307724 -43382856.858846664 0 0 0 -43382856.858846664 0 0 0 -80568162.737855911 -43305123.082680702 0 0 0 -43305123.082680702 0 0 0 -80423800.010694504 -43228061.807772636 0 0 0 -43228061.807772636 0 0 0 -80280686.214435577 -43151673.481235504 0 0 0 -43151673.481235504 0 0 0 -80138822.17943573 -43075958.437360764 0 0 0 -43075958.437360764 0 0 0 -79998208.526527405 -43000916.899150848 0 0 0 -43000916.899150848 0 0 0 -79858845.669851303 -42926548.979828835 0 0 0 -42926548.979828835 0 0 0 -79720733.819683075 -42852854.684452057 0 0 0 -42852854.684452057 0 0 0 -79583872.98541069 -42779833.911454201 0 0 0 -42779833.911454201 0 0 0 -79448262.978412628 -42707486.454301834 0 0 0 -42707486.454301834 0 0 0 -79313903.41513443 -42635812.003123283 0 0 0 -42635812.003123283 0 0 0 -79180793.720085144 -42564810.146348 0 0 0 -42564810.146348 0 0 0 -79048933.128931046 -42494480.372419357 0 0 0 -42494480.372419357 0 0 0 -78918320.691635132 -42424822.071475983 0 0 0 -42424822.071475983 0 0 0 -78788955.275598526 -42355834.537069321 0 0 0 -42355834.537069321 0 0 0 -78660835.568843842 -42287516.967903137 0 0 0 -42287516.967903137 0 0 0 -78533960.083248138 -42219868.469587326 0 0 0 -42219868.469587326 0 0 0 -78408327.157804489 -42152888.056401253 0 0 0 -42152888.056401253 0 0 0 -78283934.961889267 -42086574.653060913 0 0 0 -42086574.653060913 0 0 0 -78160781.498542786 -42020927.096523285 0 0 0 -42020927.096523285 0 0 0 -78038864.60782814 -41955944.137802124 0 0 0 -41955944.137802124 0 0 0 -77918181.9702034 -41891624.443756104 0 0 0 -41891624.443756104 0 0 0 -77798731.109832764 -41827966.59893322 0 0 0 -41827966.59893322 0 0 0 -77680509.398019791 -41764969.107395172 0 0 0 -41764969.107395172 0 0 0 -77563514.056591034 -41702630.394556046 0 0 0 -41702630.394556046 0 0 0 -77447742.161317825 -41640948.809036255 0 0 0 -41640948.809036255 0 0 0 -77333190.645353317 -41579922.624512672 0 0 0 -41579922.624512672 0 0 0 -77219856.302667618 -41519550.041570663 0 0 0 -41519550.041570663 0 0 0 -77107735.791488647 -41459829.189587593 0 0 0 -41459829.189587593 0 0 0 -76996825.637807846 -41400758.128569603 0 0 0 -41400758.128569603 0 0 0 -76887122.238773346 -41342334.851036072 0 0 0 -41342334.851036072 0 0 0 -76778621.866210938 -41284557.283886909 0 0 0 -41284557.283886909 0 0 0 -76671320.67007637 -41227423.290268898 0 0 0 -41227423.290268898 0 0 0 -76565214.681928635 -41170930.6714468 0 0 0 -41170930.6714468 0 0 0 -76460299.818399429 -41115077.168669701 0 0 0 -41115077.168669701 0 0 0 -76356571.884672165 -41059860.465042114 0 0 0 -41059860.465042114 0 0 0 -76254026.577936172 -41005278.187386513 0 0 0 -41005278.187386513 0 0 0 -76152659.490859032 -40951327.908090591 0 0 0 -40951327.908090591 0 0 0 -76052466.11502552 -40898007.146986008 0 0 0 -40898007.146986008 0 0 0 -75953441.844402313 -40845313.373178482 0 0 0 -40845313.373178482 0 0 0 -75855581.978758812 -40793244.006907463 0 0 0 -40793244.006907463 0 0 0 -75758881.727113724 -40741796.421383858 0 0 0 -40741796.421383858 0 0 0 -75663336.21114254 -40690967.944619656 0 0 0 -40690967.944619656 0 0 0 -75568940.468579292 -40640755.861243725 0 0 0 -40640755.861243725 0 0 0 -75475689.456595421 -40591157.414339066 0 0 0 -40591157.414339066 0 0 0 -75383578.05520153 -40542169.807238579 0 0 0 -40542169.807238579 0 0 0 -75292601.070586205 -40493790.205324173 0 0 0 -40493790.205324173 0 0 0 -75202753.238459587 -40446015.737819672 0 0 0 -40446015.737819672 0 0 0 -75114029.227378845 -40398843.499568462 0 0 0 -40398843.499568462 0 0 0 -75026423.642056465 -40352270.552802563 0 0 0 -40352270.552802563 0 0 0 -74939931.026633263 -40306293.928894997 0 0 0 -40306293.928894997 0 0 0 -74854545.867947578 -40260910.630106449 0 0 0 -40260910.630106449 0 0 0 -74770262.598770142 -40216117.631320953 0 0 0 -40216117.631320953 0 0 0 -74687075.601025581 -40171911.881754875 0 0 0 -40171911.881754875 0 0 0 -74604979.208973885 -40128290.306676388 0 0 0 -40128290.306676388 0 0 0 -74523967.712399483 -40085249.809092045 0 0 0 -40085249.809092045 0 0 0 -74444035.359742165 -40042787.271417618 0 0 0 -40042787.271417618 0 0 0 -74365176.361205101 -40000899.55714798 0 0 0 -40000899.55714798 0 0 0 -74287384.891846657 -39959583.512505054 0 0 0 -39959583.512505054 0 0 0 -74210655.094652176 -39918835.968076706 0 0 0 -39918835.968076706 0 0 0 -74134981.083571434 -39878653.740420818 0 0 0 -39878653.740420818 0 0 0 -74060356.94649601 -39839033.633678913 0 0 0 -39839033.633678913 0 0 0 -73986776.748261452 -39799972.441160679 0 0 0 -39799972.441160679 0 0 0 -73914234.533584595 -39761466.946899891 0 0 0 -39761466.946899891 0 0 0 -73842724.329957008 -39723513.927226067 0 0 0 -39723513.927226067 0 0 0 -73772240.150562286 -39686110.152286053 0 0 0 -39686110.152286053 0 0 0 -73702775.997102737 -39649252.387570858 0 0 0 -39649252.387570858 0 0 0 -73634325.862631798 -39612937.395405293 0 0 0 -39612937.395405293 0 0 0 -73566883.734324455 -39577161.93643856 0 0 0 -39577161.93643856 0 0 0 -73500443.596243858 -39541922.771111012 0 0 0 -39541922.771111012 0 0 0 -73434999.432063103 -39507216.661090374 0 0 0 -39507216.661090374 0 0 0 -73370545.227739334 -39473040.370708942 0 0 0 -39473040.370708942 0 0 0 -73307074.9741745 -39439390.668375492 0 0 0 -39439390.668375492 0 0 0 -73244582.669840813 -39406264.327952862 0 0 0 -39406264.327952862 0 0 0 -73183062.32334137 -39373658.130150318 0 0 0 -39373658.130150318 0 0 0 -73122507.955993652 -39341568.863857746 0 0 0 -39341568.863857746 0 0 0 -73062913.604308128 -39309993.327494144 0 0 0 -39309993.327494144 0 0 0 -73004273.322488785 -39278928.330317974 0 0 0 -39278928.330317974 0 0 0 -72946581.184877396 -39248370.693719864 0 0 0 -39248370.693719864 0 0 0 -72889831.2883358 -39218317.252505779 0 0 0 -39218317.252505779 0 0 0 -72834017.754654884 -39188764.856155396 0 0 0 -39188764.856155396 0 0 0 -72779134.732859612 -39159710.370051384 0 0 0 -39159710.370051384 0 0 0 -72725176.40152359 -39131150.676713467 0 0 0 -39131150.676713467 0 0 0 -72672136.971039772 -39103082.676981926 0 0 0 -39103082.676981926 0 0 0 -72620010.685823441 -39075503.291210651 0 0 0 -39075503.291210651 0 0 0 -72568791.826534271 -39048409.460418701 0 0 0 -39048409.460418701 0 0 0 -72518474.712206841 -39021798.147441864 0 0 0 -39021798.147441864 0 0 0 -72469053.702391624 -38995666.338041306 0 0 0 -38995666.338041306 0 0 0 -72420523.19921875 -38970011.042014122 0 0 0 -38970011.042014122 0 0 0 -72372877.64945507 -38944829.29427433 0 0 0 -38944829.29427433 0 0 0 -72326111.546508789 -38920118.155916691 0 0 0 -38920118.155916691 0 0 0 -72280219.432415962 -38895874.715258598 0 0 0 -38895874.715258598 0 0 0 -72235195.899765968 -38872096.088867188 0 0 0 -38872096.088867188 0 0 0 -72191035.593610287 -38848779.422559738 0 0 0 -38848779.422559738 0 0 0 -72147733.213324547 -38825921.892391205 0 0 0 -38825921.892391205 0 0 0 -72105283.514440536 -38803520.70562458 0 0 0 -38803520.70562458 0 0 0 -72063681.310446262 -38781573.101674318 0 0 0 -38781573.101674318 0 0 0 -72022921.474538326 -38760076.353034258 0 0 0 -38760076.353034258 0 0 0 -71982998.94134903 -38739027.766186953 0 0 0 -38739027.766186953 0 0 0 -71943908.708632946 -38718424.682493448 0 0 0 -38718424.682493448 0 0 0 -71905645.838916302 -38698264.479065418 0 0 0 -38698264.479065418 0 0 0 -71868205.461121082 -38678544.569616079 0 0 0 -38678544.569616079 0 0 0 -71831582.772144794 -38659262.405295849 0 0 0 -38659262.405295849 0 0 0 -71795773.038406372 -38640415.475500345 0 0 0 -38640415.475500345 0 0 0 -71760771.59735775 -38622001.308678389 0 0 0 -38622001.308678389 0 0 0 -71726573.85897398 -38604017.473097801 0 0 0 -38604017.473097801 0 0 0 -71693175.307182312 -38586461.5776124 0 0 0 -38586461.5776124 0 0 0 -71660571.501280308 -38569331.272396564 0 0 0 -38569331.272396564 0 0 0 -71628758.077308178 -38552624.249675274 0 0 0 -38552624.249675274 0 0 0 -71597730.749396324 -38536338.244422913 0 0 0 -38536338.244422913 0 0 0 -71567485.311071873 -38520471.035053968 0 0 0 -38520471.035053968 0 0 0 -71538017.636528492 -38505020.444088221 0 0 0 -38505020.444088221 0 0 0 -71509323.68187809 -38489984.338804722 0 0 0 -38489984.338804722 0 0 0 -71481399.48635149 -38475360.631874323 0 0 0 -38475360.631874323 0 0 0 -71454241.173481464 -38461147.281974077 0 0 0 -38461147.281974077 0 0 0 -71427844.952237606 -38447342.294387579 0 0 0 -38447342.294387579 0 0 0 -71402207.118148804 -38433943.721585989 0 0 0 -38433943.721585989 0 0 0 -71377324.054374218 -38420949.663789749 0 0 0 -38420949.663789749 0 0 0 -71353192.232752323 -38408358.26951766 0 0 0 -38408358.26951766 0 0 0 -71329808.214818954 -38396167.736114979 0 0 0 -38396167.736114979 0 0 0 -71307168.652785301 -38384376.310268641 0 0 0 -38384376.310268641 0 0 0 -71285270.290498734 -38372982.28849721 0 0 0 -38372982.28849721 0 0 0 -71264109.964351654 -38361984.017637491 0 0 0 -38361984.017637491 0 0 0 -71243684.604183674 -38351379.895303726 0 0 0 -38351379.895303726 0 0 0 -71223991.234135866 -38341168.370332599 0 0 0 -38341168.370332599 0 0 0 -71205026.973474979 -38331347.943215847 0 0 0 -38331347.943215847 0 0 0 -71186789.037400723 -38321917.166511655 0 0 0 -38321917.166511655 0 0 0 -71169274.737807512 -38312874.645241976 0 0 0 -38312874.645241976 0 0 0 -71152481.484020948 -38304219.037274718 0 0 0 -38304219.037274718 0 0 0 -71136406.783510208 -38295949.053689361 0 0 0 -38295949.053689361 0 0 0 -71121048.242566109 -38288063.459124923 0 0 0 -38288063.459124923 0 0 0 -71106403.56694603 -38280561.072112322 0 0 0 -38280561.072112322 0 0 0 -71092470.562494278 -38273440.765395045 0 0 0 -38273440.765395045 0 0 0 -71079247.135733604 -38266701.466228485 0 0 0 -38266701.466228485 0 0 0 -71066731.294424295 -38260342.156667471 0 0 0 -38260342.156667471 0 0 0 -71054921.148097038 -38254361.873836875 0 0 0 -38254361.873836875 0 0 0 -71043814.908554316 -38248759.710187793 0 0 0 -38248759.710187793 0 0 0 -71033410.890348911 -38243534.813735962 0 0 0 -38243534.813735962 0 0 0 -71023707.511223793 -38238686.38828665 0 0 0 -38238686.38828665 0 0 0 -71014703.292532206 -38234213.693645835 0 0 0 -38234213.693645835 0 0 0 -71006396.859627962 -38230116.045812547 0 0 0 -38230116.045812547 0 0 0 -70998786.94222331 -38226392.817158639 0 0 0 -38226392.817158639 0 0 0 -70991872.374723196 -38223043.436592817 0 0 0 -38223043.436592817 0 0 0 -70985652.096529484 -38220067.389709592 0 0 0 -38220067.389709592 0 0 0 -70980125.152317882 -38217464.218923092 0 0 0 -38217464.218923092 0 0 0 -70975290.692285776 -38215233.523585767 0 0 0 -38215233.523585767 0 0 0 -70971147.972373545 -38213374.960092187 0 0 0 -38213374.960092187 0 0 0 -70967696.354456902 -38211888.241968989 0 0 0 -38211888.241968989 0 0 0 -70964935.306513846 -38210773.139948368 0 0 0 -38210773.139948368 0 0 0 -70962864.402761251 -38210029.482027546 0 0 0 -38210029.482027546 0 0 0 -70961483.323765457 -38209657.153513387 0 0 0 -38209657.153513387 0 0 0 -70960791.85652487 
</DataArray>
</CellData>
</Piece>
</UnstructuredGrid>
</VTKFile>
