<?xml version="1.0"?>
<VTKFile type="UnstructuredGrid" version="0.1" byte_order="LittleEndian">
<UnstructuredGrid>
<Piece NumberOfPoints="500" NumberOfCells="250">
<Points>
<DataArray type="Float64" NumberOfComponents="3" format="ascii">
0 0 0 0 0 -0.00099999999999810158 0 0 -0.00099999999999810158 0 0 -0.001999999999996204 0 0 -0.001999999999996204 0 0 -0.0029999999999943271 0 0 -0.0029999999999943271 0 0 -0.0039999999999924488 0 0 -0.0039999999999924488 0 0 -0.004999999999990571 0 0 -0.004999999999990571 0 0 -0.0059999999999886811 0 0 -0.0059999999999886811 0 0 -0.0069999999999867156 0 0 -0.0069999999999867156 0 0 -0.007999999999984719 0 0 -0.007999999999984719 0 0 -0.008999999999982581 0 0 -0.008999999999982581 0 0 -0.0099999999999804221 0 0 -0.0099999999999804221 0 0 -0.010999999999978201 0 0 -0.010999999999978201 0 0 -0.011999999999975971 0 0 -0.011999999999975971 0 0 -0.01299999999997375 0 0 -0.01299999999997375 0 0 -0.01399999999997158 0 0 -0.01399999999997158 0 0 -0.014999999999969531 0 0 -0.014999999999969531 0 0 -0.01599999999996761 0 0 -0.01599999999996761 0 0 -0.0169999999999659 0 0 -0.0169999999999659 0 0 -0.01799999999996427 0 0 -0.01799999999996427 0 0 -0.018999999999962731 0 0 -0.018999999999962731 0 0 -0.019999999999961209 0 0 -0.019999999999961209 0 0 -0.020999999999959669 0 0 -0.020999999999959669 0 0 -0.02199999999995814 0 0 -0.02199999999995814 0 0 -0.022999999999956611 0 0 -0.022999999999956611 0 0 -0.023999999999955082 0 0 -0.023999999999955082 0 0 -0.024999999999953549 0 0 -0.024999999999953549 0 0 -0.02599999999995202 0 0 -0.02599999999995202 0 0 -0.02699999999995048 0 0 -0.02699999999995048 0 0 -0.027999999999948951 0 0 -0.027999999999948951 0 0 -0.028999999999947419 0 0 -0.028999999999947419 0 0 -0.02999999999994565 0 0 -0.02999999999994565 0 0 -0.03099999999994377 0 0 -0.03099999999994377 0 0 -0.031999999999941367 0 0 -0.031999999999941367 0 0 -0.032999999999938787 0 0 -0.032999999999938787 0 0 -0.033999999999935943 0 0 -0.033999999999935943 0 0 -0.034999999999933022 0 0 -0.034999999999933022 0 0 -0.035999999999930102 0 0 -0.035999999999930102 0 0 -0.036999999999927188 0 0 -0.036999999999927188 0 0 -0.037999999999924268 0 0 -0.037999999999924268 0 0 -0.038999999999921348 0 0 -0.038999999999921348 0 0 -0.039999999999918427 0 0 -0.039999999999918427 0 0 -0.040999999999915507 0 0 -0.040999999999915507 0 0 -0.041999999999912593 0 0 -0.041999999999912593 0 0 -0.042999999999909673 0 0 -0.042999999999909673 0 0 -0.043999999999906753 0 0 -0.043999999999906753 0 0 -0.044999999999903832 0 0 -0.044999999999903832 0 0 -0.045999999999900919 0 0 -0.045999999999900919 0 0 -0.046999999999897998 0 0 -0.046999999999897998 0 0 -0.047999999999895078 0 0 -0.047999999999895078 0 0 -0.048999999999892158 0 0 -0.048999999999892158 0 0 -0.049999999999889237 0 0 -0.049999999999889237 0 0 -0.050999999999886317 0 0 -0.050999999999886317 0 0 -0.051999999999883403 0 0 -0.051999999999883403 0 0 -0.052999999999880483 0 0 -0.052999999999880483 0 0 -0.053999999999877563 0 0 -0.053999999999877563 0 0 -0.054999999999874642 0 0 -0.054999999999874642 0 0 -0.055999999999871722 0 0 -0.055999999999871722 0 0 -0.056999999999868801 0 0 -0.056999999999868801 0 0 -0.057999999999865881 0 0 -0.057999999999865881 0 0 -0.058999999999862961 0 0 -0.058999999999862961 0 0 -0.059999999999860047 0 0 -0.059999999999860047 0 0 -0.060999999999857127 0 0 -0.060999999999857127 0 0 -0.061999999999854213 0 0 -0.061999999999854213 0 0 -0.062999999999851286 0 0 -0.062999999999851286 0 0 -0.063999999999848373 0 0 -0.063999999999848373 0 0 -0.064999999999845445 0 0 -0.064999999999845445 0 0 -0.065999999999842532 0 0 -0.065999999999842532 0 0 -0.066999999999839618 0 0 -0.066999999999839618 0 0 -0.067999999999836705 0 0 -0.067999999999836705 0 0 -0.068999999999833792 0 0 -0.068999999999833792 0 0 -0.069999999999830878 0 0 -0.069999999999830878 0 0 -0.070999999999827965 0 0 -0.070999999999827965 0 0 -0.071999999999825051 0 0 -0.071999999999825051 0 0 -0.072999999999822124 0 0 -0.072999999999822124 0 0 -0.07399999999981921 0 0 -0.07399999999981921 0 0 -0.074999999999816297 0 0 -0.074999999999816297 0 0 -0.075999999999813383 0 0 -0.075999999999813383 0 0 -0.07699999999981047 0 0 -0.07699999999981047 0 0 -0.077999999999807557 0 0 -0.077999999999807557 0 0 -0.078999999999804643 0 0 -0.078999999999804643 0 0 -0.07999999999980173 0 0 -0.07999999999980173 0 0 -0.080999999999798802 0 0 -0.080999999999798802 0 0 -0.081999999999795889 0 0 -0.081999999999795889 0 0 -0.082999999999792975 0 0 -0.082999999999792975 0 0 -0.083999999999790062 0 0 -0.083999999999790062 0 0 -0.084999999999787149 0 0 -0.084999999999787149 0 0 -0.085999999999784235 0 0 -0.085999999999784235 0 0 -0.086999999999781322 0 0 -0.086999999999781322 0 0 -0.087999999999778394 0 0 -0.087999999999778394 0 0 -0.088999999999775481 0 0 -0.088999999999775481 0 0 -0.089999999999772567 0 0 -0.089999999999772567 0 0 -0.090999999999769654 0 0 -0.090999999999769654 0 0 -0.091999999999766741 0 0 -0.091999999999766741 0 0 -0.092999999999763827 0 0 -0.092999999999763827 0 0 -0.093999999999760914 0 0 -0.093999999999760914 0 0 -0.094999999999758 0 0 -0.094999999999758 0 0 -0.095999999999755073 0 0 -0.095999999999755073 0 0 -0.096999999999752159 0 0 -0.096999999999752159 0 0 -0.097999999999749246 0 0 -0.097999999999749246 0 0 -0.098999999999746333 0 0 -0.098999999999746333 0 0 -0.099999999999743419 0 0 -0.099999999999743419 0 0 -0.10099999999974051 0 0 -0.10099999999974051 0 0 -0.10199999999973761 0 0 -0.10199999999973761 0 0 -0.10299999999973471 0 0 -0.10299999999973471 0 0 -0.10399999999973179 0 0 -0.10399999999973179 0 0 -0.1049999999997288 0 0 -0.1049999999997288 0 0 -0.1059999999997259 0 0 -0.1059999999997259 0 0 -0.106999999999723 0 0 -0.106999999999723 0 0 -0.1079999999997201 0 0 -0.1079999999997201 0 0 -0.1089999999997172 0 0 -0.1089999999997172 0 0 -0.1099999999997143 0 0 -0.1099999999997143 0 0 -0.1109999999997113 0 0 -0.1109999999997113 0 0 -0.1119999999997084 0 0 -0.1119999999997084 0 0 -0.1129999999997055 0 0 -0.1129999999997055 0 0 -0.1139999999997026 0 0 -0.1139999999997026 0 0 -0.1149999999996997 0 0 -0.1149999999996997 0 0 -0.1159999999996968 0 0 -0.1159999999996968 0 0 -0.11699999999969379 0 0 -0.11699999999969379 0 0 -0.11799999999969089 0 0 -0.11799999999969089 0 0 -0.11899999999968799 0 0 -0.11899999999968799 0 0 -0.11999999999968509 0 0 -0.11999999999968509 0 0 -0.1209999999996822 0 0 -0.1209999999996822 0 0 -0.1219999999996793 0 0 -0.1219999999996793 0 0 -0.1229999999996764 0 0 -0.1229999999996764 0 0 -0.1239999999996748 0 0 -0.1239999999996748 0 0 -0.12499999999967321 0 0 -0.12499999999967321 0 0 -0.12599999999967451 0 0 -0.12599999999967451 0 0 -0.12699999999967579 0 0 -0.12699999999967579 0 0 -0.1279999999996784 0 0 -0.1279999999996784 0 0 -0.12899999999968109 0 0 -0.12899999999968109 0 0 -0.1299999999996837 0 0 -0.1299999999996837 0 0 -0.13099999999968631 0 0 -0.13099999999968631 0 0 -0.13199999999968889 0 0 -0.13199999999968889 0 0 -0.13299999999969159 0 0 -0.13299999999969159 0 0 -0.1339999999996942 0 0 -0.1339999999996942 0 0 -0.13499999999969689 0 0 -0.13499999999969689 0 0 -0.1359999999996995 0 0 -0.1359999999996995 0 0 -0.13699999999970211 0 0 -0.13699999999970211 0 0 -0.1379999999997048 0 0 -0.1379999999997048 0 0 -0.13899999999970741 0 0 -0.13899999999970741 0 0 -0.13999999999971011 0 0 -0.13999999999971011 0 0 -0.14099999999971269 0 0 -0.14099999999971269 0 0 -0.1419999999997153 0 0 -0.1419999999997153 0 0 -0.14299999999971799 0 0 -0.14299999999971799 0 0 -0.1439999999997206 0 0 -0.1439999999997206 0 0 -0.14499999999972321 0 0 -0.14499999999972321 0 0 -0.14599999999972579 0 0 -0.14599999999972579 0 0 -0.14699999999972849 0 0 -0.14699999999972849 0 0 -0.1479999999997311 0 0 -0.1479999999997311 0 0 -0.14899999999973379 0 0 -0.14899999999973379 0 0 -0.1499999999997364 0 0 -0.1499999999997364 0 0 -0.15099999999973901 0 0 -0.15099999999973901 0 0 -0.1519999999997417 0 0 -0.1519999999997417 0 0 -0.15299999999974431 0 0 -0.15299999999974431 0 0 -0.15399999999974701 0 0 -0.15399999999974701 0 0 -0.15499999999974959 0 0 -0.15499999999974959 0 0 -0.1559999999997522 0 0 -0.1559999999997522 0 0 -0.15699999999975489 0 0 -0.15699999999975489 0 0 -0.1579999999997575 0 0 -0.1579999999997575 0 0 -0.15899999999976011 0 0 -0.15899999999976011 0 0 -0.1599999999997628 0 0 -0.1599999999997628 0 0 -0.16099999999976539 0 0 -0.16099999999976539 0 0 -0.161999999999768 0 0 -0.161999999999768 0 0 -0.16299999999977069 0 0 -0.16299999999977069 0 0 -0.1639999999997733 0 0 -0.1639999999997733 0 0 -0.16499999999977599 0 0 -0.16499999999977599 0 0 -0.1659999999997786 0 0 -0.1659999999997786 0 0 -0.16699999999978121 0 0 -0.16699999999978121 0 0 -0.16799999999978391 0 0 -0.16799999999978391 0 0 -0.16899999999978649 0 0 -0.16899999999978649 0 0 -0.1699999999997891 0 0 -0.1699999999997891 0 0 -0.17099999999979171 0 0 -0.17099999999979171 0 0 -0.1719999999997944 0 0 -0.1719999999997944 0 0 -0.17299999999979701 0 0 -0.17299999999979701 0 0 -0.1739999999997997 0 0 -0.1739999999997997 0 0 -0.17499999999980231 0 0 -0.17499999999980231 0 0 -0.17599999999980501 0 0 -0.17599999999980501 0 0 -0.17699999999980759 0 0 -0.17699999999980759 0 0 -0.1779999999998102 0 0 -0.1779999999998102 0 0 -0.17899999999981281 0 0 -0.17899999999981281 0 0 -0.1799999999998155 0 0 -0.1799999999998155 0 0 -0.18099999999981811 0 0 -0.18099999999981811 0 0 -0.18199999999982069 0 0 -0.18199999999982069 0 0 -0.18299999999982339 0 0 -0.18299999999982339 0 0 -0.183999999999826 0 0 -0.183999999999826 0 0 -0.18499999999982869 0 0 -0.18499999999982869 0 0 -0.1859999999998313 0 0 -0.1859999999998313 0 0 -0.18699999999983391 0 0 -0.18699999999983391 0 0 -0.1879999999998366 0 0 -0.1879999999998366 0 0 -0.18899999999983921 0 0 -0.18899999999983921 0 0 -0.18999999999984191 0 0 -0.18999999999984191 0 0 -0.19099999999984449 0 0 -0.19099999999984449 0 0 -0.1919999999998471 0 0 -0.1919999999998471 0 0 -0.19299999999984971 0 0 -0.19299999999984971 0 0 -0.1939999999998524 0 0 -0.1939999999998524 0 0 -0.19499999999985501 0 0 -0.19499999999985501 0 0 -0.1959999999998577 0 0 -0.1959999999998577 0 0 -0.19699999999986029 0 0 -0.19699999999986029 0 0 -0.19799999999986301 0 0 -0.19799999999986301 0 0 -0.19899999999986559 0 0 -0.19899999999986559 0 0 -0.1999999999998682 0 0 -0.1999999999998682 0 0 -0.20099999999987081 0 0 -0.20099999999987081 0 0 -0.2019999999998735 0 0 -0.2019999999998735 0 0 -0.20299999999987611 0 0 -0.20299999999987611 0 0 -0.20399999999987881 0 0 -0.20399999999987881 0 0 -0.20499999999988139 0 0 -0.20499999999988139 0 0 -0.205999999999884 0 0 -0.205999999999884 0 0 -0.20699999999988669 0 0 -0.20699999999988669 0 0 -0.2079999999998893 0 0 -0.2079999999998893 0 0 -0.20899999999989191 0 0 -0.20899999999989191 0 0 -0.2099999999998946 0 0 -0.2099999999998946 0 0 -0.21099999999989719 0 0 -0.21099999999989719 0 0 -0.21199999999989991 0 0 -0.21199999999989991 0 0 -0.21299999999990249 0 0 -0.21299999999990249 0 0 -0.2139999999999051 0 0 -0.2139999999999051 0 0 -0.21499999999990771 0 0 -0.21499999999990771 0 0 -0.2159999999999104 0 0 -0.2159999999999104 0 0 -0.21699999999991301 0 0 -0.21699999999991301 0 0 -0.21799999999991571 0 0 -0.21799999999991571 0 0 -0.21899999999991829 0 0 -0.21899999999991829 0 0 -0.2199999999999209 0 0 -0.2199999999999209 0 0 -0.22099999999992359 0 0 -0.22099999999992359 0 0 -0.2219999999999262 0 0 -0.2219999999999262 0 0 -0.22299999999992881 0 0 -0.22299999999992881 0 0 -0.22399999999993139 0 0 -0.22399999999993139 0 0 -0.22499999999993411 0 0 -0.22499999999993411 0 0 -0.2259999999999367 0 0 -0.2259999999999367 0 0 -0.22699999999993939 0 0 -0.22699999999993939 0 0 -0.227999999999942 0 0 -0.227999999999942 0 0 -0.22899999999994469 0 0 -0.22899999999994469 0 0 -0.2299999999999473 0 0 -0.2299999999999473 0 0 -0.23099999999994991 0 0 -0.23099999999994991 0 0 -0.23199999999995249 0 0 -0.23199999999995249 0 0 -0.23299999999995519 0 0 -0.23299999999995519 0 0 -0.2339999999999578 0 0 -0.2339999999999578 0 0 -0.23499999999996049 0 0 -0.23499999999996049 0 0 -0.2359999999999631 0 0 -0.2359999999999631 0 0 -0.23699999999996571 0 0 -0.23699999999996571 0 0 -0.2379999999999684 0 0 -0.2379999999999684 0 0 -0.23899999999997101 0 0 -0.23899999999997101 0 0 -0.2399999999999736 0 0 -0.2399999999999736 0 0 -0.24099999999997629 0 0 -0.24099999999997629 0 0 -0.2419999999999789 0 0 -0.2419999999999789 0 0 -0.24299999999998159 0 0 -0.24299999999998159 0 0 -0.2439999999999842 0 0 -0.2439999999999842 0 0 -0.24499999999998681 0 0 -0.24499999999998681 0 0 -0.24599999999998939 0 0 -0.24599999999998939 0 0 -0.24699999999999209 0 0 -0.24699999999999209 0 0 -0.2479999999999947 0 0 -0.2479999999999947 0 0 -0.24899999999999739 0 0 -0.24899999999999739 0 0 -0.25 
</DataArray>
</Points>
<Cells>
<DataArray type="UInt32" Name="connectivity" format="ascii">
0 1 2 3 4 5 6 7 8 9 10 11 12 13 14 15 16 17 18 19 20 21 22 23 24 25 26 27 28 29 30 31 32 33 34 35 36 37 38 39 40 41 42 43 44 45 46 47 48 49 50 51 52 53 54 55 56 57 58 59 60 61 62 63 64 65 66 67 68 69 70 71 72 73 74 75 76 77 78 79 80 81 82 83 84 85 86 87 88 89 90 91 92 93 94 95 96 97 98 99 100 101 102 103 104 105 106 107 108 109 110 111 112 113 114 115 116 117 118 119 120 121 122 123 124 125 126 127 128 129 130 131 132 133 134 135 136 137 138 139 140 141 142 143 144 145 146 147 148 149 150 151 152 153 154 155 156 157 158 159 160 161 162 163 164 165 166 167 168 169 170 171 172 173 174 175 176 177 178 179 180 181 182 183 184 185 186 187 188 189 190 191 192 193 194 195 196 197 198 199 200 201 202 203 204 205 206 207 208 209 210 211 212 213 214 215 216 217 218 219 220 221 222 223 224 225 226 227 228 229 230 231 232 233 234 235 236 237 238 239 240 241 242 243 244 245 246 247 248 249 250 251 252 253 254 255 256 257 258 259 260 261 262 263 264 265 266 267 268 269 270 271 272 273 274 275 276 277 278 279 280 281 282 283 284 285 286 287 288 289 290 291 292 293 294 295 296 297 298 299 300 301 302 303 304 305 306 307 308 309 310 311 312 313 314 315 316 317 318 319 320 321 322 323 324 325 326 327 328 329 330 331 332 333 334 335 336 337 338 339 340 341 342 343 344 345 346 347 348 349 350 351 352 353 354 355 356 357 358 359 360 361 362 363 364 365 366 367 368 369 370 371 372 373 374 375 376 377 378 379 380 381 382 383 384 385 386 387 388 389 390 391 392 393 394 395 396 397 398 399 400 401 402 403 404 405 406 407 408 409 410 411 412 413 414 415 416 417 418 419 420 421 422 423 424 425 426 427 428 429 430 431 432 433 434 435 436 437 438 439 440 441 442 443 444 445 446 447 448 449 450 451 452 453 454 455 456 457 458 459 460 461 462 463 464 465 466 467 468 469 470 471 472 473 474 475 476 477 478 479 480 481 482 483 484 485 486 487 488 489 490 491 492 493 494 495 496 497 498 499 
</DataArray>
<DataArray type="UInt32" Name="offsets" format="ascii">
2 4 6 8 10 12 14 16 18 20 22 24 26 28 30 32 34 36 38 40 42 44 46 48 50 52 54 56 58 60 62 64 66 68 70 72 74 76 78 80 82 84 86 88 90 92 94 96 98 100 102 104 106 108 110 112 114 116 118 120 122 124 126 128 130 132 134 136 138 140 142 144 146 148 150 152 154 156 158 160 162 164 166 168 170 172 174 176 178 180 182 184 186 188 190 192 194 196 198 200 202 204 206 208 210 212 214 216 218 220 222 224 226 228 230 232 234 236 238 240 242 244 246 248 250 252 254 256 258 260 262 264 266 268 270 272 274 276 278 280 282 284 286 288 290 292 294 296 298 300 302 304 306 308 310 312 314 316 318 320 322 324 326 328 330 332 334 336 338 340 342 344 346 348 350 352 354 356 358 360 362 364 366 368 370 372 374 376 378 380 382 384 386 388 390 392 394 396 398 400 402 404 406 408 410 412 414 416 418 420 422 424 426 428 430 432 434 436 438 440 442 444 446 448 450 452 454 456 458 460 462 464 466 468 470 472 474 476 478 480 482 484 486 488 490 492 494 496 498 500 
</DataArray>
<DataArray type="UInt32" Name="types" format="ascii">
3 3 3 3 3 3 3 3 3 3 3 3 3 3 3 3 3 3 3 3 3 3 3 3 3 3 3 3 3 3 3 3 3 3 3 3 3 3 3 3 3 3 3 3 3 3 3 3 3 3 3 3 3 3 3 3 3 3 3 3 3 3 3 3 3 3 3 3 3 3 3 3 3 3 3 3 3 3 3 3 3 3 3 3 3 3 3 3 3 3 3 3 3 3 3 3 3 3 3 3 3 3 3 3 3 3 3 3 3 3 3 3 3 3 3 3 3 3 3 3 3 3 3 3 3 3 3 3 3 3 3 3 3 3 3 3 3 3 3 3 3 3 3 3 3 3 3 3 3 3 3 3 3 3 3 3 3 3 3 3 3 3 3 3 3 3 3 3 3 3 3 3 3 3 3 3 3 3 3 3 3 3 3 3 3 3 3 3 3 3 3 3 3 3 3 3 3 3 3 3 3 3 3 3 3 3 3 3 3 3 3 3 3 3 3 3 3 3 3 3 3 3 3 3 3 3 3 3 3 3 3 3 3 3 3 3 3 3 3 3 3 3 3 3 3 3 3 3 3 3 
</DataArray>
</Cells>
<PointData Scalars="" Vectors="displacement," Tensors="">
<DataArray type="Float64" Name="displacement" NumberOfComponents="3" format="ascii">
0 0 -0.00045692102853251581 0 0 -0.00045461631102665438 0 0 -0.00045461631102665438 0 0 -0.00045231754276010968 0 0 -0.00045231754276010968 0 0 -0.00045002472264003704 0 0 -0.00045002472264003704 0 0 -0.0004477378488455709 0 0 -0.0004477378488455709 0 0 -0.00044545691882863882 0 0 -0.00044545691882863882 0 0 -0.00044318192931509776 0 0 -0.00044318192931509776 0 0 -0.00044091287630619553 0 0 -0.00044091287630619553 0 0 -0.00043864975508035154 0 0 -0.00043864975508035154 0 0 -0.0004363925601952607 0 0 -0.0004363925601952607 0 0 -0.00043414128549031073 0 0 -0.00043414128549031073 0 0 -0.00043189592408932146 0 0 -0.00043189592408932146 0 0 -0.00042965646840359005 0 0 -0.00042965646840359005 0 0 -0.00042742291013525167 0 0 -0.00042742291013525167 0 0 -0.00042519524028094457 0 0 -0.00042519524028094457 0 0 -0.00042297344913577972 0 0 -0.00042297344913577972 0 0 -0.00042075752629761005 0 0 -0.00042075752629761005 0 0 -0.00041854746067159464 0 0 -0.00041854746067159464 0 0 -0.000416343240475056 0 0 -0.000416343240475056 0 0 -0.00041414485324262263 0 0 -0.00041414485324262263 0 0 -0.00041195228583165412 0 0 -0.00041195228583165412 0 0 -0.00040976552442794473 0 0 -0.00040976552442794473 0 0 -0.0004075845545516977 0 0 -0.0004075845545516977 0 0 -0.00040540936106376653 0 0 -0.00040540936106376653 0 0 -0.00040323992817215763 0 0 -0.00040323992817215763 0 0 -0.00040107623943878748 0 0 -0.00040107623943878748 0 0 -0.00039891827778648897 0 0 -0.00039891827778648897 0 0 -0.00039676602550626095 0 0 -0.00039676602550626095 0 0 -0.00039461946426475351 0 0 -0.00039461946426475351 0 0 -0.00039247857511198341 0 0 -0.00039247857511198341 0 0 -0.00039034333848927402 0 0 -0.00039034333848927402 0 0 -0.00038821373423740817 0 0 -0.00038821373423740817 0 0 -0.00038608974160499497 0 0 -0.00038608974160499497 0 0 -0.00038397133925703407 0 0 -0.00038397133925703407 0 0 -0.00038185850528367889 0 0 -0.00038185850528367889 0 0 -0.00037975121720918575 0 0 -0.00037975121720918575 0 0 -0.00037764945200104367 0 0 -0.00037764945200104367 0 0 -0.00037555318607927741 0 0 -0.00037555318607927741 0 0 -0.00037346239532591515 0 0 -0.00037346239532591515 0 0 -0.00037137705509461414 0 0 -0.00037137705509461414 0 0 -0.00036929714022043697 0 0 -0.00036929714022043697 0 0 -0.00036722262502976921 0 0 -0.00036722262502976921 0 0 -0.00036515348335037292 0 0 -0.00036515348335037292 0 0 -0.00036308968852156586 0 0 -0.00036308968852156586 0 0 -0.00036103121340452066 0 0 -0.00036103121340452066 0 0 -0.00035897803039267522 0 0 -0.00035897803039267522 0 0 -0.00035693011142224707 0 0 -0.00035693011142224707 0 0 -0.00035488742798284271 0 0 -0.00035488742798284271 0 0 -0.00035284995112815618 0 0 -0.00035284995112815618 0 0 -0.00035081765148674786 0 0 -0.00035081765148674786 0 0 -0.000348790499272896 0 0 -0.000348790499272896 0 0 -0.00034676846429751375 0 0 -0.00034676846429751375 0 0 -0.00034475151597912414 0 0 -0.00034475151597912414 0 0 -0.00034273962335488512 0 0 -0.00034273962335488512 0 0 -0.00034073275509165717 0 0 -0.00034073275509165717 0 0 -0.00033873087949710793 0 0 -0.00033873087949710793 0 0 -0.00033673396453084368 0 0 -0.00033673396453084368 0 0 -0.00033474197781556289 0 0 -0.00033474197781556289 0 0 -0.00033275488664822396 0 0 -0.00033275488664822396 0 0 -0.0003307726580112199 0 0 -0.0003307726580112199 0 0 -0.00032879525858355371 0 0 -0.00032879525858355371 0 0 -0.00032682265475200717 0 0 -0.00032682265475200717 0 0 -0.00032485481262229711 0 0 -0.00032485481262229711 0 0 -0.00032289169803021177 0 0 -0.00032289169803021177 0 0 -0.00032093327655272226 0 0 -0.00032093327655272226 0 0 -0.0003189795135190612 0 0 -0.0003189795135190612 0 0 -0.00031703037402176353 0 0 -0.00031703037402176353 0 0 -0.0003150858229276634 0 0 -0.0003150858229276634 0 0 -0.00031314582488884123 0 0 -0.00031314582488884123 0 0 -0.00031121034435351475 0 0 -0.00031121034435351475 0 0 -0.00030927934557686956 0 0 -0.00030927934557686956 0 0 -0.00030735279263182291 0 0 -0.00030735279263182291 0 0 -0.0003054306494197159 0 0 -0.0003054306494197159 0 0 -0.00030351287968092888 0 0 -0.00030351287968092888 0 0 -0.00030159944700541494 0 0 -0.00030159944700541494 0 0 -0.00029969031484314756 0 0 -0.00029969031484314756 0 0 -0.00029778544651447628 0 0 -0.00029778544651447628 0 0 -0.00029588480522038733 0 0 -0.00029588480522038733 0 0 -0.00029398835405266405 0 0 -0.00029398835405266405 0 0 -0.00029209605600394404 0 0 -0.00029209605600394404 0 0 -0.00029020787397766721 0 0 -0.00029020787397766721 0 0 -0.00028832377079791285 0 0 -0.00028832377079791285 0 0 -0.00028644370921912098 0 0 -0.00028644370921912098 0 0 -0.00028456765193569461 0 0 -0.00028456765193569461 0 0 -0.00028269556159147939 0 0 -0.00028269556159147939 0 0 -0.00028082740078911803 0 0 -0.00028082740078911803 0 0 -0.00027896313209927593 0 0 -0.00027896313209927593 0 0 -0.00027710271806973523 0 0 -0.00027710271806973523 0 0 -0.0002752461212343549 0 0 -0.0002752461212343549 0 0 -0.00027339330412189361 0 0 -0.00027339330412189361 0 0 -0.00027154422926469374 0 0 -0.00027154422926469374 0 0 -0.00026969885920722324 0 0 -0.00026969885920722324 0 0 -0.00026785715651447454 0 0 -0.00026785715651447454 0 0 -0.00026601908378021696 0 0 -0.00026601908378021696 0 0 -0.0002641846036351024 0 0 -0.0002641846036351024 0 0 -0.00026235367875462087 0 0 -0.00026235367875462087 0 0 -0.00026052627186690645 0 0 -0.00026052627186690645 0 0 -0.00025870234576038959 0 0 -0.00025870234576038959 0 0 -0.00025688186329129726 0 0 -0.00025688186329129726 0 0 -0.00025506478739099729 0 0 -0.00025506478739099729 0 0 -0.00025325108107318724 0 0 -0.00025325108107318724 0 0 -0.00025144070744092736 0 0 -0.00025144070744092736 0 0 -0.00024963362969351524 0 0 -0.00024963362969351524 0 0 -0.0002478298111332029 0 0 -0.0002478298111332029 0 0 -0.00024602921517175507 0 0 -0.00024602921517175507 0 0 -0.00024423180533684823 0 0 -0.00024423180533684823 0 0 -0.00024243754527831097 0 0 -0.00024243754527831097 0 0 -0.0002406463987742044 0 0 -0.0002406463987742044 0 0 -0.00023885832973674265 0 0 -0.00023885832973674265 0 0 -0.00023707330221805443 0 0 -0.00023707330221805443 0 0 -0.00023529128041578442 0 0 -0.00023529128041578442 0 0 -0.00023351222867853629 0 0 -0.00023351222867853629 0 0 -0.00023173611151115509 0 0 -0.00023173611151115509 0 0 -0.00022996289357985321 0 0 -0.00022996289357985321 0 0 -0.00022819253971717709 0 0 -0.00022819253971717709 0 0 -0.00022642501492681634 0 0 -0.00022642501492681634 0 0 -0.00022466028438825671 0 0 -0.00022466028438825671 0 0 -0.00022289831346127635 0 0 -0.00022289831346127635 0 0 -0.00022113906769028716 0 0 -0.00022113906769028716 0 0 -0.00021938251280852279 0 0 -0.00021938251280852279 0 0 -0.00021762861474207144 0 0 -0.00021762861474207144 0 0 -0.00021587733961375748 0 0 -0.00021587733961375748 0 0 -0.00021412865374687191 0 0 -0.00021412865374687191 0 0 -0.00021238252366875265 0 0 -0.00021238252366875265 0 0 -0.00021063891611421378 0 0 -0.00021063891611421378 0 0 -0.00020889779802883663 0 0 -0.00020889779802883663 0 0 -0.00020715913657209573 0 0 -0.00020715913657209573 0 0 -0.00020542289912036993 0 0 -0.00020542289912036993 0 0 -0.00020368905326977437 0 0 -0.00020368905326977437 0 0 -0.00020195756683888126 0 0 -0.00020195756683888126 0 0 -0.00020022840787128148 0 0 -0.00020022840787128148 0 0 -0.00019850154463801572 0 0 -0.00019850154463801572 0 0 -0.0001967769456398677 0 0 -0.0001967769456398677 0 0 -0.00019505457960952095 0 0 -0.00019505457960952095 0 0 -0.00019333441551358353 0 0 -0.00019333441551358353 0 0 -0.00019161642255447861 0 0 -0.00019161642255447861 0 0 -0.00018990057017220728 0 0 -0.00018990057017220728 0 0 -0.00018818682804598146 0 0 -0.00018818682804598146 0 0 -0.00018647516609573097 0 0 -0.00018647516609573097 0 0 -0.00018476555448348643 0 0 -0.00018476555448348643 0 0 -0.00018305796361463777 0 0 -0.00018305796361463777 0 0 -0.00018135236413907403 0 0 -0.00018135236413907403 0 0 -0.0001796487269522018 0 0 -0.0001796487269522018 0 0 -0.00017794702319584867 0 0 -0.00017794702319584867 0 0 -0.00017624722425905047 0 0 -0.00017624722425905047 0 0 -0.00017454930177872473 0 0 -0.00017454930177872473 0 0 -0.00017285322764023429 0 0 -0.00017285322764023429 0 0 -0.00017115897397783993 0 0 -0.00017115897397783993 0 0 -0.00016946651317504747 0 0 -0.00016946651317504747 0 0 -0.00016777581786484708 0 0 -0.00016777581786484708 0 0 -0.00016608686092985171 0 0 -0.00016608686092985171 0 0 -0.00016439961550233166 0 0 -0.00016439961550233166 0 0 -0.00016271405496415112 0 0 -0.00016271405496415112 0 0 -0.00016103015294660714 0 0 -0.00016103015294660714 0 0 -0.00015934788333017122 0 0 -0.00015934788333017122 0 0 -0.00015766722024413966 0 0 -0.00015766722024413966 0 0 -0.00015598813806618993 0 0 -0.00015598813806618993 0 0 -0.00015431061142184905 0 0 -0.00015431061142184905 0 0 -0.0001526346151838731 0 0 -0.0001526346151838731 0 0 -0.00015096012447154039 0 0 -0.00015096012447154039 0 0 -0.00014928711464986145 0 0 -0.00014928711464986145 0 0 -0.00014761556132870674 0 0 -0.00014761556132870674 0 0 -0.00014594544036185294 0 0 -0.00014594544036185294 0 0 -0.00014427672784595225 0 0 -0.00014427672784595225 0 0 -0.00014260940011942463 0 0 -0.00014260940011942463 0 0 -0.00014094343376127411 0 0 -0.00014094343376127411 0 0 -0.0001392788055898341 0 0 -0.0001392788055898341 0 0 -0.00013761549266143975 0 0 -0.00013761549266143975 0 0 -0.00013595347226903195 0 0 -0.00013595347226903195 0 0 -0.0001342927219406938 0 0 -0.0001342927219406938 0 0 -0.00013263321943811991 0 0 -0.00013263321943811991 0 0 -0.00013097494275502317 0 0 -0.00013097494275502317 0 0 -0.00012931787011547755 0 0 -0.00012931787011547755 0 0 -0.0001276619799722015 0 0 -0.0001276619799722015 0 0 -0.00012600725100478025 0 0 -0.00012600725100478025 0 0 -0.00012435366211783279 0 0 -0.00012435366211783279 0 0 -0.00012270119243912062 0 0 -0.00012270119243912062 0 0 -0.00012104982131760429 0 0 -0.00012104982131760429 0 0 -0.00011939952832144491 0 0 -0.00011939952832144491 0 0 -0.00011775029323595638 0 0 -0.00011775029323595638 0 0 -0.00011610209606150622 0 0 -0.00011610209606150622 0 0 -0.00011445491701136926 0 0 -0.00011445491701136926 0 0 -0.00011280873650953315 0 0 -0.00011280873650953315 0 0 -0.00011116353518845935 0 0 -0.00011116353518845935 0 0 -0.0001095192938868003 0 0 -0.0001095192938868003 0 0 -0.0001078759936470724 0 0 -0.0001078759936470724 0 0 -0.00010623361571328943 0 0 -0.00010623361571328943 0 0 -0.00010459214152855442 0 0 -0.00010459214152855442 0 0 -0.00010295155273261369 0 0 -0.00010295155273261369 0 0 -0.00010131183115937358 0 0 -0.00010131183115937358 0 0 -9.9672958834379384e-05 0 0 -9.9672958834379384e-05 0 0 -9.8034917972261549e-05 0 0 -9.8034917972261549e-05 0 0 -9.6397690974145691e-05 0 0 -9.6397690974145691e-05 0 0 -9.4761260425031769e-05 0 0 -9.4761260425031769e-05 0 0 -9.3125609091140535e-05 0 0 -9.3125609091140535e-05 0 0 -9.1490719917230518e-05 0 0 -9.1490719917230518e-05 0 0 -8.9856576023884097e-05 0 0 -8.9856576023884097e-05 0 0 -8.8223160704767187e-05 0 0 -8.8223160704767187e-05 0 0 -8.6590457423859528e-05 0 0 -8.6590457423859528e-05 0 0 -8.4958449812661289e-05 0 0 -8.4958449812661289e-05 0 0 -8.3327121667371284e-05 0 0 -8.3327121667371284e-05 0 0 -8.1696456946043353e-05 0 0 -8.1696456946043353e-05 0 0 -8.006643976571797e-05 0 0 -8.006643976571797e-05 0 0 -7.843705439953225e-05 0 0 -7.843705439953225e-05 0 0 -7.6808285273806707e-05 0 0 -7.6808285273806707e-05 0 0 -7.5180116965113371e-05 0 0 -7.5180116965113371e-05 0 0 -7.3552534197321743e-05 0 0 -7.3552534197321743e-05 0 0 -7.1925521838627377e-05 0 0 -7.1925521838627377e-05 0 0 -7.0299064898561337e-05 0 0 -7.0299064898561337e-05 0 0 -6.8673148524981415e-05 0 0 -6.8673148524981415e-05 0 0 -6.7047758001047465e-05 0 0 -6.7047758001047465e-05 0 0 -6.5422878742180541e-05 0 0 -6.5422878742180541e-05 0 0 -6.3798496293005025e-05 0 0 -6.3798496293005025e-05 0 0 -6.2174596324278725e-05 0 0 -6.2174596324278725e-05 0 0 -6.055116462980556e-05 0 0 -6.055116462980556e-05 0 0 -5.8928187123337403e-05 0 0 -5.8928187123337403e-05 0 0 -5.7305649835461423e-05 0 0 -5.7305649835461423e-05 0 0 -5.5683538910476278e-05 0 0 -5.5683538910476278e-05 0 0 -5.4061840603254867e-05 0 0 -5.4061840603254867e-05 0 0 -5.2440541276098052e-05 0 0 -5.2440541276098052e-05 0 0 -5.081962739557547e-05 0 0 -5.081962739557547e-05 0 0 -4.9199085529358031e-05 0 0 -4.9199085529358031e-05 0 0 -4.7578902343040149e-05 0 0 -4.7578902343040149e-05 0 0 -4.5959064596951952e-05 0 0 -4.5959064596951952e-05 0 0 -4.4339559142964131e-05 0 0 -4.4339559142964131e-05 0 0 -4.2720372921283363e-05 0 0 -4.2720372921283363e-05 0 0 -4.1101492957241513e-05 0 0 -4.1101492957241513e-05 0 0 -3.9482906358074828e-05 0 0 -3.9482906358074828e-05 0 0 -3.7864600309699257e-05 0 0 -3.7864600309699257e-05 0 0 -3.6246562073476275e-05 0 0 -3.6246562073476275e-05 0 0 -3.462877898297488e-05 0 0 -3.462877898297488e-05 0 0 -3.3011238440725754e-05 0 0 -3.3011238440725754e-05 0 0 -3.1393927914971344e-05 0 0 -3.1393927914971344e-05 0 0 -2.9776834936409759e-05 0 0 -2.9776834936409759e-05 0 0 -2.815994709493511e-05 0 0 -2.815994709493511e-05 0 0 -2.6543252036371357e-05 0 0 -2.6543252036371357e-05 0 0 -2.4926737459204141e-05 0 0 -2.4926737459204141e-05 0 0 -2.3310391111306762e-05 0 0 -2.3310391111306762e-05 0 0 -2.1694200786663747e-05 0 0 -2.1694200786663747e-05 0 0 -2.0078154322091117e-05 0 0 -2.0078154322091117e-05 0 0 -1.8462239593952395e-05 0 0 -1.8462239593952395e-05 0 0 -1.6846444514872828e-05 0 0 -1.6846444514872828e-05 0 0 -1.523075703045144e-05 0 0 -1.523075703045144e-05 0 0 -1.3615165115969016e-05 0 0 -1.3615165115969016e-05 0 0 -1.1999656773096298e-05 0 0 -1.1999656773096298e-05 0 0 -1.0384220026598272e-05 0 0 -1.0384220026598272e-05 0 0 -8.7688429210384239e-06 0 0 -8.7688429210384239e-06 0 0 -7.1535135174806006e-06 0 0 -7.1535135174806006e-06 0 0 -5.5382198901910294e-06 0 0 -5.5382198901910294e-06 0 0 -3.9229501233375028e-06 0 0 -3.9229501233375028e-06 0 0 -2.3076923076901549e-06 
</DataArray>
</PointData>
<CellData Scalars="" Vectors="" Tensors="stress,">
<DataArray type="Float64" Name="stress" NumberOfComponents="9" format="ascii">
-53776741.803535461 0 0 0 -53776741.803535461 0 0 0 -99871091.920852661 -53637926.2194767 0 0 0 -53637926.2194767 0 0 0 -99613291.550457001 -53499136.135129929 0 0 0 -53499136.135129929 0 0 0 -99355538.53666687 -53360388.537643433 0 0 0 -53360388.537643433 0 0 0 -99097864.427055359 -53221700.395181656 0 0 0 -53221700.395181656 0 0 0 -98840300.733905792 -53083088.649391174 0 0 0 -53083088.649391174 0 0 0 -98582878.92029953 -52944570.2078228 0 0 0 -52944570.2078228 0 0 0 -98325630.385955811 -52806161.93646431 0 0 0 -52806161.93646431 0 0 0 -98068586.45343399 -52667880.652231216 0 0 0 -52667880.652231216 0 0 0 -97811778.35414505 -52529743.11561203 0 0 0 -52529743.11561203 0 0 0 -97555237.214710236 -52391766.023199081 0 0 0 -52391766.023199081 0 0 0 -97298994.043087006 -52253966.000516891 0 0 0 -52253966.000516891 0 0 0 -97043079.715244293 -52116359.594676971 0 0 0 -52116359.594676971 0 0 0 -96787524.961547852 -51978963.267276764 0 0 0 -51978963.267276764 0 0 0 -96532360.353515625 -51841793.38728714 0 0 0 -51841793.38728714 0 0 0 -96277616.290676117 -51704866.224058151 0 0 0 -51704866.224058151 0 0 0 -96023322.987537384 -51568197.940448761 0 0 0 -51568197.940448761 0 0 0 -95769510.460830688 -51431804.585985184 0 0 0 -51431804.585985184 0 0 0 -95516208.516830444 -51295702.090190887 0 0 0 -51295702.090190887 0 0 0 -95263446.738925934 -51159906.256010056 0 0 0 -51159906.256010056 0 0 0 -95011254.475448608 -51024432.753295898 0 0 0 -51024432.753295898 0 0 0 -94759660.827552795 -50889297.112508774 0 0 0 -50889297.112508774 0 0 0 -94508694.637516022 -50754514.718471527 0 0 0 -50754514.718471527 0 0 0 -94258384.477161407 -50620100.804285049 0 0 0 -50620100.804285049 0 0 0 -94008758.636528015 -50486070.445381165 0 0 0 -50486070.445381165 0 0 0 -93759845.112850189 -50352438.55370903 0 0 0 -50352438.55370903 0 0 0 -93511671.599746704 -50219219.87206459 0 0 0 -50219219.87206459 0 0 0 -93264265.4766922 -50086428.968582153 0 0 0 -50086428.968582153 0 0 0 -93017653.798799515 -49954080.231380463 0 0 0 -49954080.231380463 0 0 0 -92771863.286846161 -49822187.863307953 0 0 0 -49822187.863307953 0 0 0 -92526920.317569733 -49690765.876962662 0 0 0 -49690765.876962662 0 0 0 -92282850.914360046 -49559828.089761734 0 0 0 -49559828.089761734 0 0 0 -92039680.738124847 -49429388.119215012 0 0 0 -49429388.119215012 0 0 0 -91797435.078540802 -49299459.378429413 0 0 0 -49299459.378429413 0 0 0 -91556138.845651627 -49170055.071649551 0 0 0 -49170055.071649551 0 0 0 -91315816.561635971 -49041188.190124512 0 0 0 -49041188.190124512 0 0 0 -91076492.353090286 -48912871.508022308 0 0 0 -48912871.508022308 0 0 0 -90838189.943470001 -48785117.578596115 0 0 0 -48785117.578596115 0 0 0 -90600932.645963669 -48657938.730499268 0 0 0 -48657938.730499268 0 0 0 -90364743.356639862 -48531347.064275742 0 0 0 -48531347.064275742 0 0 0 -90129644.547941208 -48405354.449055672 0 0 0 -48405354.449055672 0 0 0 -89895658.262533188 -48279972.519388199 0 0 0 -48279972.519388199 0 0 0 -89662806.107433319 -48155212.672305107 0 0 0 -48155212.672305107 0 0 0 -89431109.248567581 -48031086.064528465 0 0 0 -48031086.064528465 0 0 0 -89200588.40555191 -47907603.609867096 0 0 0 -47907603.609867096 0 0 0 -88971263.846895218 -47784775.97679615 0 0 0 -47784775.97679615 0 0 0 -88743155.385478973 -47662613.586240768 0 0 0 -47662613.586240768 0 0 0 -88516282.374448776 -47541126.609491348 0 0 0 -47541126.609491348 0 0 0 -88290663.70334053 -47420324.966332436 0 0 0 -47420324.966332436 0 0 0 -88066317.794616699 -47300218.323348045 0 0 0 -47300218.323348045 0 0 0 -87843262.600503922 -47180816.092391014 0 0 0 -47180816.092391014 0 0 0 -87621515.600152969 -47062127.429227829 0 0 0 -47062127.429227829 0 0 0 -87401093.797138214 -46944161.232380867 0 0 0 -46944161.232380867 0 0 0 -87182013.717279434 -46826926.142122269 0 0 0 -46826926.142122269 0 0 0 -86964291.406799316 -46710430.539618492 0 0 0 -46710430.539618492 0 0 0 -86747942.430719376 -46594682.546301842 0 0 0 -46594682.546301842 0 0 0 -86532981.871704102 -46479690.02335453 0 0 0 -46479690.02335453 0 0 0 -86319424.329086304 -46365460.571376801 0 0 0 -46365460.571376801 0 0 0 -86107283.918272018 -46252001.530229568 0 0 0 -46252001.530229568 0 0 0 -85896574.270425797 -46139319.979012489 0 0 0 -46139319.979012489 0 0 0 -85687308.532449722 -46027422.736221313 0 0 0 -46027422.736221313 0 0 0 -85479499.367267609 -45916316.360035896 0 0 0 -45916316.360035896 0 0 0 -85273158.954349518 -45806007.148792267 0 0 0 -45806007.148792267 0 0 0 -85068298.990613937 -45696501.141554832 0 0 0 -45696501.141554832 0 0 0 -84864930.691457748 -45587804.118891716 0 0 0 -45587804.118891716 0 0 0 -84663064.792226791 -45479921.603744507 0 0 0 -45479921.603744507 0 0 0 -84462711.549812317 -45372858.862468719 0 0 0 -45372858.862468719 0 0 0 -84263880.74458313 -45266620.905982971 0 0 0 -45266620.905982971 0 0 0 -84066581.682538986 -45161212.491082191 0 0 0 -45161212.491082191 0 0 0 -83870823.197725296 -45056638.121852875 0 0 0 -45056638.121852875 0 0 0 -83676613.65486908 -44952902.051218987 0 0 0 -44952902.051218987 0 0 0 -83483960.952264786 -44850008.282628059 0 0 0 -44850008.282628059 0 0 0 -83292872.524879456 -44747960.571827888 0 0 0 -44747960.571827888 0 0 0 -83103355.347681046 -44646762.428789139 0 0 0 -44646762.428789139 0 0 0 -82915415.939180374 -44546417.119701385 0 0 0 -44546417.119701385 0 0 0 -82729060.365159988 -44446927.669126511 0 0 0 -44446927.669126511 0 0 0 -82544294.24266243 -44348296.862204552 0 0 0 -44348296.862204552 0 0 0 -82361122.744094849 -44250527.247005463 0 0 0 -44250527.247005463 0 0 0 -82179550.601581573 -44153621.136928558 0 0 0 -44153621.136928558 0 0 0 -81999582.111438751 -44057580.613254547 0 0 0 -44057580.613254547 0 0 0 -81821221.138900757 -43962407.527730942 0 0 0 -43962407.527730942 0 0 0 -81644471.122928619 -43868103.505270958 0 0 0 -43868103.505270958 0 0 0 -81469335.081218719 -43774669.946743011 0 0 0 -43774669.946743011 0 0 0 -81295815.615379333 -43682108.031815529 0 0 0 -43682108.031815529 0 0 0 -81123914.916229248 -43590418.721892357 0 0 0 -43590418.721892357 0 0 0 -80953634.769229889 -43499602.763109207 0 0 0 -43499602.763109207 0 0 0 -80784976.560058594 -43409660.689409256 0 0 0 -43409660.689409256 0 0 0 -80617941.280332565 -43320592.825667381 0 0 0 -43320592.825667381 0 0 0 -80452529.533384323 -43232399.29088974 0 0 0 -43232399.29088974 0 0 0 -80288741.540222168 -43145080.001455307 0 0 0 -43145080.001455307 0 0 0 -80126577.145561218 -43058634.674437523 0 0 0 -43058634.674437523 0 0 0 -79966035.823955536 -42973062.830927849 0 0 0 -42973062.830927849 0 0 0 -79807116.686008453 -42888363.799468994 0 0 0 -42888363.799468994 0 0 0 -79649818.484727859 -42804536.719464302 0 0 0 -42804536.719464302 0 0 0 -79494139.621862411 -42721580.544692993 0 0 0 -42721580.544692993 0 0 0 -79340078.154430389 -42639494.046794891 0 0 0 -42639494.046794891 0 0 0 -79187631.80119133 -42558275.818850517 0 0 0 -42558275.818850517 0 0 0 -79036797.949293137 -42477924.278944016 0 0 0 -42477924.278944016 0 0 0 -78887573.660898209 -42398437.673789978 0 0 0 -42398437.673789978 0 0 0 -78739955.679895401 -42319814.082357407 0 0 0 -42319814.082357407 0 0 0 -78593940.438663483 -42242051.419520378 0 0 0 -42242051.419520378 0 0 0 -78449524.064823151 -42165147.439738274 0 0 0 -42165147.439738274 0 0 0 -78306702.388086319 -42089099.740743637 0 0 0 -42089099.740743637 0 0 0 -78165470.947093964 -42013905.767238617 0 0 0 -42013905.767238617 0 0 0 -78025824.996299744 -41939562.814619064 0 0 0 -41939562.814619064 0 0 0 -77887759.512863159 -41866068.032657623 0 0 0 -41866068.032657623 0 0 0 -77751269.20350647 -41793418.429274559 0 0 0 -41793418.429274559 0 0 0 -77616348.511510849 -41721610.874228477 0 0 0 -41721610.874228477 0 0 0 -77482991.623565674 -41650642.102845192 0 0 0 -41650642.102845192 0 0 0 -77351192.476715088 -41580508.719754219 0 0 0 -41580508.719754219 0 0 0 -77220944.765256882 -41511207.202580452 0 0 0 -41511207.202580452 0 0 0 -77092241.947649002 -41442733.90568161 0 0 0 -41442733.90568161 0 0 0 -76965077.253408432 -41375085.063830376 0 0 0 -41375085.063830376 0 0 0 -76839443.689970016 -41308256.79589653 0 0 0 -41308256.79589653 0 0 0 -76715334.049520493 -41242245.10853672 0 0 0 -41242245.10853672 0 0 0 -76592740.915855408 -41177045.89984417 0 0 0 -41177045.89984417 0 0 0 -76471656.671138763 -41112654.96299839 0 0 0 -41112654.96299839 0 0 0 -76352073.50271225 -41049067.989866257 0 0 0 -41049067.989866257 0 0 0 -76233983.409751892 -40986280.574621201 0 0 0 -40986280.574621201 0 0 0 -76117378.210010529 -40924288.217316628 0 0 0 -40924288.217316628 0 0 0 -76002249.546445847 -40863086.327444077 0 0 0 -40863086.327444077 0 0 0 -75888588.893823624 -40802670.227448463 0 0 0 -40802670.227448463 0 0 0 -75776387.565261841 -40743035.156233788 0 0 0 -40743035.156233788 0 0 0 -75665636.71872139 -40684176.272638321 0 0 0 -40684176.272638321 0 0 0 -75556327.363471985 -40626088.658864975 0 0 0 -40626088.658864975 0 0 0 -75448450.366462708 -40568767.323901176 0 0 0 -40568767.323901176 0 0 0 -75341996.458673477 -40512207.20688343 0 0 0 -40512207.20688343 0 0 0 -75236956.241353989 -40456403.180458069 0 0 0 -40456403.180458069 0 0 0 -75133320.192277908 -40401350.054063797 0 0 0 -40401350.054063797 0 0 0 -75031078.671833038 -40347042.577222824 0 0 0 -40347042.577222824 0 0 0 -74930221.929128647 -40293475.442762375 0 0 0 -40293475.442762375 0 0 0 -74830740.10798645 -40240643.290017128 0 0 0 -40240643.290017128 0 0 0 -74732623.252887726 -40188540.707983017 0 0 0 -40188540.707983017 0 0 0 -74635861.314825058 -40137162.238434792 0 0 0 -40137162.238434792 0 0 0 -74540444.157094002 -40086502.379007339 0 0 0 -40086502.379007339 0 0 0 -74446361.561012268 -40036555.586226463 0 0 0 -40036555.586226463 0 0 0 -74353603.231563568 -39987316.278497696 0 0 0 -39987316.278497696 0 0 0 -74262158.80292511 -39938778.839071274 0 0 0 -39938778.839071274 0 0 0 -74172017.843988419 -39890937.618935585 0 0 0 -39890937.618935585 0 0 0 -74083169.863737106 -39843786.939694405 0 0 0 -39843786.939694405 0 0 0 -73995604.316576004 -39797321.096384525 0 0 0 -39797321.096384525 0 0 0 -73909310.607571602 -39751534.360248566 0 0 0 -39751534.360248566 0 0 0 -73824278.097604752 -39706420.981466293 0 0 0 -39706420.981466293 0 0 0 -73740496.108437538 -39661975.191854477 0 0 0 -39661975.191854477 0 0 0 -73657953.927729607 -39618191.20749712 0 0 0 -39618191.20749712 0 0 0 -73576640.813922882 -39575063.231341362 0 0 0 -39575063.231341362 0 0 0 -73496546.001062393 -39532585.455761909 0 0 0 -39532585.455761909 0 0 0 -73417658.703558922 -39490752.06505394 0 0 0 -39490752.06505394 0 0 0 -73339968.120815277 -39449557.237902641 0 0 0 -39449557.237902641 0 0 0 -73263463.441819191 -39408995.149789333 0 0 0 -39408995.149789333 0 0 0 -73188133.849608421 -39369059.975365162 0 0 0 -39369059.975365162 0 0 0 -73113968.525678635 -39329745.890773296 0 0 0 -39329745.890773296 0 0 0 -73040956.65429306 -39291047.07592392 0 0 0 -39291047.07592392 0 0 0 -72969087.426715851 -39252957.716732502 0 0 0 -39252957.716732502 0 0 0 -72898350.045360565 -39215472.007301807 0 0 0 -39215472.007301807 0 0 0 -72828733.727846146 -39178584.152058125 0 0 0 -39178584.152058125 0 0 0 -72760227.710964203 -39142288.367848396 0 0 0 -39142288.367848396 0 0 0 -72692821.254575729 -39106578.886003494 0 0 0 -39106578.886003494 0 0 0 -72626503.645435333 -39071449.95432806 0 0 0 -39071449.95432806 0 0 0 -72561264.200894356 -39036895.83907032 0 0 0 -39036895.83907032 0 0 0 -72497092.272559166 -39002910.826842308 0 0 0 -39002910.826842308 0 0 0 -72433977.249849319 -38969489.22648716 0 0 0 -38969489.22648716 0 0 0 -72371908.563475609 -38936625.370911121 0 0 0 -38936625.370911121 0 0 0 -72310875.688835144 -38904313.618876457 0 0 0 -38904313.618876457 0 0 0 -72250868.149341583 -38872548.356740952 0 0 0 -38872548.356740952 0 0 0 -72191875.51966095 -38841324.000165462 0 0 0 -38841324.000165462 0 0 0 -72133887.428878784 -38810634.995767117 0 0 0 -38810634.995767117 0 0 0 -72076893.563567162 -38780475.82274437 0 0 0 -38780475.82274437 0 0 0 -72020883.670810699 -38750840.994456768 0 0 0 -38750840.994456768 0 0 0 -71965847.561134338 -38721725.059956074 0 0 0 -38721725.059956074 0 0 0 -71911775.111347198 -38693122.605489731 0 0 0 -38693122.605489731 0 0 0 -71858656.267337799 -38665028.255960464 0 0 0 -38665028.255960464 0 0 0 -71806481.046783447 -38637436.676340103 0 0 0 -38637436.676340103 0 0 0 -71755239.54177475 -38610342.573058605 0 0 0 -38610342.573058605 0 0 0 -71704921.921394348 -38583740.69533968 0 0 0 -38583740.69533968 0 0 0 -71655518.434203148 -38557625.836513519 0 0 0 -38557625.836513519 0 0 0 -71607019.410667419 -38531992.835281849 0 0 0 -38531992.835281849 0 0 0 -71559415.265522957 -38506836.576951504 0 0 0 -38506836.576951504 0 0 0 -71512696.500052452 -38482151.994632244 0 0 0 -38482151.994632244 0 0 0 -71466853.704316139 -38457934.070400238 0 0 0 -38457934.070400238 0 0 0 -71421877.559314728 -38434177.836428642 0 0 0 -38434177.836428642 0 0 0 -71377758.839082718 -38410878.376076698 0 0 0 -38410878.376076698 0 0 0 -71334488.412714005 -38388030.824952126 0 0 0 -38388030.824952126 0 0 0 -71292057.246339798 -38365630.371944427 0 0 0 -38365630.371944427 0 0 0 -71250456.405039787 -38343672.260214806 0 0 0 -38343672.260214806 0 0 0 -71209677.054684639 -38322151.788169384 0 0 0 -38322151.788169384 0 0 0 -71169710.463742256 -38301064.31038332 0 0 0 -38301064.31038332 0 0 0 -71130548.004998207 -38280405.238513947 0 0 0 -38280405.238513947 0 0 0 -71092181.157239914 -38260170.042169571 0 0 0 -38260170.042169571 0 0 0 -71054601.506885529 -38240354.249761581 0 0 0 -38240354.249761581 0 0 0 -71017800.749556541 -38220953.449317455 0 0 0 -38220953.449317455 0 0 0 -70981770.691589832 -38201963.289270401 0 0 0 -38201963.289270401 0 0 0 -70946503.251502037 -38183379.479225159 0 0 0 -38183379.479225159 0 0 0 -70911990.461418152 -38165197.790692806 0 0 0 -38165197.790692806 0 0 0 -70878224.468429089 -38147414.057801008 0 0 0 -38147414.057801008 0 0 0 -70845197.535915852 -38130024.177980423 0 0 0 -38130024.177980423 0 0 0 -70812902.044821262 -38113024.112629414 0 0 0 -38113024.112629414 0 0 0 -70781330.49488306 -38096409.887741566 0 0 0 -38096409.887741566 0 0 0 -70750475.505805969 -38080177.594527245 0 0 0 -38080177.594527245 0 0 0 -70720329.818408012 -38064323.39000082 0 0 0 -38064323.39000082 0 0 0 -70690886.295715809 -38048843.497552395 0 0 0 -38048843.497552395 0 0 0 -70662137.924026012 -38033734.207489967 0 0 0 -38033734.207489967 0 0 0 -70634077.813909531 -38018991.87756753 0 0 0 -38018991.87756753 0 0 0 -70606699.201197147 -38004612.933493614 0 0 0 -38004612.933493614 0 0 0 -70579995.447916985 -37990593.869413137 0 0 0 -37990593.869413137 0 0 0 -70553960.043195724 -37976931.248372078 0 0 0 -37976931.248372078 0 0 0 -70528586.604119778 -37963621.70276618 0 0 0 -37963621.70276618 0 0 0 -70503868.876565933 -37950661.934775114 0 0 0 -37950661.934775114 0 0 0 -70479800.736011028 -37938048.716765881 0 0 0 -37938048.716765881 0 0 0 -70456376.188279629 -37925778.891690016 0 0 0 -37925778.891690016 0 0 0 -70433589.370281696 -37913849.373463631 0 0 0 -37913849.373463631 0 0 0 -70411434.550718307 -37902257.147325516 0 0 0 -37902257.147325516 0 0 0 -70389906.130747795 -37890999.27018261 0 0 0 -37890999.27018261 0 0 0 -70368998.64462471 -37880072.870941639 0 0 0 -37880072.870941639 0 0 0 -70348706.760320187 -37869475.150824785 0 0 0 -37869475.150824785 0 0 0 -70329025.280103207 -37859203.383670807 0 0 0 -37859203.383670807 0 0 0 -70309949.141102791 -37849254.916221142 0 0 0 -37849254.916221142 0 0 0 -70291473.415839195 -37839627.168397665 0 0 0 -37839627.168397665 0 0 0 -70273593.312738419 -37830317.633561373 0 0 0 -37830317.633561373 0 0 0 -70256304.176614285 -37821323.87876153 0 0 0 -37821323.87876153 0 0 0 -70239601.48912859 -37812643.544971704 0 0 0 -37812643.544971704 0 0 0 -70223480.869232893 -37804274.347318649 0 0 0 -37804274.347318649 0 0 0 -70207938.073591471 -37796214.075292587 0 0 0 -37796214.075292587 0 0 0 -70192968.996972084 -37788460.592951536 0 0 0 -37788460.592951536 0 0 0 -70178569.67262435 -37781011.839115143 0 0 0 -37781011.839115143 0 0 0 -70164736.272642374 -37773865.827545524 0 0 0 -37773865.827545524 0 0 0 -70151465.108299017 -37767020.647120953 0 0 0 -37767020.647120953 0 0 0 -70138752.630367279 -37760474.461998105 0 0 0 -37760474.461998105 0 0 0 -70126595.429425001 -37754225.511767864 0 0 0 -37754225.511767864 0 0 0 -70114990.23614049 -37748272.111600637 0 0 0 -37748272.111600637 0 0 0 -70103933.921544075 -37742612.652381063 0 0 0 -37742612.652381063 0 0 0 -70093423.497279167 -37737245.60083878 0 0 0 -37737245.60083878 0 0 0 -70083456.115843296 -37732169.499668717 0 0 0 -37732169.499668717 0 0 0 -70074029.070813417 -37727382.967643261 0 0 0 -37727382.967643261 0 0 0 -70065139.797051907 -37722884.69971931 0 0 0 -37722884.69971931 0 0 0 -70056785.870907307 -37718673.467136502 0 0 0 -37718673.467136502 0 0 0 -70048965.010396481 -37714748.1175071 0 0 0 -37714748.1175071 0 0 0 -70041675.075370431 -37711107.574902058 0 0 0 -37711107.574902058 0 0 0 -70034914.067675352 -37707750.839929581 0 0 0 -37707750.839929581 0 0 0 -70028680.131297827 -37704676.989806116 0 0 0 -37704676.989806116 0 0 0 -70022971.552497149 -37701885.178421676 0 0 0 -37701885.178421676 0 0 0 -70017786.759926081 -37699374.63640064 0 0 0 -37699374.63640064 0 0 0 -70013124.324743986 -37697144.671155035 0 0 0 -37697144.671155035 0 0 0 -70008982.960716367 -37695194.666931748 0 0 0 -37695194.666931748 0 0 0 -70005361.524301767 -37693524.084855527 0 0 0 -37693524.084855527 0 0 0 -70002259.014731765 -37692132.462965786 0 0 0 -37692132.462965786 0 0 0 -69999674.574079335 -37691019.416247696 0 0 0 -37691019.416247696 0 0 0 -69997607.487317145 -37690184.636658296 0 0 0 -37690184.636658296 0 0 0 -69996057.182365417 -37689627.893147454 0 0 0 -37689627.893147454 0 0 0 -69995023.23013097 -37689349.031673081 0 0 0 -37689349.031673081 0 0 0 -69994505.344535738 
</DataArray>
</CellData>
</Piece>
</UnstructuredGrid>
</VTKFile>
