<?xml version="1.0"?>
<VTKFile type="UnstructuredGrid" version="0.1" byte_order="LittleEndian">
<UnstructuredGrid>
<Piece NumberOfPoints="500" NumberOfCells="250">
<Points>
<DataArray type="Float64" NumberOfComponents="3" format="ascii">
0 0 0 0 0 -0.00099999999999810158 0 0 -0.00099999999999810158 0 0 -0.001999999999996204 0 0 -0.001999999999996204 0 0 -0.0029999999999943271 0 0 -0.0029999999999943271 0 0 -0.0039999999999924488 0 0 -0.0039999999999924488 0 0 -0.004999999999990571 0 0 -0.004999999999990571 0 0 -0.0059999999999886811 0 0 -0.0059999999999886811 0 0 -0.0069999999999867156 0 0 -0.0069999999999867156 0 0 -0.007999999999984719 0 0 -0.007999999999984719 0 0 -0.008999999999982581 0 0 -0.008999999999982581 0 0 -0.0099999999999804221 0 0 -0.0099999999999804221 0 0 -0.010999999999978201 0 0 -0.010999999999978201 0 0 -0.011999999999975971 0 0 -0.011999999999975971 0 0 -0.01299999999997375 0 0 -0.01299999999997375 0 0 -0.01399999999997158 0 0 -0.01399999999997158 0 0 -0.014999999999969531 0 0 -0.014999999999969531 0 0 -0.01599999999996761 0 0 -0.01599999999996761 0 0 -0.0169999999999659 0 0 -0.0169999999999659 0 0 -0.01799999999996427 0 0 -0.01799999999996427 0 0 -0.018999999999962731 0 0 -0.018999999999962731 0 0 -0.019999999999961209 0 0 -0.019999999999961209 0 0 -0.020999999999959669 0 0 -0.020999999999959669 0 0 -0.02199999999995814 0 0 -0.02199999999995814 0 0 -0.022999999999956611 0 0 -0.022999999999956611 0 0 -0.023999999999955082 0 0 -0.023999999999955082 0 0 -0.024999999999953549 0 0 -0.024999999999953549 0 0 -0.02599999999995202 0 0 -0.02599999999995202 0 0 -0.02699999999995048 0 0 -0.02699999999995048 0 0 -0.027999999999948951 0 0 -0.027999999999948951 0 0 -0.028999999999947419 0 0 -0.028999999999947419 0 0 -0.02999999999994565 0 0 -0.02999999999994565 0 0 -0.03099999999994377 0 0 -0.03099999999994377 0 0 -0.031999999999941367 0 0 -0.031999999999941367 0 0 -0.032999999999938787 0 0 -0.032999999999938787 0 0 -0.033999999999935943 0 0 -0.033999999999935943 0 0 -0.034999999999933022 0 0 -0.034999999999933022 0 0 -0.035999999999930102 0 0 -0.035999999999930102 0 0 -0.036999999999927188 0 0 -0.036999999999927188 0 0 -0.037999999999924268 0 0 -0.037999999999924268 0 0 -0.038999999999921348 0 0 -0.038999999999921348 0 0 -0.039999999999918427 0 0 -0.039999999999918427 0 0 -0.040999999999915507 0 0 -0.040999999999915507 0 0 -0.041999999999912593 0 0 -0.041999999999912593 0 0 -0.042999999999909673 0 0 -0.042999999999909673 0 0 -0.043999999999906753 0 0 -0.043999999999906753 0 0 -0.044999999999903832 0 0 -0.044999999999903832 0 0 -0.045999999999900919 0 0 -0.045999999999900919 0 0 -0.046999999999897998 0 0 -0.046999999999897998 0 0 -0.047999999999895078 0 0 -0.047999999999895078 0 0 -0.048999999999892158 0 0 -0.048999999999892158 0 0 -0.049999999999889237 0 0 -0.049999999999889237 0 0 -0.050999999999886317 0 0 -0.050999999999886317 0 0 -0.051999999999883403 0 0 -0.051999999999883403 0 0 -0.052999999999880483 0 0 -0.052999999999880483 0 0 -0.053999999999877563 0 0 -0.053999999999877563 0 0 -0.054999999999874642 0 0 -0.054999999999874642 0 0 -0.055999999999871722 0 0 -0.055999999999871722 0 0 -0.056999999999868801 0 0 -0.056999999999868801 0 0 -0.057999999999865881 0 0 -0.057999999999865881 0 0 -0.058999999999862961 0 0 -0.058999999999862961 0 0 -0.059999999999860047 0 0 -0.059999999999860047 0 0 -0.060999999999857127 0 0 -0.060999999999857127 0 0 -0.061999999999854213 0 0 -0.061999999999854213 0 0 -0.062999999999851286 0 0 -0.062999999999851286 0 0 -0.063999999999848373 0 0 -0.063999999999848373 0 0 -0.064999999999845445 0 0 -0.064999999999845445 0 0 -0.065999999999842532 0 0 -0.065999999999842532 0 0 -0.066999999999839618 0 0 -0.066999999999839618 0 0 -0.067999999999836705 0 0 -0.067999999999836705 0 0 -0.068999999999833792 0 0 -0.068999999999833792 0 0 -0.069999999999830878 0 0 -0.069999999999830878 0 0 -0.070999999999827965 0 0 -0.070999999999827965 0 0 -0.071999999999825051 0 0 -0.071999999999825051 0 0 -0.072999999999822124 0 0 -0.072999999999822124 0 0 -0.07399999999981921 0 0 -0.07399999999981921 0 0 -0.074999999999816297 0 0 -0.074999999999816297 0 0 -0.075999999999813383 0 0 -0.075999999999813383 0 0 -0.07699999999981047 0 0 -0.07699999999981047 0 0 -0.077999999999807557 0 0 -0.077999999999807557 0 0 -0.078999999999804643 0 0 -0.078999999999804643 0 0 -0.07999999999980173 0 0 -0.07999999999980173 0 0 -0.080999999999798802 0 0 -0.080999999999798802 0 0 -0.081999999999795889 0 0 -0.081999999999795889 0 0 -0.082999999999792975 0 0 -0.082999999999792975 0 0 -0.083999999999790062 0 0 -0.083999999999790062 0 0 -0.084999999999787149 0 0 -0.084999999999787149 0 0 -0.085999999999784235 0 0 -0.085999999999784235 0 0 -0.086999999999781322 0 0 -0.086999999999781322 0 0 -0.087999999999778394 0 0 -0.087999999999778394 0 0 -0.088999999999775481 0 0 -0.088999999999775481 0 0 -0.089999999999772567 0 0 -0.089999999999772567 0 0 -0.090999999999769654 0 0 -0.090999999999769654 0 0 -0.091999999999766741 0 0 -0.091999999999766741 0 0 -0.092999999999763827 0 0 -0.092999999999763827 0 0 -0.093999999999760914 0 0 -0.093999999999760914 0 0 -0.094999999999758 0 0 -0.094999999999758 0 0 -0.095999999999755073 0 0 -0.095999999999755073 0 0 -0.096999999999752159 0 0 -0.096999999999752159 0 0 -0.097999999999749246 0 0 -0.097999999999749246 0 0 -0.098999999999746333 0 0 -0.098999999999746333 0 0 -0.099999999999743419 0 0 -0.099999999999743419 0 0 -0.10099999999974051 0 0 -0.10099999999974051 0 0 -0.10199999999973761 0 0 -0.10199999999973761 0 0 -0.10299999999973471 0 0 -0.10299999999973471 0 0 -0.10399999999973179 0 0 -0.10399999999973179 0 0 -0.1049999999997288 0 0 -0.1049999999997288 0 0 -0.1059999999997259 0 0 -0.1059999999997259 0 0 -0.106999999999723 0 0 -0.106999999999723 0 0 -0.1079999999997201 0 0 -0.1079999999997201 0 0 -0.1089999999997172 0 0 -0.1089999999997172 0 0 -0.1099999999997143 0 0 -0.1099999999997143 0 0 -0.1109999999997113 0 0 -0.1109999999997113 0 0 -0.1119999999997084 0 0 -0.1119999999997084 0 0 -0.1129999999997055 0 0 -0.1129999999997055 0 0 -0.1139999999997026 0 0 -0.1139999999997026 0 0 -0.1149999999996997 0 0 -0.1149999999996997 0 0 -0.1159999999996968 0 0 -0.1159999999996968 0 0 -0.11699999999969379 0 0 -0.11699999999969379 0 0 -0.11799999999969089 0 0 -0.11799999999969089 0 0 -0.11899999999968799 0 0 -0.11899999999968799 0 0 -0.11999999999968509 0 0 -0.11999999999968509 0 0 -0.1209999999996822 0 0 -0.1209999999996822 0 0 -0.1219999999996793 0 0 -0.1219999999996793 0 0 -0.1229999999996764 0 0 -0.1229999999996764 0 0 -0.1239999999996748 0 0 -0.1239999999996748 0 0 -0.12499999999967321 0 0 -0.12499999999967321 0 0 -0.12599999999967451 0 0 -0.12599999999967451 0 0 -0.12699999999967579 0 0 -0.12699999999967579 0 0 -0.1279999999996784 0 0 -0.1279999999996784 0 0 -0.12899999999968109 0 0 -0.12899999999968109 0 0 -0.1299999999996837 0 0 -0.1299999999996837 0 0 -0.13099999999968631 0 0 -0.13099999999968631 0 0 -0.13199999999968889 0 0 -0.13199999999968889 0 0 -0.13299999999969159 0 0 -0.13299999999969159 0 0 -0.1339999999996942 0 0 -0.1339999999996942 0 0 -0.13499999999969689 0 0 -0.13499999999969689 0 0 -0.1359999999996995 0 0 -0.1359999999996995 0 0 -0.13699999999970211 0 0 -0.13699999999970211 0 0 -0.1379999999997048 0 0 -0.1379999999997048 0 0 -0.13899999999970741 0 0 -0.13899999999970741 0 0 -0.13999999999971011 0 0 -0.13999999999971011 0 0 -0.14099999999971269 0 0 -0.14099999999971269 0 0 -0.1419999999997153 0 0 -0.1419999999997153 0 0 -0.14299999999971799 0 0 -0.14299999999971799 0 0 -0.1439999999997206 0 0 -0.1439999999997206 0 0 -0.14499999999972321 0 0 -0.14499999999972321 0 0 -0.14599999999972579 0 0 -0.14599999999972579 0 0 -0.14699999999972849 0 0 -0.14699999999972849 0 0 -0.1479999999997311 0 0 -0.1479999999997311 0 0 -0.14899999999973379 0 0 -0.14899999999973379 0 0 -0.1499999999997364 0 0 -0.1499999999997364 0 0 -0.15099999999973901 0 0 -0.15099999999973901 0 0 -0.1519999999997417 0 0 -0.1519999999997417 0 0 -0.15299999999974431 0 0 -0.15299999999974431 0 0 -0.15399999999974701 0 0 -0.15399999999974701 0 0 -0.15499999999974959 0 0 -0.15499999999974959 0 0 -0.1559999999997522 0 0 -0.1559999999997522 0 0 -0.15699999999975489 0 0 -0.15699999999975489 0 0 -0.1579999999997575 0 0 -0.1579999999997575 0 0 -0.15899999999976011 0 0 -0.15899999999976011 0 0 -0.1599999999997628 0 0 -0.1599999999997628 0 0 -0.16099999999976539 0 0 -0.16099999999976539 0 0 -0.161999999999768 0 0 -0.161999999999768 0 0 -0.16299999999977069 0 0 -0.16299999999977069 0 0 -0.1639999999997733 0 0 -0.1639999999997733 0 0 -0.16499999999977599 0 0 -0.16499999999977599 0 0 -0.1659999999997786 0 0 -0.1659999999997786 0 0 -0.16699999999978121 0 0 -0.16699999999978121 0 0 -0.16799999999978391 0 0 -0.16799999999978391 0 0 -0.16899999999978649 0 0 -0.16899999999978649 0 0 -0.1699999999997891 0 0 -0.1699999999997891 0 0 -0.17099999999979171 0 0 -0.17099999999979171 0 0 -0.1719999999997944 0 0 -0.1719999999997944 0 0 -0.17299999999979701 0 0 -0.17299999999979701 0 0 -0.1739999999997997 0 0 -0.1739999999997997 0 0 -0.17499999999980231 0 0 -0.17499999999980231 0 0 -0.17599999999980501 0 0 -0.17599999999980501 0 0 -0.17699999999980759 0 0 -0.17699999999980759 0 0 -0.1779999999998102 0 0 -0.1779999999998102 0 0 -0.17899999999981281 0 0 -0.17899999999981281 0 0 -0.1799999999998155 0 0 -0.1799999999998155 0 0 -0.18099999999981811 0 0 -0.18099999999981811 0 0 -0.18199999999982069 0 0 -0.18199999999982069 0 0 -0.18299999999982339 0 0 -0.18299999999982339 0 0 -0.183999999999826 0 0 -0.183999999999826 0 0 -0.18499999999982869 0 0 -0.18499999999982869 0 0 -0.1859999999998313 0 0 -0.1859999999998313 0 0 -0.18699999999983391 0 0 -0.18699999999983391 0 0 -0.1879999999998366 0 0 -0.1879999999998366 0 0 -0.18899999999983921 0 0 -0.18899999999983921 0 0 -0.18999999999984191 0 0 -0.18999999999984191 0 0 -0.19099999999984449 0 0 -0.19099999999984449 0 0 -0.1919999999998471 0 0 -0.1919999999998471 0 0 -0.19299999999984971 0 0 -0.19299999999984971 0 0 -0.1939999999998524 0 0 -0.1939999999998524 0 0 -0.19499999999985501 0 0 -0.19499999999985501 0 0 -0.1959999999998577 0 0 -0.1959999999998577 0 0 -0.19699999999986029 0 0 -0.19699999999986029 0 0 -0.19799999999986301 0 0 -0.19799999999986301 0 0 -0.19899999999986559 0 0 -0.19899999999986559 0 0 -0.1999999999998682 0 0 -0.1999999999998682 0 0 -0.20099999999987081 0 0 -0.20099999999987081 0 0 -0.2019999999998735 0 0 -0.2019999999998735 0 0 -0.20299999999987611 0 0 -0.20299999999987611 0 0 -0.20399999999987881 0 0 -0.20399999999987881 0 0 -0.20499999999988139 0 0 -0.20499999999988139 0 0 -0.205999999999884 0 0 -0.205999999999884 0 0 -0.20699999999988669 0 0 -0.20699999999988669 0 0 -0.2079999999998893 0 0 -0.2079999999998893 0 0 -0.20899999999989191 0 0 -0.20899999999989191 0 0 -0.2099999999998946 0 0 -0.2099999999998946 0 0 -0.21099999999989719 0 0 -0.21099999999989719 0 0 -0.21199999999989991 0 0 -0.21199999999989991 0 0 -0.21299999999990249 0 0 -0.21299999999990249 0 0 -0.2139999999999051 0 0 -0.2139999999999051 0 0 -0.21499999999990771 0 0 -0.21499999999990771 0 0 -0.2159999999999104 0 0 -0.2159999999999104 0 0 -0.21699999999991301 0 0 -0.21699999999991301 0 0 -0.21799999999991571 0 0 -0.21799999999991571 0 0 -0.21899999999991829 0 0 -0.21899999999991829 0 0 -0.2199999999999209 0 0 -0.2199999999999209 0 0 -0.22099999999992359 0 0 -0.22099999999992359 0 0 -0.2219999999999262 0 0 -0.2219999999999262 0 0 -0.22299999999992881 0 0 -0.22299999999992881 0 0 -0.22399999999993139 0 0 -0.22399999999993139 0 0 -0.22499999999993411 0 0 -0.22499999999993411 0 0 -0.2259999999999367 0 0 -0.2259999999999367 0 0 -0.22699999999993939 0 0 -0.22699999999993939 0 0 -0.227999999999942 0 0 -0.227999999999942 0 0 -0.22899999999994469 0 0 -0.22899999999994469 0 0 -0.2299999999999473 0 0 -0.2299999999999473 0 0 -0.23099999999994991 0 0 -0.23099999999994991 0 0 -0.23199999999995249 0 0 -0.23199999999995249 0 0 -0.23299999999995519 0 0 -0.23299999999995519 0 0 -0.2339999999999578 0 0 -0.2339999999999578 0 0 -0.23499999999996049 0 0 -0.23499999999996049 0 0 -0.2359999999999631 0 0 -0.2359999999999631 0 0 -0.23699999999996571 0 0 -0.23699999999996571 0 0 -0.2379999999999684 0 0 -0.2379999999999684 0 0 -0.23899999999997101 0 0 -0.23899999999997101 0 0 -0.2399999999999736 0 0 -0.2399999999999736 0 0 -0.24099999999997629 0 0 -0.24099999999997629 0 0 -0.2419999999999789 0 0 -0.2419999999999789 0 0 -0.24299999999998159 0 0 -0.24299999999998159 0 0 -0.2439999999999842 0 0 -0.2439999999999842 0 0 -0.24499999999998681 0 0 -0.24499999999998681 0 0 -0.24599999999998939 0 0 -0.24599999999998939 0 0 -0.24699999999999209 0 0 -0.24699999999999209 0 0 -0.2479999999999947 0 0 -0.2479999999999947 0 0 -0.24899999999999739 0 0 -0.24899999999999739 0 0 -0.25 
</DataArray>
</Points>
<Cells>
<DataArray type="UInt32" Name="connectivity" format="ascii">
0 1 2 3 4 5 6 7 8 9 10 11 12 13 14 15 16 17 18 19 20 21 22 23 24 25 26 27 28 29 30 31 32 33 34 35 36 37 38 39 40 41 42 43 44 45 46 47 48 49 50 51 52 53 54 55 56 57 58 59 60 61 62 63 64 65 66 67 68 69 70 71 72 73 74 75 76 77 78 79 80 81 82 83 84 85 86 87 88 89 90 91 92 93 94 95 96 97 98 99 100 101 102 103 104 105 106 107 108 109 110 111 112 113 114 115 116 117 118 119 120 121 122 123 124 125 126 127 128 129 130 131 132 133 134 135 136 137 138 139 140 141 142 143 144 145 146 147 148 149 150 151 152 153 154 155 156 157 158 159 160 161 162 163 164 165 166 167 168 169 170 171 172 173 174 175 176 177 178 179 180 181 182 183 184 185 186 187 188 189 190 191 192 193 194 195 196 197 198 199 200 201 202 203 204 205 206 207 208 209 210 211 212 213 214 215 216 217 218 219 220 221 222 223 224 225 226 227 228 229 230 231 232 233 234 235 236 237 238 239 240 241 242 243 244 245 246 247 248 249 250 251 252 253 254 255 256 257 258 259 260 261 262 263 264 265 266 267 268 269 270 271 272 273 274 275 276 277 278 279 280 281 282 283 284 285 286 287 288 289 290 291 292 293 294 295 296 297 298 299 300 301 302 303 304 305 306 307 308 309 310 311 312 313 314 315 316 317 318 319 320 321 322 323 324 325 326 327 328 329 330 331 332 333 334 335 336 337 338 339 340 341 342 343 344 345 346 347 348 349 350 351 352 353 354 355 356 357 358 359 360 361 362 363 364 365 366 367 368 369 370 371 372 373 374 375 376 377 378 379 380 381 382 383 384 385 386 387 388 389 390 391 392 393 394 395 396 397 398 399 400 401 402 403 404 405 406 407 408 409 410 411 412 413 414 415 416 417 418 419 420 421 422 423 424 425 426 427 428 429 430 431 432 433 434 435 436 437 438 439 440 441 442 443 444 445 446 447 448 449 450 451 452 453 454 455 456 457 458 459 460 461 462 463 464 465 466 467 468 469 470 471 472 473 474 475 476 477 478 479 480 481 482 483 484 485 486 487 488 489 490 491 492 493 494 495 496 497 498 499 
</DataArray>
<DataArray type="UInt32" Name="offsets" format="ascii">
2 4 6 8 10 12 14 16 18 20 22 24 26 28 30 32 34 36 38 40 42 44 46 48 50 52 54 56 58 60 62 64 66 68 70 72 74 76 78 80 82 84 86 88 90 92 94 96 98 100 102 104 106 108 110 112 114 116 118 120 122 124 126 128 130 132 134 136 138 140 142 144 146 148 150 152 154 156 158 160 162 164 166 168 170 172 174 176 178 180 182 184 186 188 190 192 194 196 198 200 202 204 206 208 210 212 214 216 218 220 222 224 226 228 230 232 234 236 238 240 242 244 246 248 250 252 254 256 258 260 262 264 266 268 270 272 274 276 278 280 282 284 286 288 290 292 294 296 298 300 302 304 306 308 310 312 314 316 318 320 322 324 326 328 330 332 334 336 338 340 342 344 346 348 350 352 354 356 358 360 362 364 366 368 370 372 374 376 378 380 382 384 386 388 390 392 394 396 398 400 402 404 406 408 410 412 414 416 418 420 422 424 426 428 430 432 434 436 438 440 442 444 446 448 450 452 454 456 458 460 462 464 466 468 470 472 474 476 478 480 482 484 486 488 490 492 494 496 498 500 
</DataArray>
<DataArray type="UInt32" Name="types" format="ascii">
3 3 3 3 3 3 3 3 3 3 3 3 3 3 3 3 3 3 3 3 3 3 3 3 3 3 3 3 3 3 3 3 3 3 3 3 3 3 3 3 3 3 3 3 3 3 3 3 3 3 3 3 3 3 3 3 3 3 3 3 3 3 3 3 3 3 3 3 3 3 3 3 3 3 3 3 3 3 3 3 3 3 3 3 3 3 3 3 3 3 3 3 3 3 3 3 3 3 3 3 3 3 3 3 3 3 3 3 3 3 3 3 3 3 3 3 3 3 3 3 3 3 3 3 3 3 3 3 3 3 3 3 3 3 3 3 3 3 3 3 3 3 3 3 3 3 3 3 3 3 3 3 3 3 3 3 3 3 3 3 3 3 3 3 3 3 3 3 3 3 3 3 3 3 3 3 3 3 3 3 3 3 3 3 3 3 3 3 3 3 3 3 3 3 3 3 3 3 3 3 3 3 3 3 3 3 3 3 3 3 3 3 3 3 3 3 3 3 3 3 3 3 3 3 3 3 3 3 3 3 3 3 3 3 3 3 3 3 3 3 3 3 3 3 3 3 3 3 3 3 
</DataArray>
</Cells>
<PointData Scalars="" Vectors="displacement," Tensors="">
<DataArray type="Float64" Name="displacement" NumberOfComponents="3" format="ascii">
0 0 -0.00042882758918950687 0 0 -0.00042652649066349057 0 0 -0.00042652649066349057 0 0 -0.00042423857119678259 0 0 -0.00042423857119678259 0 0 -0.00042196380584264486 0 0 -0.00042196380584264486 0 0 -0.0004197021543598026 0 0 -0.0004197021543598026 0 0 -0.00041745356234636389 0 0 -0.00041745356234636389 0 0 -0.00041521796231190579 0 0 -0.00041521796231190579 0 0 -0.00041299527469070799 0 0 -0.00041299527469070799 0 0 -0.00041078540879898408 0 0 -0.00041078540879898408 0 0 -0.00040858826373883013 0 0 -0.00040858826373883013 0 0 -0.00040640372925148369 0 0 -0.00040640372925148369 0 0 -0.00040423168652237829 0 0 -0.00040423168652237829 0 0 -0.00040207200894034977 0 0 -0.00040207200894034977 0 0 -0.00039992456281326091 0 0 -0.00039992456281326091 0 0 -0.00039778920804219345 0 0 -0.00039778920804219345 0 0 -0.00039566579875626638 0 0 -0.00039566579875626638 0 0 -0.00039355418391004009 0 0 -0.00039355418391004009 0 0 -0.00039145420784537867 0 0 -0.00039145420784537867 0 0 -0.00038936571081955683 0 0 -0.00038936571081955683 0 0 -0.00038728852950131043 0 0 -0.00038728852950131043 0 0 -0.00038522249743645754 0 0 -0.00038522249743645754 0 0 -0.00038316744548463872 0 0 -0.00038316744548463872 0 0 -0.00038112320222864976 0 0 -0.00038112320222864976 0 0 -0.00037908959435777777 0 0 -0.00037908959435777777 0 0 -0.00037706644702648003 0 0 -0.00037706644702648003 0 0 -0.00037505358418968505 0 0 -0.00037505358418968505 0 0 -0.00037305082891593501 0 0 -0.00037305082891593501 0 0 -0.00037105800367952919 0 0 -0.00037105800367952919 0 0 -0.00036907493063277624 0 0 -0.00036907493063277624 0 0 -0.00036710143185940831 0 0 -0.00036710143185940831 0 0 -0.00036513732961016194 0 0 -0.00036513732961016194 0 0 -0.00036318244652147738 0 0 -0.00036318244652147738 0 0 -0.00036123660581823382 0 0 -0.00036123660581823382 0 0 -0.00035929963150137896 0 0 -0.00035929963150137896 0 0 -0.00035737134852128452 0 0 -0.00035737134852128452 0 0 -0.00035545158293760797 0 0 -0.00035545158293760797 0 0 -0.00035354016206640951 0 0 -0.00035354016206640951 0 0 -0.00035163691461523495 0 0 -0.00035163691461523495 0 0 -0.00034974167080683942 0 0 -0.00034974167080683942 0 0 -0.00034785426249219544 0 0 -0.00034785426249219544 0 0 -0.00034597452325339702 0 0 -0.00034597452325339702 0 0 -0.00034410228849704038 0 0 -0.00034410228849704038 0 0 -0.00034223739553863446 0 0 -0.00034223739553863446 0 0 -0.0003403796836785648 0 0 -0.0003403796836785648 0 0 -0.00033852899427011123 0 0 -0.00033852899427011123 0 0 -0.00033668517077999267 0 0 -0.00033668517077999267 0 0 -0.00033484805884188834 0 0 -0.00033484805884188834 0 0 -0.00033301750630336372 0 0 -0.00033301750630336372 0 0 -0.00033119336326660622 0 0 -0.00033119336326660622 0 0 -0.00032937548212335564 0 0 -0.00032937548212335564 0 0 -0.00032756371758439556 0 0 -0.00032756371758439556 0 0 -0.00032575792670395026 0 0 -0.00032575792670395026 0 0 -0.00032395796889931786 0 0 -0.00032395796889931786 0 0 -0.00032216370596604955 0 0 -0.00032216370596604955 0 0 -0.00032037500208897149 0 0 -0.00032037500208897149 0 0 -0.00031859172384932804 0 0 -0.00031859172384932804 0 0 -0.00031681374022831234 0 0 -0.00031681374022831234 0 0 -0.00031504092260723426 0 0 -0.00031504092260723426 0 0 -0.00031327314476456403 0 0 -0.00031327314476456403 0 0 -0.00031151028287007603 0 0 -0.00031151028287007603 0 0 -0.00030975221547630563 0 0 -0.00030975221547630563 0 0 -0.00030799882350751969 0 0 -0.00030799882350751969 0 0 -0.00030624999024639164 0 0 -0.00030624999024639164 0 0 -0.00030450560131855999 0 0 -0.00030450560131855999 0 0 -0.00030276554467524082 0 0 -0.00030276554467524082 0 0 -0.00030102971057405361 0 0 -0.00030102971057405361 0 0 -0.00029929799155821218 0 0 -0.00029929799155821218 0 0 -0.0002975702824342228 0 0 -0.0002975702824342228 0 0 -0.00029584648024822508 0 0 -0.00029584648024822508 0 0 -0.00029412648426110064 0 0 -0.00029412648426110064 0 0 -0.00029241019592247058 0 0 -0.00029241019592247058 0 0 -0.00029069751884369308 0 0 -0.00029069751884369308 0 0 -0.00028898835876996741 0 0 -0.00028898835876996741 0 0 -0.00028728262355164335 0 0 -0.00028728262355164335 0 0 -0.00028558022311482947 0 0 -0.00028558022311482947 0 0 -0.00028388106943138809 0 0 -0.00028388106943138809 0 0 -0.0002821850764883995 0 0 -0.0002821850764883995 0 0 -0.00028049216025717149 0 0 -0.00028049216025717149 0 0 -0.00027880223866186808 0 0 -0.00027880223866186808 0 0 -0.0002771152315478237 0 0 -0.0002771152315478237 0 0 -0.00027543106064960695 0 0 -0.00027543106064960695 0 0 -0.00027374964955889284 0 0 -0.00027374964955889284 0 0 -0.00027207092369219859 0 0 -0.00027207092369219859 0 0 -0.00027039481025853472 0 0 -0.00027039481025853472 0 0 -0.00026872123822701903 0 0 -0.00026872123822701903 0 0 -0.00026705013829449837 0 0 -0.00026705013829449837 0 0 -0.0002653814428532194 0 0 -0.0002653814428532194 0 0 -0.00026371508595858707 0 0 -0.00026371508595858707 0 0 -0.00026205100329704652 0 0 -0.00026205100329704652 0 0 -0.00026038913215412052 0 0 -0.00026038913215412052 0 0 -0.00025872941138263376 0 0 -0.00025872941138263376 0 0 -0.00025707178137115186 0 0 -0.00025707178137115186 0 0 -0.00025541618401265999 0 0 -0.00025541618401265999 0 0 -0.00025376256267350592 0 0 -0.00025376256267350592 0 0 -0.00025211086216262834 0 0 -0.00025211086216262834 0 0 -0.00025046102870109044 0 0 -0.00025046102870109044 0 0 -0.00024881300989193646 0 0 -0.00024881300989193646 0 0 -0.00024716675469038766 0 0 -0.00024716675469038766 0 0 -0.00024552221337439245 0 0 -0.00024552221337439245 0 0 -0.00024387933751554312 0 0 -0.00024387933751554312 0 0 -0.00024223807995037166 0 0 -0.00024223807995037166 0 0 -0.00024059839475203498 0 0 -0.00024059839475203498 0 0 -0.00023896023720239824 0 0 -0.00023896023720239824 0 0 -0.00023732356376452514 0 0 -0.00023732356376452514 0 0 -0.00023568833205558088 0 0 -0.00023568833205558088 0 0 -0.00023405450082015491 0 0 -0.00023405450082015491 0 0 -0.00023242202990400742 0 0 -0.00023242202990400742 0 0 -0.00023079088022824444 0 0 -0.00023079088022824444 0 0 -0.00022916101376392408 0 0 -0.00022916101376392408 0 0 -0.00022753239350709655 0 0 -0.00022753239350709655 0 0 -0.00022590498345427957 0 0 -0.00022590498345427957 0 0 -0.00022427874857837071 0 0 -0.00022427874857837071 0 0 -0.00022265365480499518 0 0 -0.00022265365480499518 0 0 -0.00022102966898929219 0 0 -0.00022102966898929219 0 0 -0.00021940675889313524 0 0 -0.00021940675889313524 0 0 -0.00021778489316278806 0 0 -0.00021778489316278806 0 0 -0.00021616404130699236 0 0 -0.00021616404130699236 0 0 -0.00021454417367548642 0 0 -0.00021454417367548642 0 0 -0.00021292526143795149 0 0 -0.00021292526143795149 0 0 -0.00021130727656338384 0 0 -0.00021130727656338384 0 0 -0.00020969019179988674 0 0 -0.00020969019179988674 0 0 -0.00020807398065488133 0 0 -0.00020807398065488133 0 0 -0.00020645861737573142 0 0 -0.00020645861737573142 0 0 -0.00020484407693077808 0 0 -0.00020484407693077808 0 0 -0.00020323033499077708 0 0 -0.00020323033499077708 0 0 -0.00020161736791074621 0 0 -0.00020161736791074621 0 0 -0.00020000515271219048 0 0 -0.00020000515271219048 0 0 -0.00019839366706574587 0 0 -0.00019839366706574587 0 0 -0.00019678288927417592 0 0 -0.00019678288927417592 0 0 -0.00019517279825577655 0 0 -0.00019517279825577655 0 0 -0.00019356337352813895 0 0 -0.00019356337352813895 0 0 -0.00019195459519228897 0 0 -0.00019195459519228897 0 0 -0.00019034644391718969 0 0 -0.00019034644391718969 0 0 -0.00018873890092460148 0 0 -0.00018873890092460148 0 0 -0.00018713194797429546 0 0 -0.00018713194797429546 0 0 -0.00018552556734961195 0 0 -0.00018552556734961195 0 0 -0.00018391974184336175 0 0 -0.00018391974184336175 0 0 -0.0001823144547440607 0 0 -0.0001823144547440607 0 0 -0.00018070968982249441 0 0 -0.00018070968982249441 0 0 -0.0001791054313186062 0 0 -0.0001791054313186062 0 0 -0.00017750166392870086 0 0 -0.00017750166392870086 0 0 -0.00017589837279296204 0 0 -0.00017589837279296204 0 0 -0.00017429554348327267 0 0 -0.00017429554348327267 0 0 -0.00017269316199133695 0 0 -0.00017269316199133695 0 0 -0.00017109121471709545 0 0 -0.00017109121471709545 0 0 -0.00016948968845742734 0 0 -0.00016948968845742734 0 0 -0.00016788857039513584 0 0 -0.00016788857039513584 0 0 -0.00016628784808820943 0 0 -0.00016628784808820943 0 0 -0.00016468750945935451 0 0 -0.00016468750945935451 0 0 -0.00016308754278579186 0 0 -0.00016308754278579186 0 0 -0.0001614879366893139 0 0 -0.0001614879366893139 0 0 -0.00015988868012659481 0 0 -0.00015988868012659481 0 0 -0.00015828976237974979 0 0 -0.00015828976237974979 0 0 -0.00015669117304713758 0 0 -0.00015669117304713758 0 0 -0.00015509290203439928 0 0 -0.00015509290203439928 0 0 -0.00015349493954573145 0 0 -0.00015349493954573145 0 0 -0.00015189727607538452 0 0 -0.00015189727607538452 0 0 -0.00015029990239938499 0 0 -0.00015029990239938499 0 0 -0.00014870280956747378 0 0 -0.00014870280956747378 0 0 -0.00014710598889525591 0 0 -0.00014710598889525591 0 0 -0.0001455094319565583 0 0 -0.0001455094319565583 0 0 -0.00014391313057598976 0 0 -0.00014391313057598976 0 0 -0.00014231707682169705 0 0 -0.00014231707682169705 0 0 -0.00014072126299831565 0 0 -0.00014072126299831565 0 0 -0.00013912568164010754 0 0 -0.00013912568164010754 0 0 -0.00013753032550428194 0 0 -0.00013753032550428194 0 0 -0.00013593518756449703 0 0 -0.00013593518756449703 0 0 -0.00013434026100453455 0 0 -0.00013434026100453455 0 0 -0.00013274553921214597 0 0 -0.00013274553921214597 0 0 -0.00013115101577306526 0 0 -0.00013115101577306526 0 0 -0.00012955668446518184 0 0 -0.00012955668446518184 0 0 -0.00012796253925287398 0 0 -0.00012796253925287398 0 0 -0.00012636857428149434 0 0 -0.00012636857428149434 0 0 -0.0001247747838720072 0 0 -0.0001247747838720072 0 0 -0.00012318116251577019 0 0 -0.00012318116251577019 0 0 -0.00012158770486946049 0 0 -0.00012158770486946049 0 0 -0.00011999440575013797 0 0 -0.00011999440575013797 0 0 -0.00011840126013044562 0 0 -0.00011840126013044562 0 0 -0.00011680826313393959 0 0 -0.00011680826313393959 0 0 -0.00011521541003054907 0 0 -0.00011521541003054907 0 0 -0.0001136226962321602 0 0 -0.0001136226962321602 0 0 -0.00011203011728832223 0 0 -0.00011203011728832223 0 0 -0.00011043766888207053 0 0 -0.00011043766888207053 0 0 -0.00010884534682586622 0 0 -0.00010884534682586622 0 0 -0.00010725314705764758 0 0 -0.00010725314705764758 0 0 -0.00010566106563698893 0 0 -0.00010566106563698893 0 0 -0.00010406909874136763 0 0 -0.00010406909874136763 0 0 -0.00010247724266253217 0 0 -0.00010247724266253217 0 0 -0.00010088549380297169 0 0 -0.00010088549380297169 0 0 -9.9293848672482929e-05 0 0 -9.9293848672482929e-05 0 0 -9.770230388483042e-05 0 0 -9.770230388483042e-05 0 0 -9.6110856154500864e-05 0 0 -9.6110856154500864e-05 0 0 -9.4519502293544588e-05 0 0 -9.4519502293544588e-05 0 0 -9.2928239208505911e-05 0 0 -9.2928239208505911e-05 0 0 -9.1337063897436411e-05 0 0 -9.1337063897436411e-05 0 0 -8.9745973446991311e-05 0 0 -8.9745973446991311e-05 0 0 -8.8154965029603777e-05 0 0 -8.8154965029603777e-05 0 0 -8.6564035900738471e-05 0 0 -8.6564035900738471e-05 0 0 -8.4973183396217769e-05 0 0 -8.4973183396217769e-05 0 0 -8.3382404929623451e-05 0 0 -8.3382404929623451e-05 0 0 -8.1791697989765842e-05 0 0 -8.1791697989765842e-05 0 0 -8.0201060138223801e-05 0 0 -8.0201060138223801e-05 0 0 -7.8610489006949836e-05 0 0 -7.8610489006949836e-05 0 0 -7.7019982295940337e-05 0 0 -7.7019982295940337e-05 0 0 -7.5429537770966713e-05 0 0 -7.5429537770966713e-05 0 0 -7.3839153261368896e-05 0 0 -7.3839153261368896e-05 0 0 -7.2248826657905313e-05 0 0 -7.2248826657905313e-05 0 0 -7.0658555910661078e-05 0 0 -7.0658555910661078e-05 0 0 -6.9068339027010604e-05 0 0 -6.9068339027010604e-05 0 0 -6.7478174069632305e-05 0 0 -6.7478174069632305e-05 0 0 -6.5888059154575786e-05 0 0 -6.5888059154575786e-05 0 0 -6.4297992449378644e-05 0 0 -6.4297992449378644e-05 0 0 -6.2707972171229703e-05 0 0 -6.2707972171229703e-05 0 0 -6.1117996585181327e-05 0 0 -6.1117996585181327e-05 0 0 -5.9528064002403227e-05 0 0 -5.9528064002403227e-05 0 0 -5.7938172778482182e-05 0 0 -5.7938172778482182e-05 0 0 -5.6348321311761882e-05 0 0 -5.6348321311761882e-05 0 0 -5.4758508041724107e-05 0 0 -5.4758508041724107e-05 0 0 -5.3168731447406892e-05 0 0 -5.3168731447406892e-05 0 0 -5.1578990045862322e-05 0 0 -5.1578990045862322e-05 0 0 -4.9989282390647818e-05 0 0 -4.9989282390647818e-05 0 0 -4.8399607070353895e-05 0 0 -4.8399607070353895e-05 0 0 -4.6809962707164447e-05 0 0 -4.6809962707164447e-05 0 0 -4.5220347955448082e-05 0 0 -4.5220347955448082e-05 0 0 -4.3630761500381321e-05 0 0 -4.3630761500381321e-05 0 0 -4.2041202056599994e-05 0 0 -4.2041202056599994e-05 0 0 -4.0451668366880222e-05 0 0 -4.0451668366880222e-05 0 0 -3.8862159200843685e-05 0 0 -3.8862159200843685e-05 0 0 -3.7272673353691583e-05 0 0 -3.7272673353691583e-05 0 0 -3.5683209644960155e-05 0 0 -3.5683209644960155e-05 0 0 -3.4093766917301936e-05 0 0 -3.4093766917301936e-05 0 0 -3.2504344035287088e-05 0 0 -3.2504344035287088e-05 0 0 -3.0914939884227212e-05 0 0 -3.0914939884227212e-05 0 0 -2.932555336901809e-05 0 0 -2.932555336901809e-05 0 0 -2.7736183413002386e-05 0 0 -2.7736183413002386e-05 0 0 -2.6146828956848182e-05 0 0 -2.6146828956848182e-05 0 0 -2.4557488957446369e-05 0 0 -2.4557488957446369e-05 0 0 -2.2968162386821669e-05 0 0 -2.2968162386821669e-05 0 0 -2.1378848231059418e-05 0 0 -2.1378848231059418e-05 0 0 -1.9789545489246007e-05 0 0 -1.9789545489246007e-05 0 0 -1.8200253172420543e-05 0 0 -1.8200253172420543e-05 0 0 -1.6610970302539147e-05 0 0 -1.6610970302539147e-05 0 0 -1.5021695911450044e-05 0 0 -1.5021695911450044e-05 0 0 -1.3432429039876508e-05 0 0 -1.3432429039876508e-05 0 0 -1.1843168736410496e-05 0 0 -1.1843168736410496e-05 0 0 -1.0253914056511846e-05 0 0 -1.0253914056511846e-05 0 0 -8.6646640615155578e-06 0 0 -8.6646640615155578e-06 0 0 -7.0754178176436847e-06 0 0 -7.0754178176436847e-06 0 0 -5.4861743950231211e-06 0 0 -5.4861743950231211e-06 0 0 -3.8969328667052306e-06 0 0 -3.8969328667052306e-06 0 0 -2.3076923076904243e-06 
</DataArray>
</PointData>
<CellData Scalars="" Vectors="" Tensors="stress,">
<DataArray type="Float64" Name="stress" NumberOfComponents="9" format="ascii">
-53692298.940481186 0 0 0 -53692298.940481186 0 0 0 -99714269.460895538 -53384787.556619644 0 0 0 -53384787.556619644 0 0 0 -99143176.890869141 -53077858.263313293 0 0 0 -53077858.263313293 0 0 0 -98573165.346153259 -52771867.933086395 0 0 0 -52771867.933086395 0 0 0 -98004897.590015411 -52467146.980335236 0 0 0 -52467146.980335236 0 0 0 -97438987.249191284 -52164000.804121017 0 0 0 -52164000.804121017 0 0 0 -96876001.493366241 -51862711.161384583 0 0 0 -51862711.161384583 0 0 0 -96316463.585426331 -51563537.473659515 0 0 0 -51563537.473659515 0 0 0 -95760855.308227539 -51266718.070367813 0 0 0 -51266718.070367813 0 0 0 -95209619.273540497 -50972471.371526718 0 0 0 -50972471.371526718 0 0 0 -94663161.118549347 -50680997.012571335 0 0 0 -50680997.012571335 0 0 0 -94121851.594779968 -50392476.914110184 0 0 0 -50392476.914110184 0 0 0 -93586028.554775238 -50107076.298851013 0 0 0 -50107076.298851013 0 0 0 -93055998.840724945 -49824944.658348083 0 0 0 -49824944.658348083 0 0 0 -92532040.079788208 -49546216.671733856 0 0 0 -49546216.671733856 0 0 0 -92014402.390361786 -49271013.078708649 0 0 0 -49271013.078708649 0 0 0 -91503310.003314972 -48999441.508850098 0 0 0 -48999441.508850098 0 0 0 -90998962.802148819 -48731597.269256592 0 0 0 -48731597.269256592 0 0 0 -90501537.78576088 -48467564.09249115 0 0 0 -48467564.09249115 0 0 0 -90011190.457483292 -48207414.846639633 0 0 0 -48207414.846639633 0 0 0 -89528056.143762589 -47951212.209180832 0 0 0 -47951212.209180832 0 0 0 -89052251.24561882 -47699009.306482315 0 0 0 -47699009.306482315 0 0 0 -88583874.426324844 -47450850.320419312 0 0 0 -47450850.320419312 0 0 0 -88123007.737920761 -47206771.063686371 0 0 0 -47206771.063686371 0 0 0 -87669717.689702988 -46966799.525287628 0 0 0 -46966799.525287628 0 0 0 -87224056.261249542 -46730956.387571335 0 0 0 -46730956.387571335 0 0 0 -86786061.862634659 -46499255.516206741 0 0 0 -46499255.516206741 0 0 0 -86355760.244386673 -46271704.424304962 0 0 0 -46271704.424304962 0 0 0 -85933165.359426498 -46048304.711989403 0 0 0 -46048304.711989403 0 0 0 -85518280.179409027 -45829052.482495308 0 0 0 -45829052.482495308 0 0 0 -85111097.467493057 -45613938.736059189 0 0 0 -45613938.736059189 0 0 0 -84711600.509822845 -45402949.742459297 0 0 0 -45402949.742459297 0 0 0 -84319763.807422638 -45196067.393396378 0 0 0 -45196067.393396378 0 0 0 -83935553.730594635 -44993269.535665512 0 0 0 -44993269.535665512 0 0 0 -83558929.137662888 -44794530.285916328 0 0 0 -44794530.285916328 0 0 0 -83189841.959558487 -44599820.328094482 0 0 0 -44599820.328094482 0 0 0 -82828237.752176285 -44409107.194201469 0 0 0 -44409107.194201469 0 0 0 -82474056.217803955 -44222355.529358864 0 0 0 -44222355.529358864 0 0 0 -82127231.697380066 -44039527.341821671 0 0 0 -44039527.341821671 0 0 0 -81787693.634811401 -43860582.238757133 0 0 0 -43860582.238757133 0 0 0 -81455367.014835358 -43685477.648449898 0 0 0 -43685477.648449898 0 0 0 -81130172.775691986 -43514169.029598236 0 0 0 -43514169.029598236 0 0 0 -80812028.197824478 -43346610.068418503 0 0 0 -43346610.068418503 0 0 0 -80500847.269920349 -43182752.864043236 0 0 0 -43182752.864043236 0 0 0 -80196541.033222198 -43022548.102891922 0 0 0 -43022548.102891922 0 0 0 -79899017.905370712 -42865945.222558975 0 0 0 -42865945.222558975 0 0 0 -79608183.984752655 -42712892.565699577 0 0 0 -42712892.565699577 0 0 0 -79323943.336299896 -42563337.524465561 0 0 0 -42563337.524465561 0 0 0 -79046198.259721756 -42417226.675971031 0 0 0 -42417226.675971031 0 0 0 -78774849.541088104 -42274505.909192085 0 0 0 -42274505.909192085 0 0 0 -78509796.688499451 -42135120.54384613 0 0 0 -42135120.54384613 0 0 0 -78250938.152858734 -41999015.441545486 0 0 0 -41999015.441545486 0 0 0 -77998171.534297943 -41866135.109716415 0 0 0 -41866135.109716415 0 0 0 -77751393.775188446 -41736423.798609734 0 0 0 -41736423.798609734 0 0 0 -77510501.340274811 -41609825.591802597 0 0 0 -41609825.591802597 0 0 0 -77275390.384775162 -41486284.490487099 0 0 0 -41486284.490487099 0 0 0 -77045956.910905838 -41365744.491942406 0 0 0 -41365744.491942406 0 0 0 -76822096.913606644 -41248149.662425995 0 0 0 -41248149.662425995 0 0 0 -76603706.51593399 -41133444.20484066 0 0 0 -41133444.20484066 0 0 0 -76390682.094703674 -41021572.521428108 0 0 0 -41021572.521428108 0 0 0 -76182920.396940231 -40912479.271791458 0 0 0 -40912479.271791458 0 0 0 -75980318.647611618 -40806109.426440239 0 0 0 -40806109.426440239 0 0 0 -75782774.649103165 -40702408.31619072 0 0 0 -40702408.31619072 0 0 0 -75590186.872926712 -40601321.677565575 0 0 0 -40601321.677565575 0 0 0 -75402454.544050217 -40502795.694486618 0 0 0 -40502795.694486618 0 0 0 -75219477.718332291 -40406777.036417961 0 0 0 -40406777.036417961 0 0 0 -75041157.353345871 -40313212.893202782 0 0 0 -40313212.893202782 0 0 0 -74867395.373092651 -40222051.006731033 0 0 0 -40222051.006731033 0 0 0 -74698094.72678566 -40133239.699687004 0 0 0 -40133239.699687004 0 0 0 -74533159.442276001 -40046727.901484489 0 0 0 -40046727.901484489 0 0 0 -74372494.674184799 -39962465.171591759 0 0 0 -39962465.171591759 0 0 0 -74216006.747241974 -39880401.720381737 0 0 0 -39880401.720381737 0 0 0 -74063603.194993973 -39800488.427678108 0 0 0 -39800488.427678108 0 0 0 -73915192.794260025 -39722676.859106064 0 0 0 -39722676.859106064 0 0 0 -73770685.59548378 -39646919.280414581 0 0 0 -39646919.280414581 0 0 0 -73629992.94934082 -39573168.669849396 0 0 0 -39573168.669849396 0 0 0 -73493027.529720306 -39501378.728768349 0 0 0 -39501378.728768349 0 0 0 -73359703.35342598 -39431503.890527725 0 0 0 -39431503.890527725 0 0 0 -73229935.796695709 -39363499.327816963 0 0 0 -39363499.327816963 0 0 0 -73103641.608802795 -39297320.95850563 0 0 0 -39297320.95850563 0 0 0 -72980738.922937393 -39232925.450110435 0 0 0 -39232925.450110435 0 0 0 -72861147.264490128 -39170270.222979546 0 0 0 -39170270.222979546 0 0 0 -72744787.55696106 -39109313.452270508 0 0 0 -39109313.452270508 0 0 0 -72631582.125646591 -39050014.068813324 0 0 0 -39050014.068813324 0 0 0 -72521454.699224472 -38992331.758929253 0 0 0 -38992331.758929253 0 0 0 -72414330.409439087 -38936226.963289261 0 0 0 -38936226.963289261 0 0 0 -72310135.788967133 -38881660.874867439 0 0 0 -38881660.874867439 0 0 0 -72208798.76761055 -38828595.436059952 0 0 0 -38828595.436059952 0 0 0 -72110248.666969299 -38776993.33505249 0 0 0 -38776993.33505249 0 0 0 -72014416.193670273 -38726818.001470566 0 0 0 -38726818.001470566 0 0 0 -71921233.431301117 -38678033.60135746 0 0 0 -38678033.60135746 0 0 0 -71830633.831092834 -38630605.031589508 0 0 0 -38630605.031589508 0 0 0 -71742552.201522827 -38584497.913706779 0 0 0 -38584497.913706779 0 0 0 -71656924.696886063 -38539678.587255478 0 0 0 -38539678.587255478 0 0 0 -71573688.80490303 -38496114.102663994 0 0 0 -38496114.102663994 0 0 0 -71492783.333517075 -38453772.213706017 0 0 0 -38453772.213706017 0 0 0 -71414148.396881104 -38412621.369584084 0 0 0 -38412621.369584084 0 0 0 -71337725.400655746 -38372630.706666946 0 0 0 -38372630.706666946 0 0 0 -71263457.026666641 -38333770.03992939 0 0 0 -38333770.03992939 0 0 0 -71191287.217012405 -38296009.854112625 0 0 0 -38296009.854112625 0 0 0 -71121161.157636642 -38259321.294633865 0 0 0 -38259321.294633865 0 0 0 -71053025.261463165 -38223676.158301353 0 0 0 -38223676.158301353 0 0 0 -70986827.151130676 -38189046.883815765 0 0 0 -38189046.883815765 0 0 0 -70922515.641372681 -38155406.542143822 0 0 0 -38155406.542143822 0 0 0 -70860040.721124649 -38122728.826720238 0 0 0 -38122728.826720238 0 0 0 -70799353.535337448 -38090988.043551445 0 0 0 -38090988.043551445 0 0 0 -70740406.366596222 -38060159.101246834 0 0 0 -38060159.101246834 0 0 0 -70683152.616601944 -38030217.500918388 0 0 0 -38030217.500918388 0 0 0 -70627546.787420273 -38001139.326086044 0 0 0 -38001139.326086044 0 0 0 -70573544.462730408 -37972901.232506752 0 0 0 -37972901.232506752 0 0 0 -70521102.28894043 -37945480.437987328 0 0 0 -37945480.437987328 0 0 0 -70470177.956260681 -37918854.712205887 0 0 0 -37918854.712205887 0 0 0 -70420730.17980957 -37893002.366513252 0 0 0 -37893002.366513252 0 0 0 -70372718.680667877 -37867902.243771553 0 0 0 -37867902.243771553 0 0 0 -70326104.167003632 -37843533.708210945 0 0 0 -37843533.708210945 0 0 0 -70280848.315248489 -37819876.635342598 0 0 0 -37819876.635342598 0 0 0 -70236913.751350403 -37796911.401919365 0 0 0 -37796911.401919365 0 0 0 -70194264.03213501 -37774618.875925064 0 0 0 -37774618.875925064 0 0 0 -70152863.626718521 -37752980.406687737 0 0 0 -37752980.406687737 0 0 0 -70112677.898134232 -37731977.815041542 0 0 0 -37731977.815041542 0 0 0 -70073673.085077286 -37711593.383568764 0 0 0 -37711593.383568764 0 0 0 -70035816.283771515 -37691809.846940994 0 0 0 -37691809.846940994 0 0 0 -69999075.43003273 -37672610.382353783 0 0 0 -37672610.382353783 0 0 0 -69963419.281513214 -37653978.600083351 0 0 0 -37653978.600083351 0 0 0 -69928817.400154114 -37635898.534113884 0 0 0 -37635898.534113884 0 0 0 -69895240.134782791 -37618354.632918358 0 0 0 -37618354.632918358 0 0 0 -69862658.603990555 -37601331.750326157 0 0 0 -37601331.750326157 0 0 0 -69831044.679176331 -37584815.136534691 0 0 0 -37584815.136534691 0 0 0 -69800370.967849731 -37568790.429217339 0 0 0 -37568790.429217339 0 0 0 -69770610.797117233 -37553243.644779205 0 0 0 -37553243.644779205 0 0 0 -69741738.197446823 -37538161.169734955 0 0 0 -37538161.169734955 0 0 0 -69713727.886651039 -37523529.7522192 0 0 0 -37523529.7522192 0 0 0 -69686555.25412178 -37509336.493623734 0 0 0 -37509336.493623734 0 0 0 -69660196.345302582 -37495568.8403759 0 0 0 -37495568.8403759 0 0 0 -69634627.846412659 -37482214.575847626 0 0 0 -37482214.575847626 0 0 0 -69609827.069431305 -37469261.812407017 0 0 0 -37469261.812407017 0 0 0 -69585771.937327385 -37456698.983593464 0 0 0 -37456698.983593464 0 0 0 -69562440.969530106 -37444514.836445808 0 0 0 -37444514.836445808 0 0 0 -69539813.26768589 -37432698.423960686 0 0 0 -37432698.423960686 0 0 0 -69517868.50164032 -37421239.097690582 0 0 0 -37421239.097690582 0 0 0 -69496586.895710945 -37410126.500475883 0 0 0 -37410126.500475883 0 0 0 -69475949.215168953 -37399350.559321404 0 0 0 -37399350.559321404 0 0 0 -69455936.753025055 -37388901.478399277 0 0 0 -37388901.478399277 0 0 0 -69436531.317028046 -37378769.73220396 0 0 0 -37378769.73220396 0 0 0 -69417715.216950417 -37368946.058825016 0 0 0 -37368946.058825016 0 0 0 -69399471.252103806 -37359421.453372002 0 0 0 -37359421.453372002 0 0 0 -69381782.699119568 -37350187.161515713 0 0 0 -37350187.161515713 0 0 0 -69364633.299957275 -37341234.673184395 0 0 0 -37341234.673184395 0 0 0 -69348007.250199318 -37332555.716361046 0 0 0 -37332555.716361046 0 0 0 -69331889.187527657 -37324142.251055241 0 0 0 -37324142.251055241 0 0 0 -69316264.180530548 -37315986.463347912 0 0 0 -37315986.463347912 0 0 0 -69301117.717646599 -37308080.759616852 0 0 0 -37308080.759616852 0 0 0 -69286435.69643116 -37300417.760853767 0 0 0 -37300417.760853767 0 0 0 -69272204.413014412 -37292990.29712677 0 0 0 -37292990.29712677 0 0 0 -69258410.55180645 -37285791.402153492 0 0 0 -37285791.402153492 0 0 0 -69245041.175426483 -37278814.30799818 0 0 0 -37278814.30799818 0 0 0 -69232083.714853287 -37272052.439888477 0 0 0 -37272052.439888477 0 0 0 -69219525.959793091 -37265499.411164284 0 0 0 -37265499.411164284 0 0 0 -69207356.049304962 -37259149.018320084 0 0 0 -37259149.018320084 0 0 0 -69195562.462594032 -37252995.236176968 0 0 0 -37252995.236176968 0 0 0 -69184134.010043144 -37247032.213169575 0 0 0 -37247032.213169575 0 0 0 -69173059.824457169 -37241254.266732693 0 0 0 -37241254.266732693 0 0 0 -69162329.352503777 -37235655.878798962 0 0 0 -37235655.878798962 0 0 0 -69151932.346340179 -37230231.6914258 0 0 0 -37230231.6914258 0 0 0 -69141858.855504036 -37224976.502497196 0 0 0 -37224976.502497196 0 0 0 -69132099.218922615 -37219885.261550426 0 0 0 -37219885.261550426 0 0 0 -69122644.057165146 -37214953.065694332 0 0 0 -37214953.065694332 0 0 0 -69113484.264861107 -37210175.15563345 0 0 0 -37210175.15563345 0 0 0 -69104611.003318787 -37205546.911787033 0 0 0 -37205546.911787033 0 0 0 -69096015.693318367 -37201063.850515842 0 0 0 -37201063.850515842 0 0 0 -69087690.00810051 -37196721.620419979 0 0 0 -37196721.620419979 0 0 0 -69079625.866494179 -37192515.998757839 0 0 0 -37192515.998757839 0 0 0 -69071815.426264763 -37188442.887936115 0 0 0 -37188442.887936115 0 0 0 -69064251.077595711 -37184498.312096596 0 0 0 -37184498.312096596 0 0 0 -69056925.436751366 -37180678.413795948 0 0 0 -37180678.413795948 0 0 0 -69049831.339906693 -37176979.450758457 0 0 0 -37176979.450758457 0 0 0 -69042961.837122917 -37173397.79272604 0 0 0 -37173397.79272604 0 0 0 -69036310.186490059 -37169929.918376923 0 0 0 -37169929.918376923 0 0 0 -69029869.848414421 -37166572.41234827 0 0 0 -37166572.41234827 0 0 0 -69023634.480075836 -37163321.962306976 0 0 0 -37163321.962306976 0 0 0 -69017597.929998398 -37160175.356122494 0 0 0 -37160175.356122494 0 0 0 -69011754.232798576 -37157129.479110241 0 0 0 -37157129.479110241 0 0 0 -69006097.60406208 -37154181.311333656 0 0 0 -37154181.311333656 0 0 0 -69000622.435334206 -37151327.925004482 0 0 0 -37151327.925004482 0 0 0 -68995323.289294243 -37148566.481935024 0 0 0 -37148566.481935024 0 0 0 -68990194.895022392 -37145894.231066704 0 0 0 -37145894.231066704 0 0 0 -68985232.143409729 -37143308.506063461 0 0 0 -37143308.506063461 0 0 0 -68980430.082689285 -37140806.722977638 0 0 0 -37140806.722977638 0 0 0 -68975783.914101601 -37138386.37797451 0 0 0 -37138386.37797451 0 0 0 -68971288.987667084 -37136045.045125008 0 0 0 -37136045.045125008 0 0 0 -68966940.798089981 -37133780.374260426 0 0 0 -37133780.374260426 0 0 0 -68962734.980769157 -37131590.088882923 0 0 0 -37131590.088882923 0 0 0 -68958667.307925224 -37129471.984138966 0 0 0 -37129471.984138966 0 0 0 -68954733.684829235 -37127423.924855232 0 0 0 -37127423.924855232 0 0 0 -68950930.146159172 -37125443.843622208 0 0 0 -37125443.843622208 0 0 0 -68947252.852440834 -37123529.738942385 0 0 0 -37123529.738942385 0 0 0 -68943698.086607456 -37121679.673428059 0 0 0 -37121679.673428059 0 0 0 -68940262.250651836 -37119891.772048712 0 0 0 -37119891.772048712 0 0 0 -68936941.862376213 -37118164.220438242 0 0 0 -37118164.220438242 0 0 0 -68933733.552242279 -37116495.263247252 0 0 0 -37116495.263247252 0 0 0 -68930634.060316086 -37114883.202550888 0 0 0 -37114883.202550888 0 0 0 -68927640.233308792 -37113326.396292448 0 0 0 -37113326.396292448 0 0 0 -68924749.021686077 -37111823.256791592 0 0 0 -37111823.256791592 0 0 0 -68921957.47689867 -37110372.249284506 0 0 0 -37110372.249284506 0 0 0 -68919262.748671055 -37108971.890519857 0 0 0 -37108971.890519857 0 0 0 -68916662.082394123 -37107620.747386694 0 0 0 -37107620.747386694 0 0 0 -68914152.816575527 -37106317.43559885 0 0 0 -37106317.43559885 0 0 0 -68911732.380397797 -37105060.618414164 0 0 0 -37105060.618414164 0 0 0 -68909398.291340828 -37103849.005396843 0 0 0 -37103849.005396843 0 0 0 -68907148.152879715 -37102681.3512187 0 0 0 -37102681.3512187 0 0 0 -68904979.652263641 -37101556.454504013 0 0 0 -37101556.454504013 0 0 0 -68902890.558364868 -37100473.156707525 0 0 0 -37100473.156707525 0 0 0 -68900878.719600201 -37099430.341032982 0 0 0 -37099430.341032982 0 0 0 -68898942.061918259 -37098426.931391954 0 0 0 -37098426.931391954 0 0 0 -68897078.586871147 -37097461.891394377 0 0 0 -37097461.891394377 0 0 0 -68895286.36973238 -37096534.223373652 0 0 0 -37096534.223373652 0 0 0 -68893563.557694435 -37095642.967451334 0 0 0 -37095642.967451334 0 0 0 -68891908.368123531 -37094787.200634956 0 0 0 -37094787.200634956 0 0 0 -68890319.086893559 -37093966.035944223 0 0 0 -37093966.035944223 0 0 0 -68888794.066753387 -37093178.621574879 0 0 0 -37093178.621574879 0 0 0 -68887331.725781918 -37092424.140091658 0 0 0 -37092424.140091658 0 0 0 -68885930.545884371 -37091701.807657003 0 0 0 -37091701.807657003 0 0 0 -68884589.071362972 -37091010.873285055 0 0 0 -37091010.873285055 0 0 0 -68883305.907529354 -37090350.618128657 0 0 0 -37090350.618128657 0 0 0 -68882079.719381809 -37089720.354796648 0 0 0 -37089720.354796648 0 0 0 -68880909.230336666 -37089119.426698923 0 0 0 -37089119.426698923 0 0 0 -68879793.221012354 -37088547.207419276 0 0 0 -37088547.207419276 0 0 0 -68878730.528064251 -37088003.100118995 0 0 0 -37088003.100118995 0 0 0 -68877720.043077946 -37087486.536966681 0 0 0 -37087486.536966681 0 0 0 -68876760.711509705 -37086996.978595018 0 0 0 -37086996.978595018 0 0 0 -68875851.531676531 -37086533.913582921 0 0 0 -37086533.913582921 0 0 0 -68874991.553797007 -37086096.857968092 0 0 0 -37086096.857968092 0 0 0 -68874179.879083395 -37085685.35477972 0 0 0 -37085685.35477972 0 0 0 -68873415.658876419 -37085298.973602891 0 0 0 -37085298.973602891 0 0 0 -68872698.093834162 -37084937.310164928 0 0 0 -37084937.310164928 0 0 0 -68872026.433163404 -37084599.985945463 0 0 0 -37084599.985945463 0 0 0 -68871399.973898888 -37084286.647812903 0 0 0 -37084286.647812903 0 0 0 -68870818.060223937 -37083996.967685997 0 0 0 -37083996.967685997 0 0 0 -68870280.08284533 -37083730.642216086 0 0 0 -37083730.642216086 0 0 0 -68869785.478401303 -37083487.392498374 0 0 0 -37083487.392498374 0 0 0 -68869333.728925586 -37083266.963799357 0 0 0 -37083266.963799357 0 0 0 -68868924.361341596 -37083069.125315607 0 0 0 -37083069.125315607 0 0 0 -68868556.947014809 -37082893.669949234 0 0 0 -37082893.669949234 0 0 0 -68868231.101334333 -37082740.414110124 0 0 0 -37082740.414110124 0 0 0 -68867946.483347476 -37082609.197538406 0 0 0 -37082609.197538406 0 0 0 -68867702.795428455 -37082499.883150965 0 0 0 -37082499.883150965 0 0 0 -68867499.782994628 -37082412.356910497 0 0 0 -37082412.356910497 0 0 0 -68867337.234262347 -37082346.527716368 0 0 0 -37082346.527716368 0 0 0 -68867214.980044663 -37082302.327317581 0 0 0 -37082302.327317581 0 0 0 -68867132.893589765 -37082279.710248686 0 0 0 -37082279.710248686 0 0 0 -68867090.890461862 
</DataArray>
</CellData>
</Piece>
</UnstructuredGrid>
</VTKFile>
