<?xml version="1.0"?>
<VTKFile type="UnstructuredGrid" version="0.1" byte_order="LittleEndian">
<UnstructuredGrid>
<Piece NumberOfPoints="500" NumberOfCells="250">
<Points>
<DataArray type="Float64" NumberOfComponents="3" format="ascii">
0 0 -0.24899999999999739 0 0 -0.25 0 0 -0.2479999999999947 0 0 -0.24899999999999739 0 0 -0.24699999999999209 0 0 -0.2479999999999947 0 0 -0.24599999999998939 0 0 -0.24699999999999209 0 0 -0.24499999999998681 0 0 -0.24599999999998939 0 0 -0.2439999999999842 0 0 -0.24499999999998681 0 0 -0.2419999999999789 0 0 -0.24299999999998159 0 0 -0.24299999999998159 0 0 -0.2439999999999842 0 0 -0.2339999999999578 0 0 -0.23499999999996049 0 0 -0.23499999999996049 0 0 -0.2359999999999631 0 0 -0.2359999999999631 0 0 -0.23699999999996571 0 0 -0.23699999999996571 0 0 -0.2379999999999684 0 0 -0.2379999999999684 0 0 -0.23899999999997101 0 0 -0.23899999999997101 0 0 -0.2399999999999736 0 0 -0.2399999999999736 0 0 -0.24099999999997629 0 0 -0.24099999999997629 0 0 -0.2419999999999789 0 0 -0.22699999999993939 0 0 -0.227999999999942 0 0 -0.227999999999942 0 0 -0.22899999999994469 0 0 -0.22899999999994469 0 0 -0.2299999999999473 0 0 -0.2299999999999473 0 0 -0.23099999999994991 0 0 -0.23099999999994991 0 0 -0.23199999999995249 0 0 -0.23199999999995249 0 0 -0.23299999999995519 0 0 -0.23299999999995519 0 0 -0.2339999999999578 0 0 -0.22499999999993411 0 0 -0.2259999999999367 0 0 -0.2259999999999367 0 0 -0.22699999999993939 0 0 -0.22399999999993139 0 0 -0.22499999999993411 0 0 -0.22299999999992881 0 0 -0.22399999999993139 0 0 -0.2219999999999262 0 0 -0.22299999999992881 0 0 -0.22099999999992359 0 0 -0.2219999999999262 0 0 -0.2199999999999209 0 0 -0.22099999999992359 0 0 -0.21899999999991829 0 0 -0.2199999999999209 0 0 -0.21799999999991571 0 0 -0.21899999999991829 0 0 -0.21699999999991301 0 0 -0.21799999999991571 0 0 -0.21499999999990771 0 0 -0.2159999999999104 0 0 -0.2159999999999104 0 0 -0.21699999999991301 0 0 -0.21299999999990249 0 0 -0.2139999999999051 0 0 -0.2139999999999051 0 0 -0.21499999999990771 0 0 -0.21199999999989991 0 0 -0.21299999999990249 0 0 -0.21099999999989719 0 0 -0.21199999999989991 0 0 -0.2099999999998946 0 0 -0.21099999999989719 0 0 -0.20899999999989191 0 0 -0.2099999999998946 0 0 -0.2079999999998893 0 0 -0.20899999999989191 0 0 -0.20699999999988669 0 0 -0.2079999999998893 0 0 -0.20299999999987611 0 0 -0.20399999999987881 0 0 -0.20399999999987881 0 0 -0.20499999999988139 0 0 -0.20499999999988139 0 0 -0.205999999999884 0 0 -0.205999999999884 0 0 -0.20699999999988669 0 0 -0.1879999999998366 0 0 -0.18899999999983921 0 0 -0.18999999999984191 0 0 -0.19099999999984449 0 0 -0.18899999999983921 0 0 -0.18999999999984191 0 0 -0.1919999999998471 0 0 -0.19299999999984971 0 0 -0.19099999999984449 0 0 -0.1919999999998471 0 0 -0.1939999999998524 0 0 -0.19499999999985501 0 0 -0.19299999999984971 0 0 -0.1939999999998524 0 0 -0.1959999999998577 0 0 -0.19699999999986029 0 0 -0.19499999999985501 0 0 -0.1959999999998577 0 0 -0.19799999999986301 0 0 -0.19899999999986559 0 0 -0.19699999999986029 0 0 -0.19799999999986301 0 0 -0.1999999999998682 0 0 -0.20099999999987081 0 0 -0.19899999999986559 0 0 -0.1999999999998682 0 0 -0.2019999999998735 0 0 -0.20299999999987611 0 0 -0.20099999999987081 0 0 -0.2019999999998735 0 0 -0.13099999999968631 0 0 -0.13199999999968889 0 0 -0.13199999999968889 0 0 -0.13299999999969159 0 0 -0.1299999999996837 0 0 -0.13099999999968631 0 0 -0.12899999999968109 0 0 -0.1299999999996837 0 0 -0.1279999999996784 0 0 -0.12899999999968109 0 0 -0.12699999999967579 0 0 -0.1279999999996784 0 0 -0.12599999999967451 0 0 -0.12699999999967579 0 0 -0.12499999999967321 0 0 -0.12599999999967451 0 0 -0.13999999999971011 0 0 -0.14099999999971269 0 0 -0.13899999999970741 0 0 -0.13999999999971011 0 0 -0.1379999999997048 0 0 -0.13899999999970741 0 0 -0.13699999999970211 0 0 -0.1379999999997048 0 0 -0.1359999999996995 0 0 -0.13699999999970211 0 0 -0.13499999999969689 0 0 -0.1359999999996995 0 0 -0.13299999999969159 0 0 -0.1339999999996942 0 0 -0.1339999999996942 0 0 -0.13499999999969689 0 0 -0.14599999999972579 0 0 -0.14699999999972849 0 0 -0.14699999999972849 0 0 -0.1479999999997311 0 0 -0.14499999999972321 0 0 -0.14599999999972579 0 0 -0.1439999999997206 0 0 -0.14499999999972321 0 0 -0.14299999999971799 0 0 -0.1439999999997206 0 0 -0.1419999999997153 0 0 -0.14299999999971799 0 0 -0.14099999999971269 0 0 -0.1419999999997153 0 0 -0.15499999999974959 0 0 -0.1559999999997522 0 0 -0.15399999999974701 0 0 -0.15499999999974959 0 0 -0.15299999999974431 0 0 -0.15399999999974701 0 0 -0.1519999999997417 0 0 -0.15299999999974431 0 0 -0.15099999999973901 0 0 -0.1519999999997417 0 0 -0.1499999999997364 0 0 -0.15099999999973901 0 0 -0.1479999999997311 0 0 -0.14899999999973379 0 0 -0.14899999999973379 0 0 -0.1499999999997364 0 0 -0.161999999999768 0 0 -0.16299999999977069 0 0 -0.16299999999977069 0 0 -0.1639999999997733 0 0 -0.16099999999976539 0 0 -0.161999999999768 0 0 -0.1599999999997628 0 0 -0.16099999999976539 0 0 -0.15899999999976011 0 0 -0.1599999999997628 0 0 -0.1579999999997575 0 0 -0.15899999999976011 0 0 -0.15699999999975489 0 0 -0.1579999999997575 0 0 -0.1559999999997522 0 0 -0.15699999999975489 0 0 -0.17099999999979171 0 0 -0.1719999999997944 0 0 -0.1699999999997891 0 0 -0.17099999999979171 0 0 -0.16899999999978649 0 0 -0.1699999999997891 0 0 -0.16799999999978391 0 0 -0.16899999999978649 0 0 -0.16699999999978121 0 0 -0.16799999999978391 0 0 -0.1659999999997786 0 0 -0.16699999999978121 0 0 -0.1639999999997733 0 0 -0.16499999999977599 0 0 -0.16499999999977599 0 0 -0.1659999999997786 0 0 -0.1779999999998102 0 0 -0.17899999999981281 0 0 -0.17899999999981281 0 0 -0.1799999999998155 0 0 -0.17699999999980759 0 0 -0.1779999999998102 0 0 -0.17599999999980501 0 0 -0.17699999999980759 0 0 -0.17499999999980231 0 0 -0.17599999999980501 0 0 -0.1739999999997997 0 0 -0.17499999999980231 0 0 -0.17299999999979701 0 0 -0.1739999999997997 0 0 -0.1719999999997944 0 0 -0.17299999999979701 0 0 -0.18699999999983391 0 0 -0.1879999999998366 0 0 -0.1859999999998313 0 0 -0.18699999999983391 0 0 -0.18499999999982869 0 0 -0.1859999999998313 0 0 -0.183999999999826 0 0 -0.18499999999982869 0 0 -0.18299999999982339 0 0 -0.183999999999826 0 0 -0.18199999999982069 0 0 -0.18299999999982339 0 0 -0.1799999999998155 0 0 -0.18099999999981811 0 0 -0.18099999999981811 0 0 -0.18199999999982069 0 0 -0.067999999999836705 0 0 -0.068999999999833792 0 0 -0.068999999999833792 0 0 -0.069999999999830878 0 0 -0.066999999999839618 0 0 -0.067999999999836705 0 0 -0.065999999999842532 0 0 -0.066999999999839618 0 0 -0.064999999999845445 0 0 -0.065999999999842532 0 0 -0.063999999999848373 0 0 -0.064999999999845445 0 0 -0.062999999999851286 0 0 -0.063999999999848373 0 0 -0.07699999999981047 0 0 -0.077999999999807557 0 0 -0.075999999999813383 0 0 -0.07699999999981047 0 0 -0.074999999999816297 0 0 -0.075999999999813383 0 0 -0.07399999999981921 0 0 -0.074999999999816297 0 0 -0.072999999999822124 0 0 -0.07399999999981921 0 0 -0.071999999999825051 0 0 -0.072999999999822124 0 0 -0.069999999999830878 0 0 -0.070999999999827965 0 0 -0.070999999999827965 0 0 -0.071999999999825051 0 0 -0.083999999999790062 0 0 -0.084999999999787149 0 0 -0.084999999999787149 0 0 -0.085999999999784235 0 0 -0.082999999999792975 0 0 -0.083999999999790062 0 0 -0.081999999999795889 0 0 -0.082999999999792975 0 0 -0.080999999999798802 0 0 -0.081999999999795889 0 0 -0.07999999999980173 0 0 -0.080999999999798802 0 0 -0.078999999999804643 0 0 -0.07999999999980173 0 0 -0.077999999999807557 0 0 -0.078999999999804643 0 0 -0.092999999999763827 0 0 -0.093999999999760914 0 0 -0.091999999999766741 0 0 -0.092999999999763827 0 0 -0.090999999999769654 0 0 -0.091999999999766741 0 0 -0.089999999999772567 0 0 -0.090999999999769654 0 0 -0.088999999999775481 0 0 -0.089999999999772567 0 0 -0.087999999999778394 0 0 -0.088999999999775481 0 0 -0.085999999999784235 0 0 -0.086999999999781322 0 0 -0.086999999999781322 0 0 -0.087999999999778394 0 0 -0.099999999999743419 0 0 -0.10099999999974051 0 0 -0.10099999999974051 0 0 -0.10199999999973761 0 0 -0.098999999999746333 0 0 -0.099999999999743419 0 0 -0.097999999999749246 0 0 -0.098999999999746333 0 0 -0.096999999999752159 0 0 -0.097999999999749246 0 0 -0.095999999999755073 0 0 -0.096999999999752159 0 0 -0.094999999999758 0 0 -0.095999999999755073 0 0 -0.093999999999760914 0 0 -0.094999999999758 0 0 -0.1079999999997201 0 0 -0.1089999999997172 0 0 -0.106999999999723 0 0 -0.1079999999997201 0 0 -0.1059999999997259 0 0 -0.106999999999723 0 0 -0.1049999999997288 0 0 -0.1059999999997259 0 0 -0.10399999999973179 0 0 -0.1049999999997288 0 0 -0.10199999999973761 0 0 -0.10299999999973471 0 0 -0.10299999999973471 0 0 -0.10399999999973179 0 0 -0.1149999999996997 0 0 -0.1159999999996968 0 0 -0.1159999999996968 0 0 -0.11699999999969379 0 0 -0.1139999999997026 0 0 -0.1149999999996997 0 0 -0.1129999999997055 0 0 -0.1139999999997026 0 0 -0.1119999999997084 0 0 -0.1129999999997055 0 0 -0.1109999999997113 0 0 -0.1119999999997084 0 0 -0.1099999999997143 0 0 -0.1109999999997113 0 0 -0.1089999999997172 0 0 -0.1099999999997143 0 0 -0.1239999999996748 0 0 -0.12499999999967321 0 0 -0.1229999999996764 0 0 -0.1239999999996748 0 0 -0.1219999999996793 0 0 -0.1229999999996764 0 0 -0.1209999999996822 0 0 -0.1219999999996793 0 0 -0.11999999999968509 0 0 -0.1209999999996822 0 0 -0.11899999999968799 0 0 -0.11999999999968509 0 0 -0.11699999999969379 0 0 -0.11799999999969089 0 0 -0.11799999999969089 0 0 -0.11899999999968799 0 0 -0.047999999999895078 0 0 -0.048999999999892158 0 0 -0.046999999999897998 0 0 -0.047999999999895078 0 0 -0.049999999999889237 0 0 -0.050999999999886317 0 0 -0.048999999999892158 0 0 -0.049999999999889237 0 0 -0.051999999999883403 0 0 -0.052999999999880483 0 0 -0.050999999999886317 0 0 -0.051999999999883403 0 0 -0.053999999999877563 0 0 -0.054999999999874642 0 0 -0.052999999999880483 0 0 -0.053999999999877563 0 0 -0.055999999999871722 0 0 -0.056999999999868801 0 0 -0.054999999999874642 0 0 -0.055999999999871722 0 0 -0.057999999999865881 0 0 -0.058999999999862961 0 0 -0.056999999999868801 0 0 -0.057999999999865881 0 0 -0.059999999999860047 0 0 -0.060999999999857127 0 0 -0.058999999999862961 0 0 -0.059999999999860047 0 0 -0.061999999999854213 0 0 -0.062999999999851286 0 0 -0.060999999999857127 0 0 -0.061999999999854213 0 0 -0.042999999999909673 0 0 -0.043999999999906753 0 0 -0.043999999999906753 0 0 -0.044999999999903832 0 0 -0.044999999999903832 0 0 -0.045999999999900919 0 0 -0.045999999999900919 0 0 -0.046999999999897998 0 0 -0.041999999999912593 0 0 -0.042999999999909673 0 0 -0.040999999999915507 0 0 -0.041999999999912593 0 0 -0.039999999999918427 0 0 -0.040999999999915507 0 0 -0.038999999999921348 0 0 -0.039999999999918427 0 0 -0.037999999999924268 0 0 -0.038999999999921348 0 0 -0.036999999999927188 0 0 -0.037999999999924268 0 0 -0.034999999999933022 0 0 -0.035999999999930102 0 0 -0.035999999999930102 0 0 -0.036999999999927188 0 0 -0.032999999999938787 0 0 -0.033999999999935943 0 0 -0.033999999999935943 0 0 -0.034999999999933022 0 0 -0.031999999999941367 0 0 -0.032999999999938787 0 0 -0.03099999999994377 0 0 -0.031999999999941367 0 0 -0.02999999999994565 0 0 -0.03099999999994377 0 0 -0.028999999999947419 0 0 -0.02999999999994565 0 0 -0.027999999999948951 0 0 -0.028999999999947419 0 0 -0.02699999999995048 0 0 -0.027999999999948951 0 0 -0.02599999999995202 0 0 -0.02699999999995048 0 0 -0.024999999999953549 0 0 -0.02599999999995202 0 0 -0.022999999999956611 0 0 -0.023999999999955082 0 0 -0.023999999999955082 0 0 -0.024999999999953549 0 0 -0.01599999999996761 0 0 -0.0169999999999659 0 0 -0.0169999999999659 0 0 -0.01799999999996427 0 0 -0.01799999999996427 0 0 -0.018999999999962731 0 0 -0.018999999999962731 0 0 -0.019999999999961209 0 0 -0.019999999999961209 0 0 -0.020999999999959669 0 0 -0.020999999999959669 0 0 -0.02199999999995814 0 0 -0.02199999999995814 0 0 -0.022999999999956611 0 0 -0.007999999999984719 0 0 -0.008999999999982581 0 0 -0.008999999999982581 0 0 -0.0099999999999804221 0 0 -0.0099999999999804221 0 0 -0.010999999999978201 0 0 -0.010999999999978201 0 0 -0.011999999999975971 0 0 -0.011999999999975971 0 0 -0.01299999999997375 0 0 -0.01299999999997375 0 0 -0.01399999999997158 0 0 -0.01399999999997158 0 0 -0.014999999999969531 0 0 -0.014999999999969531 0 0 -0.01599999999996761 0 0 -0.0059999999999886811 0 0 -0.0069999999999867156 0 0 -0.0069999999999867156 0 0 -0.007999999999984719 0 0 -0.004999999999990571 0 0 -0.0059999999999886811 0 0 -0.0039999999999924488 0 0 -0.004999999999990571 0 0 -0.0029999999999943271 0 0 -0.0039999999999924488 0 0 -0.001999999999996204 0 0 -0.0029999999999943271 0 0 -0.00099999999999810158 0 0 -0.001999999999996204 0 0 0 0 0 -0.00099999999999810158 
</DataArray>
</Points>
<Cells>
<DataArray type="UInt32" Name="connectivity" format="ascii">
0 1 2 3 4 5 6 7 8 9 10 11 12 13 14 15 16 17 18 19 20 21 22 23 24 25 26 27 28 29 30 31 32 33 34 35 36 37 38 39 40 41 42 43 44 45 46 47 48 49 50 51 52 53 54 55 56 57 58 59 60 61 62 63 64 65 66 67 68 69 70 71 72 73 74 75 76 77 78 79 80 81 82 83 84 85 86 87 88 89 90 91 92 93 94 95 96 97 98 99 100 101 102 103 104 105 106 107 108 109 110 111 112 113 114 115 116 117 118 119 120 121 122 123 124 125 126 127 128 129 130 131 132 133 134 135 136 137 138 139 140 141 142 143 144 145 146 147 148 149 150 151 152 153 154 155 156 157 158 159 160 161 162 163 164 165 166 167 168 169 170 171 172 173 174 175 176 177 178 179 180 181 182 183 184 185 186 187 188 189 190 191 192 193 194 195 196 197 198 199 200 201 202 203 204 205 206 207 208 209 210 211 212 213 214 215 216 217 218 219 220 221 222 223 224 225 226 227 228 229 230 231 232 233 234 235 236 237 238 239 240 241 242 243 244 245 246 247 248 249 250 251 252 253 254 255 256 257 258 259 260 261 262 263 264 265 266 267 268 269 270 271 272 273 274 275 276 277 278 279 280 281 282 283 284 285 286 287 288 289 290 291 292 293 294 295 296 297 298 299 300 301 302 303 304 305 306 307 308 309 310 311 312 313 314 315 316 317 318 319 320 321 322 323 324 325 326 327 328 329 330 331 332 333 334 335 336 337 338 339 340 341 342 343 344 345 346 347 348 349 350 351 352 353 354 355 356 357 358 359 360 361 362 363 364 365 366 367 368 369 370 371 372 373 374 375 376 377 378 379 380 381 382 383 384 385 386 387 388 389 390 391 392 393 394 395 396 397 398 399 400 401 402 403 404 405 406 407 408 409 410 411 412 413 414 415 416 417 418 419 420 421 422 423 424 425 426 427 428 429 430 431 432 433 434 435 436 437 438 439 440 441 442 443 444 445 446 447 448 449 450 451 452 453 454 455 456 457 458 459 460 461 462 463 464 465 466 467 468 469 470 471 472 473 474 475 476 477 478 479 480 481 482 483 484 485 486 487 488 489 490 491 492 493 494 495 496 497 498 499 
</DataArray>
<DataArray type="UInt32" Name="offsets" format="ascii">
2 4 6 8 10 12 14 16 18 20 22 24 26 28 30 32 34 36 38 40 42 44 46 48 50 52 54 56 58 60 62 64 66 68 70 72 74 76 78 80 82 84 86 88 90 92 94 96 98 100 102 104 106 108 110 112 114 116 118 120 122 124 126 128 130 132 134 136 138 140 142 144 146 148 150 152 154 156 158 160 162 164 166 168 170 172 174 176 178 180 182 184 186 188 190 192 194 196 198 200 202 204 206 208 210 212 214 216 218 220 222 224 226 228 230 232 234 236 238 240 242 244 246 248 250 252 254 256 258 260 262 264 266 268 270 272 274 276 278 280 282 284 286 288 290 292 294 296 298 300 302 304 306 308 310 312 314 316 318 320 322 324 326 328 330 332 334 336 338 340 342 344 346 348 350 352 354 356 358 360 362 364 366 368 370 372 374 376 378 380 382 384 386 388 390 392 394 396 398 400 402 404 406 408 410 412 414 416 418 420 422 424 426 428 430 432 434 436 438 440 442 444 446 448 450 452 454 456 458 460 462 464 466 468 470 472 474 476 478 480 482 484 486 488 490 492 494 496 498 500 
</DataArray>
<DataArray type="UInt32" Name="types" format="ascii">
3 3 3 3 3 3 3 3 3 3 3 3 3 3 3 3 3 3 3 3 3 3 3 3 3 3 3 3 3 3 3 3 3 3 3 3 3 3 3 3 3 3 3 3 3 3 3 3 3 3 3 3 3 3 3 3 3 3 3 3 3 3 3 3 3 3 3 3 3 3 3 3 3 3 3 3 3 3 3 3 3 3 3 3 3 3 3 3 3 3 3 3 3 3 3 3 3 3 3 3 3 3 3 3 3 3 3 3 3 3 3 3 3 3 3 3 3 3 3 3 3 3 3 3 3 3 3 3 3 3 3 3 3 3 3 3 3 3 3 3 3 3 3 3 3 3 3 3 3 3 3 3 3 3 3 3 3 3 3 3 3 3 3 3 3 3 3 3 3 3 3 3 3 3 3 3 3 3 3 3 3 3 3 3 3 3 3 3 3 3 3 3 3 3 3 3 3 3 3 3 3 3 3 3 3 3 3 3 3 3 3 3 3 3 3 3 3 3 3 3 3 3 3 3 3 3 3 3 3 3 3 3 3 3 3 3 3 3 3 3 3 3 3 3 3 3 3 3 3 3 
</DataArray>
</Cells>
<PointData Scalars="" Vectors="displacement," Tensors="">
<DataArray type="Float64" Name="displacement" NumberOfComponents="3" format="ascii">
0 0 -1.6666245817663023e-07 0 0 -8.3333333333500574e-08 0 0 -2.4999158301977272e-07 0 0 -1.6666245817663023e-07 0 0 -3.3332070786292031e-07 0 0 -2.4999158301977272e-07 0 0 -4.166498327060929e-07 0 0 -3.3332070786292031e-07 0 0 -4.9997895754928063e-07 0 0 -4.166498327060929e-07 0 0 -5.8330808239250139e-07 0 0 -4.9997895754928063e-07 0 0 -7.4996633207907187e-07 0 0 -6.6663720723576037e-07 0 0 -6.6663720723576037e-07 0 0 -5.8330808239250139e-07 0 0 -1.4165993308250307e-06 0 0 -1.3332702059824339e-06 0 0 -1.3332702059824339e-06 0 0 -1.2499410811395649e-06 0 0 -1.2499410811395649e-06 0 0 -1.1666119562964037e-06 0 0 -1.1666119562964037e-06 0 0 -1.0832828314529307e-06 0 0 -1.0832828314529307e-06 0 0 -9.9995370660935333e-07 0 0 -9.9995370660935333e-07 0 0 -9.1662458176586057e-07 0 0 -9.1662458176586057e-07 0 0 -8.3329545692243091e-07 0 0 -8.3329545692243091e-07 0 0 -7.4996633207907187e-07 0 0 -1.9999032047319541e-06 0 0 -1.9165740798872955e-06 0 0 -1.9165740798872955e-06 0 0 -1.8332449550427402e-06 0 0 -1.8332449550427402e-06 0 0 -1.7499158301982826e-06 0 0 -1.7499158301982826e-06 0 0 -1.6665867053539003e-06 0 0 -1.6665867053539003e-06 0 0 -1.5832575805100947e-06 0 0 -1.5832575805100947e-06 0 0 -1.4999284556673557e-06 0 0 -1.4999284556673557e-06 0 0 -1.4165993308250307e-06 0 0 -2.166561454421871e-06 0 0 -2.0832323295767482e-06 0 0 -2.0832323295767482e-06 0 0 -1.9999032047319541e-06 0 0 -2.2498905792675528e-06 0 0 -2.166561454421871e-06 0 0 -2.3332197041137949e-06 0 0 -2.2498905792675528e-06 0 0 -2.4165488289606329e-06 0 0 -2.3332197041137949e-06 0 0 -2.4998779538080914e-06 0 0 -2.4165488289606329e-06 0 0 -2.5832070786562072e-06 0 0 -2.4998779538080914e-06 0 0 -2.6665362035049989e-06 0 0 -2.5832070786562072e-06 0 0 -2.7498653283545055e-06 0 0 -2.6665362035049989e-06 0 0 -2.8331944532047752e-06 0 0 -2.7498653283545055e-06 0 0 -2.9998527029077529e-06 0 0 -2.9165235780558382e-06 0 0 -2.9165235780558382e-06 0 0 -2.8331944532047752e-06 0 0 -3.1665109526142958e-06 0 0 -3.083181827760552e-06 0 0 -3.083181827760552e-06 0 0 -2.9998527029077529e-06 0 0 -3.2498400774690396e-06 0 0 -3.1665109526142958e-06 0 0 -3.3331692023248659e-06 0 0 -3.2498400774690396e-06 0 0 -3.4164983271818201e-06 0 0 -3.3331692023248659e-06 0 0 -3.4998274520399884e-06 0 0 -3.4164983271818201e-06 0 0 -3.5831565768994387e-06 0 0 -3.4998274520399884e-06 0 0 -3.666485701760257e-06 0 0 -3.5831565768994387e-06 0 0 -3.9998022012191859e-06 0 0 -3.9164730763518938e-06 0 0 -3.9164730763518938e-06 0 0 -3.8331439514863888e-06 0 0 -3.8331439514863888e-06 0 0 -3.7498148266225466e-06 0 0 -3.7498148266225466e-06 0 0 -3.666485701760257e-06 0 0 -5.2497390745440221e-06 0 0 -5.1664099496315899e-06 0 0 -5.0830808247233708e-06 0 0 -4.9997516998190692e-06 0 0 -5.1664099496315899e-06 0 0 -5.0830808247233708e-06 0 0 -4.9164225749183887e-06 0 0 -4.8330934500213487e-06 0 0 -4.9997516998190692e-06 0 0 -4.9164225749183887e-06 0 0 -4.7497643251279832e-06 0 0 -4.6664352002380702e-06 0 0 -4.8330934500213487e-06 0 0 -4.7497643251279832e-06 0 0 -4.5831060753513776e-06 0 0 -4.4997769504677122e-06 0 0 -4.6664352002380702e-06 0 0 -4.5831060753513776e-06 0 0 -4.4164478255868709e-06 0 0 -4.3331187007086952e-06 0 0 -4.4997769504677122e-06 0 0 -4.4164478255868709e-06 0 0 -4.2497895758329861e-06 0 0 -4.1664604509595978e-06 0 0 -4.3331187007086952e-06 0 0 -4.2497895758329861e-06 0 0 -4.0831313260883738e-06 0 0 -3.9998022012191859e-06 0 0 -4.1664604509595978e-06 0 0 -4.0831313260883738e-06 0 0 -9.9994992373693794e-06 0 0 -9.9161701091998328e-06 0 0 -9.9161701091998328e-06 0 0 -9.832840981267762e-06 0 0 -1.008282836579393e-05 0 0 -9.9994992373693794e-06 0 0 -1.0166157494492248e-05 0 0 -1.008282836579393e-05 0 0 -1.0249486623482369e-05 0 0 -1.0166157494492248e-05 0 0 -1.0332815752783725e-05 0 0 -1.0249486623482369e-05 0 0 -1.0416144882419242e-05 0 0 -1.0332815752783725e-05 0 0 -1.0499474012413677e-05 0 0 -1.0416144882419242e-05 0 0 -9.2495370910906563e-06 0 0 -9.1662079645342585e-06 0 0 -9.3328662177782376e-06 0 0 -9.2495370910906563e-06 0 0 -9.4161953446070005e-06 0 0 -9.3328662177782376e-06 0 0 -9.499524471587728e-06 0 0 -9.4161953446070005e-06 0 0 -9.5828535987314449e-06 0 0 -9.499524471587728e-06 0 0 -9.6661827260500572e-06 0 0 -9.5828535987314449e-06 0 0 -9.832840981267762e-06 0 0 -9.7495118535568396e-06 0 0 -9.7495118535568396e-06 0 0 -9.6661827260500572e-06 0 0 -8.7495623334094876e-06 0 0 -8.6662332074617897e-06 0 0 -8.6662332074617897e-06 0 0 -8.5829040815911158e-06 0 0 -8.832891459440271e-06 0 0 -8.7495623334094876e-06 0 0 -8.9162205855607061e-06 0 0 -8.832891459440271e-06 0 0 -8.9995497117779468e-06 0 0 -8.9162205855607061e-06 0 0 -9.0828788380996793e-06 0 0 -8.9995497117779468e-06 0 0 -9.1662079645342585e-06 0 0 -9.0828788380996793e-06 0 0 -7.9996002022443259e-06 0 0 -7.9162710768267046e-06 0 0 -8.0829293277057677e-06 0 0 -7.9996002022443259e-06 0 0 -8.1662584532144806e-06 0 0 -8.0829293277057677e-06 0 0 -8.2495875787741578e-06 0 0 -8.1662584532144806e-06 0 0 -8.3329167043878402e-06 0 0 -8.2495875787741578e-06 0 0 -8.416245830058843e-06 0 0 -8.3329167043878402e-06 0 0 -8.5829040815911158e-06 0 0 -8.4995749557917605e-06 0 0 -8.4995749557917605e-06 0 0 -8.416245830058843e-06 0 0 -7.4162963250572405e-06 0 0 -7.3329671998617087e-06 0 0 -7.3329671998617087e-06 0 0 -7.2496380746893534e-06 0 0 -7.4996254502778801e-06 0 0 -7.4162963250572405e-06 0 0 -7.5829545755257128e-06 0 0 -7.4996254502778801e-06 0 0 -7.6662837008023311e-06 0 0 -7.5829545755257128e-06 0 0 -7.7496128261094638e-06 0 0 -7.6662837008023311e-06 0 0 -7.8329419514496985e-06 0 0 -7.7496128261094638e-06 0 0 -7.9162710768267046e-06 0 0 -7.8329419514496985e-06 0 0 -6.6663341989956963e-06 0 0 -6.5830050739555603e-06 0 0 -6.7496633240484506e-06 0 0 -6.6663341989956963e-06 0 0 -6.8329924491149437e-06 0 0 -6.7496633240484506e-06 0 0 -6.9163215741963548e-06 0 0 -6.8329924491149437e-06 0 0 -6.9996506992934199e-06 0 0 -6.9163215741963548e-06 0 0 -7.0829798244069251e-06 0 0 -6.9996506992934199e-06 0 0 -7.2496380746893534e-06 0 0 -7.1663089495383475e-06 0 0 -7.1663089495383475e-06 0 0 -7.0829798244069251e-06 0 0 -6.0830303239482238e-06 0 0 -5.9997011989798001e-06 0 0 -5.9997011989798001e-06 0 0 -5.9163720740187321e-06 0 0 -6.1663594489246519e-06 0 0 -6.0830303239482238e-06 0 0 -6.2496885739097613e-06 0 0 -6.1663594489246519e-06 0 0 -6.333017698904542e-06 0 0 -6.2496885739097613e-06 0 0 -6.4163468239100107e-06 0 0 -6.333017698904542e-06 0 0 -6.4996759489270227e-06 0 0 -6.4163468239100107e-06 0 0 -6.5830050739555603e-06 0 0 -6.4996759489270227e-06 0 0 -5.3330681994610072e-06 0 0 -5.2497390745440221e-06 0 0 -5.4163973243824527e-06 0 0 -5.3330681994610072e-06 0 0 -5.4997264493083189e-06 0 0 -5.4163973243824527e-06 0 0 -5.5830555742390081e-06 0 0 -5.4997264493083189e-06 0 0 -5.6663846991749421e-06 0 0 -5.5830555742390081e-06 0 0 -5.7497138241165928e-06 0 0 -5.6663846991749421e-06 0 0 -5.9163720740187321e-06 0 0 -5.833042949064431e-06 0 0 -5.833042949064431e-06 0 0 -5.7497138241165928e-06 0 0 -1.5249237784065645e-05 0 0 -1.5165908431658968e-05 0 0 -1.5165908431658968e-05 0 0 -1.5082579092218531e-05 0 0 -1.5332567150136013e-05 0 0 -1.5249237784065645e-05 0 0 -1.5415896530598198e-05 0 0 -1.5332567150136013e-05 0 0 -1.5499225926212517e-05 0 0 -1.5415896530598198e-05 0 0 -1.5582555337771571e-05 0 0 -1.5499225926212517e-05 0 0 -1.5665884766100265e-05 0 0 -1.5582555337771571e-05 0 0 -1.4499274026674727e-05 0 0 -1.4415944769264683e-05 0 0 -1.4582603292475076e-05 0 0 -1.4499274026674727e-05 0 0 -1.4665932567148405e-05 0 0 -1.4582603292475076e-05 0 0 -1.4749261851201218e-05 0 0 -1.4665932567148405e-05 0 0 -1.4832591145164672e-05 0 0 -1.4749261851201218e-05 0 0 -1.4915920449595455e-05 0 0 -1.4832591145164672e-05 0 0 -1.5082579092218531e-05 0 0 -1.4999249765076741e-05 0 0 -1.4999249765076741e-05 0 0 -1.4915920449595455e-05 0 0 -1.3915969376752544e-05 0 0 -1.3832640166381777e-05 0 0 -1.3832640166381777e-05 0 0 -1.3749310961297473e-05 0 0 -1.3999298592731445e-05 0 0 -1.3915969376752544e-05 0 0 -1.4082627814657503e-05 0 0 -1.3999298592731445e-05 0 0 -1.4165957042887848e-05 0 0 -1.4082627814657503e-05 0 0 -1.4249286277798517e-05 0 0 -1.4165957042887848e-05 0 0 -1.4332615519785256e-05 0 0 -1.4249286277798517e-05 0 0 -1.4415944769264683e-05 0 0 -1.4332615519785256e-05 0 0 -1.3166006650030757e-05 0 0 -1.3082677477507468e-05 0 0 -1.3249335825807301e-05 0 0 -1.3166006650030757e-05 0 0 -1.3332665005044626e-05 0 0 -1.3249335825807301e-05 0 0 -1.341599418796231e-05 0 0 -1.3332665005044626e-05 0 0 -1.3499323374793464e-05 0 0 -1.341599418796231e-05 0 0 -1.3582652565784449e-05 0 0 -1.3499323374793464e-05 0 0 -1.3749310961297473e-05 0 0 -1.3665981761194612e-05 0 0 -1.3665981761194612e-05 0 0 -1.3582652565784449e-05 0 0 -1.2582702500425672e-05 0 0 -1.2499373345750484e-05 0 0 -1.2499373345750484e-05 0 0 -1.2416044193034248e-05 0 0 -1.2666031657190055e-05 0 0 -1.2582702500425672e-05 0 0 -1.2749360816181852e-05 0 0 -1.2666031657190055e-05 0 0 -1.2832689977548617e-05 0 0 -1.2749360816181852e-05 0 0 -1.2916019141446811e-05 0 0 -1.2832689977548617e-05 0 0 -1.299934830804135e-05 0 0 -1.2916019141446811e-05 0 0 -1.3082677477507468e-05 0 0 -1.299934830804135e-05 0 0 -1.191606931149011e-05 0 0 -1.1832740169427578e-05 0 0 -1.199939845479044e-05 0 0 -1.191606931149011e-05 0 0 -1.2082727599413479e-05 0 0 -1.199939845479044e-05 0 0 -1.2166056745449577e-05 0 0 -1.2082727599413479e-05 0 0 -1.2249385892995553e-05 0 0 -1.2166056745449577e-05 0 0 -1.2416044193034248e-05 0 0 -1.2332715042154328e-05 0 0 -1.2332715042154328e-05 0 0 -1.2249385892995553e-05 0 0 -1.1332765338904366e-05 0 0 -1.1249436203525867e-05 0 0 -1.1249436203525867e-05 0 0 -1.1166107068868257e-05 0 0 -1.1416094475054809e-05 0 0 -1.1332765338904366e-05 0 0 -1.1499423612031664e-05 0 0 -1.1416094475054809e-05 0 0 -1.1582752749893249e-05 0 0 -1.1499423612031664e-05 0 0 -1.1666081888701718e-05 0 0 -1.1582752749893249e-05 0 0 -1.174941102852306e-05 0 0 -1.1666081888701718e-05 0 0 -1.1832740169427578e-05 0 0 -1.174941102852306e-05 0 0 -1.0582803142793144e-05 0 0 -1.0499474012413677e-05 0 0 -1.0666132273586087e-05 0 0 -1.0582803142793144e-05 0 0 -1.0749461404822554e-05 0 0 -1.0666132273586087e-05 0 0 -1.0832790536534897e-05 0 0 -1.0749461404822554e-05 0 0 -1.0916119668757566e-05 0 0 -1.0832790536534897e-05 0 0 -1.0999448801527378e-05 0 0 -1.0916119668757566e-05 0 0 -1.1166107068868257e-05 0 0 -1.1082777934883659e-05 0 0 -1.1082777934883659e-05 0 0 -1.0999448801527378e-05 0 0 -1.691582887259047e-05 0 0 -1.6832499069460177e-05 0 0 -1.699915871061226e-05 0 0 -1.691582887259047e-05 0 0 -1.6749169299808126e-05 0 0 -1.6665839562257908e-05 0 0 -1.6832499069460177e-05 0 0 -1.6749169299808126e-05 0 0 -1.6582509855470775e-05 0 0 -1.6499180178145681e-05 0 0 -1.6665839562257908e-05 0 0 -1.6582509855470775e-05 0 0 -1.641585052901917e-05 0 0 -1.6332520906865841e-05 0 0 -1.6499180178145681e-05 0 0 -1.641585052901917e-05 0 0 -1.624919131049834e-05 0 0 -1.6165861738767277e-05 0 0 -1.6332520906865841e-05 0 0 -1.624919131049834e-05 0 0 -1.6082532190561039e-05 0 0 -1.5999202664805535e-05 0 0 -1.6165861738767277e-05 0 0 -1.6082532190561039e-05 0 0 -1.5915873160463823e-05 0 0 -1.583254367653571e-05 0 0 -1.5999202664805535e-05 0 0 -1.5915873160463823e-05 0 0 -1.5749214212057266e-05 0 0 -1.5665884766100265e-05 0 0 -1.583254367653571e-05 0 0 -1.5749214212057266e-05 0 0 -1.7332478441137554e-05 0 0 -1.7249148448701018e-05 0 0 -1.7249148448701018e-05 0 0 -1.7165818497164552e-05 0 0 -1.7165818497164552e-05 0 0 -1.7082488584975053e-05 0 0 -1.7082488584975053e-05 0 0 -1.699915871061226e-05 0 0 -1.7415808476059559e-05 0 0 -1.7332478441137554e-05 0 0 -1.7499138555083395e-05 0 0 -1.7415808476059559e-05 0 0 -1.7582468679854755e-05 0 0 -1.7499138555083395e-05 0 0 -1.7665798852047041e-05 0 0 -1.7582468679854755e-05 0 0 -1.7749129073359425e-05 0 0 -1.7665798852047041e-05 0 0 -1.7832459345514779e-05 0 0 -1.7749129073359425e-05 0 0 -1.7999120049350792e-05 0 0 -1.7915789670257434e-05 0 0 -1.7915789670257434e-05 0 0 -1.7832459345514779e-05 0 0 -1.8165780977722491e-05 0 0 -1.8082450484574645e-05 0 0 -1.8082450484574645e-05 0 0 -1.7999120049350792e-05 0 0 -1.8249111530598533e-05 0 0 -1.8165780977722491e-05 0 0 -1.8332442145014479e-05 0 0 -1.8249111530598533e-05 0 0 -1.8415772822786488e-05 0 0 -1.8332442145014479e-05 0 0 -1.8499103565731403e-05 0 0 -1.8415772822786488e-05 0 0 -1.8582434375663428e-05 0 0 -1.8499103565731403e-05 0 0 -1.8665765254390256e-05 0 0 -1.8582434375663428e-05 0 0 -1.8749096203709278e-05 0 0 -1.8665765254390256e-05 0 0 -1.8832427225403572e-05 0 0 -1.8749096203709278e-05 0 0 -1.8999089492954069e-05 0 0 -1.8915758321237802e-05 0 0 -1.8915758321237802e-05 0 0 -1.8832427225403572e-05 0 0 -1.958240995929418e-05 0 0 -1.9499078210416538e-05 0 0 -1.9499078210416538e-05 0 0 -1.9415746548623752e-05 0 0 -1.9415746548623752e-05 0 0 -1.9332414972452777e-05 0 0 -1.9332414972452777e-05 0 0 -1.9249083480387667e-05 0 0 -1.9249083480387667e-05 0 0 -1.9165752070862631e-05 0 0 -1.9165752070862631e-05 0 0 -1.9082420742267637e-05 0 0 -1.9082420742267637e-05 0 0 -1.8999089492954069e-05 0 0 -2.0249067240181893e-05 0 0 -2.0165734749663127e-05 0 0 -2.0165734749663127e-05 0 0 -2.0082402355542074e-05 0 0 -2.0082402355542074e-05 0 0 -1.9999070056921713e-05 0 0 -1.9999070056921713e-05 0 0 -1.9915737852821792e-05 0 0 -1.9915737852821792e-05 0 0 -1.9832405742182066e-05 0 0 -1.9832405742182066e-05 0 0 -1.9749073723865639e-05 0 0 -1.9749073723865639e-05 0 0 -1.9665741796662543e-05 0 0 -1.9665741796662543e-05 0 0 -1.958240995929418e-05 0 0 -2.0415732513567408e-05 0 0 -2.0332399827909233e-05 0 0 -2.0332399827909233e-05 0 0 -2.0249067240181893e-05 0 0 -2.0499065297787483e-05 0 0 -2.0415732513567408e-05 0 0 -2.0582398181106868e-05 0 0 -2.0499065297787483e-05 0 0 -2.0665731163967804e-05 0 0 -2.0582398181106868e-05 0 0 -2.0749064246715818e-05 0 0 -2.0665731163967804e-05 0 0 -2.0832397429598583e-05 0 0 -2.0749064246715818e-05 0 0 -2.0915730712765065e-05 0 0 -2.0832397429598583e-05 
</DataArray>
</PointData>
<CellData Scalars="" Vectors="" Tensors="stress,">
<DataArray type="Float64" Name="stress" NumberOfComponents="9" format="ascii">
-3333.1649937164871 0 0 0 -3333.1649937164871 0 0 0 -9999.4949811494625 -3333.1649937167222 0 0 0 -3333.1649937167222 0 0 0 -9999.4949811501683 -3333.1649937172042 0 0 0 -3333.1649937172042 0 0 0 -9999.4949811516126 -3333.1649937179263 0 0 0 -3333.1649937179263 0 0 0 -9999.4949811537808 -3333.1649937188995 0 0 0 -3333.1649937188995 0 0 0 -9999.494981156713 -3333.1649937201328 0 0 0 -3333.1649937201328 0 0 0 -9999.4949811603947 -3333.1649937234833 0 0 0 -3333.1649937234833 0 0 0 -9999.4949811704573 -3333.1649937216607 0 0 0 -3333.1649937216607 0 0 0 -9999.4949811649858 -3333.1649936948888 0 0 0 -3333.1649936948888 0 0 0 -9999.4949810846592 -3333.1649937060574 0 0 0 -3333.1649937060574 0 0 0 -9999.4949811181868 -3333.1649937177499 0 0 0 -3333.1649937177499 0 0 0 -9999.494981153257 -3333.1649937299444 0 0 0 -3333.1649937299444 0 0 0 -9999.4949811898259 -3333.1649937343973 0 0 0 -3333.1649937343973 0 0 0 -9999.4949812031846 -3333.1649937311013 0 0 0 -3333.1649937311013 0 0 0 -9999.4949811933184 -3333.1649937282054 0 0 0 -3333.1649937282054 0 0 0 -9999.4949811846309 -3333.1649937256661 0 0 0 -3333.1649937256661 0 0 0 -9999.4949811769766 -3333.1649937776529 0 0 0 -3333.1649937776529 0 0 0 -9999.494981332944 -3333.1649937732291 0 0 0 -3333.1649937732291 0 0 0 -9999.4949813197018 -3333.1649937696056 0 0 0 -3333.1649937696056 0 0 0 -9999.494981308846 -3333.1649937665934 0 0 0 -3333.1649937665934 0 0 0 -9999.4949812997656 -3333.1649937436086 0 0 0 -3333.1649937436086 0 0 0 -9999.4949812308769 -3333.1649937005786 0 0 0 -3333.1649937005786 0 0 0 -9999.4949811017432 -3333.1649936843023 0 0 0 -3333.1649936843023 0 0 0 -9999.494981052907 -3333.1649937963084 0 0 0 -3333.1649937963084 0 0 0 -9999.4949813889107 -3333.1649937827897 0 0 0 -3333.1649937827897 0 0 0 -9999.494981348369 -3333.1649938181945 0 0 0 -3333.1649938181945 0 0 0 -9999.4949814546271 -3333.1649938410847 0 0 0 -3333.1649938410847 0 0 0 -9999.4949815231957 -3333.1649938648188 0 0 0 -3333.1649938648188 0 0 0 -9999.4949815944419 -3333.1649938896444 0 0 0 -3333.1649938896444 0 0 0 -9999.4949816689477 -3333.1649939156632 0 0 0 -3333.1649939156632 0 0 0 -9999.494981746946 -3333.1649939429626 0 0 0 -3333.1649939429626 0 0 0 -9999.4949818289024 -3333.164993971659 0 0 0 -3333.164993971659 0 0 0 -9999.4949819149915 -3333.1649940018251 0 0 0 -3333.1649940018251 0 0 0 -9999.4949820054462 -3333.1649940676143 0 0 0 -3333.1649940676143 0 0 0 -9999.4949822028284 -3333.1649940338248 0 0 0 -3333.1649940338248 0 0 0 -9999.4949821014889 -3333.1649941410578 0 0 0 -3333.1649941410578 0 0 0 -9999.4949824231444 -3333.1649941032665 0 0 0 -3333.1649941032665 0 0 0 -9999.4949823097559 -3333.1649941811484 0 0 0 -3333.1649941811484 0 0 0 -9999.4949825434014 -3333.1649942239892 0 0 0 -3333.1649942239892 0 0 0 -9999.4949826719239 -3333.1649942695512 0 0 0 -3333.1649942695512 0 0 0 -9999.4949828087119 -3333.1649943177472 0 0 0 -3333.1649943177472 0 0 0 -9999.4949829532416 -3333.1649943693192 0 0 0 -3333.1649943693192 0 0 0 -9999.4949831079575 -3333.1649944240344 0 0 0 -3333.1649944240344 0 0 0 -9999.4949832721031 -3333.1649946827092 0 0 0 -3333.1649946827092 0 0 0 -9999.4949840481277 -3333.1649946115795 0 0 0 -3333.1649946115795 0 0 0 -9999.4949838347966 -3333.1649945449899 0 0 0 -3333.1649945449899 0 0 0 -9999.4949836349697 -3333.1649944825913 0 0 0 -3333.1649944825913 0 0 0 -9999.4949834478321 -3333.1649964886019 0 0 0 -3333.1649964886019 0 0 0 -9999.4949894658057 -3333.1649961634539 0 0 0 -3333.1649961634539 0 0 0 -9999.4949884903617 -3333.1649963197706 0 0 0 -3333.1649963197706 0 0 0 -9999.4949889593991 -3333.1649958729104 0 0 0 -3333.1649958729104 0 0 0 -9999.4949876187602 -3333.1649960185168 0 0 0 -3333.1649960185168 0 0 0 -9999.4949880555505 -3333.1649955878383 0 0 0 -3333.1649955878383 0 0 0 -9999.4949867634568 -3333.164995725645 0 0 0 -3333.164995725645 0 0 0 -9999.4949871769641 -3333.1649953380111 0 0 0 -3333.1649953380111 0 0 0 -9999.494986013975 -3333.1649954587338 0 0 0 -3333.1649954587338 0 0 0 -9999.4949863761431 -3333.1649951184227 0 0 0 -3333.1649951184227 0 0 0 -9999.4949853552389 -3333.1649952245643 0 0 0 -3333.1649952245643 0 0 0 -9999.4949856738094 -3333.1649949268322 0 0 0 -3333.1649949268322 0 0 0 -9999.4949847804965 -3333.1649950196734 0 0 0 -3333.1649950196734 0 0 0 -9999.4949850590201 -3333.1649947588157 0 0 0 -3333.1649947588157 0 0 0 -9999.4949842764763 -3333.1649948399863 0 0 0 -3333.1649948399863 0 0 0 -9999.4949845200172 -3333.1651267732377 0 0 0 -3333.1651267732377 0 0 0 -9999.4953803196549 -3333.1651172738639 0 0 0 -3333.1651172738639 0 0 0 -9999.495351821417 -3333.1651369733736 0 0 0 -3333.1651369733736 0 0 0 -9999.4954109201208 -3333.1651479239808 0 0 0 -3333.1651479239808 0 0 0 -9999.4954437718261 -3333.1651595958974 0 0 0 -3333.1651595958974 0 0 0 -9999.4954787876923 -3333.1651720455266 0 0 0 -3333.1651720455266 0 0 0 -9999.4955161365215 -3333.1651854164083 0 0 0 -3333.1651854164083 0 0 0 -9999.4955562492833 -3333.1651997730951 0 0 0 -3333.1651997730951 0 0 0 -9999.495599319227 -3333.1650622473098 0 0 0 -3333.1650622473098 0 0 0 -9999.4951867419295 -3333.1650674942648 0 0 0 -3333.1650674942648 0 0 0 -9999.4952024829108 -3333.1650731418049 0 0 0 -3333.1650731418049 0 0 0 -9999.4952194255311 -3333.1650792201399 0 0 0 -3333.1650792201399 0 0 0 -9999.4952376603615 -3333.16508573998 0 0 0 -3333.16508573998 0 0 0 -9999.4952572199982 -3333.1650927357841 0 0 0 -3333.1650927357841 0 0 0 -9999.4952782073524 -3333.1651084282203 0 0 0 -3333.1651084282203 0 0 0 -9999.4953252847772 -3333.1651002623257 0 0 0 -3333.1651002623257 0 0 0 -9999.4953007868025 -3333.1650378989289 0 0 0 -3333.1650378989289 0 0 0 -9999.495113696903 -3333.1650348182884 0 0 0 -3333.1650348182884 0 0 0 -9999.495104454807 -3333.1650412227027 0 0 0 -3333.1650412227027 0 0 0 -9999.495123668341 -3333.1650448087603 0 0 0 -3333.1650448087603 0 0 0 -9999.495134426048 -3333.1650486809085 0 0 0 -3333.1650486809085 0 0 0 -9999.4951460429002 -3333.165052860335 0 0 0 -3333.165052860335 0 0 0 -9999.4951585810632 -3333.1650573745137 0 0 0 -3333.1650573745137 0 0 0 -9999.4951721234247 -3333.1650166962063 0 0 0 -3333.1650166962063 0 0 0 -9999.4950500885025 -3333.1650184490136 0 0 0 -3333.1650184490136 0 0 0 -9999.4950553472154 -3333.1650203395402 0 0 0 -3333.1650203395402 0 0 0 -9999.4950610186206 -3333.1650223783799 0 0 0 -3333.1650223783799 0 0 0 -9999.495067135198 -3333.1650245383498 0 0 0 -3333.1650245383498 0 0 0 -9999.4950736149913 -3333.1650268314406 0 0 0 -3333.1650268314406 0 0 0 -9999.4950804942055 -3333.1650319652399 0 0 0 -3333.1650319652399 0 0 0 -9999.4950958957197 -3333.1650293079438 0 0 0 -3333.1650293079438 0 0 0 -9999.4950879240641 -3333.1650078123203 0 0 0 -3333.1650078123203 0 0 0 -9999.4950234369608 -3333.1650068854797 0 0 0 -3333.1650068854797 0 0 0 -9999.4950206566136 -3333.1650088168681 0 0 0 -3333.1650088168681 0 0 0 -9999.4950264507206 -3333.165009904711 0 0 0 -3333.165009904711 0 0 0 -9999.4950297140749 -3333.1650110557675 0 0 0 -3333.1650110557675 0 0 0 -9999.4950331671862 -3333.165012276615 0 0 0 -3333.165012276615 0 0 0 -9999.495036829845 -3333.1650136006647 0 0 0 -3333.1650136006647 0 0 0 -9999.4950408020522 -3333.1650150712812 0 0 0 -3333.1650150712812 0 0 0 -9999.4950452138437 -3333.1650015964988 0 0 0 -3333.1650015964988 0 0 0 -9999.4950047894381 -3333.1650021014502 0 0 0 -3333.1650021014502 0 0 0 -9999.4950063044671 -3333.165002651047 0 0 0 -3333.165002651047 0 0 0 -9999.4950079530245 -3333.1650032477919 0 0 0 -3333.1650032477919 0 0 0 -9999.4950097436085 -3333.1650038736407 0 0 0 -3333.1650038736407 0 0 0 -9999.495011620922 -3333.1650045315037 0 0 0 -3333.1650045315037 0 0 0 -9999.495013594511 -3333.165006031224 0 0 0 -3333.165006031224 0 0 0 -9999.4950180937303 -3333.1650052482146 0 0 0 -3333.1650052482146 0 0 0 -9999.4950157445855 -3333.1649987282581 0 0 0 -3333.1649987282581 0 0 0 -9999.4949961848324 -3333.1649984337564 0 0 0 -3333.1649984337564 0 0 0 -9999.4949953012401 -3333.1649990484293 0 0 0 -3333.1649990484293 0 0 0 -9999.4949971452588 -3333.1649993957835 0 0 0 -3333.1649993957835 0 0 0 -9999.4949981872924 -3333.1649997822533 0 0 0 -3333.1649997822533 0 0 0 -9999.494999346789 -3333.1650002100214 0 0 0 -3333.1650002100214 0 0 0 -9999.4950006301515 -3333.1650006715208 0 0 0 -3333.1650006715208 0 0 0 -9999.4950020144461 -3333.1650011328456 0 0 0 -3333.1650011328456 0 0 0 -9999.4950033983914 -3333.1649966704426 0 0 0 -3333.1649966704426 0 0 0 -9999.4949900112115 -3333.164996849111 0 0 0 -3333.164996849111 0 0 0 -9999.494990547304 -3333.1649970259459 0 0 0 -3333.1649970259459 0 0 0 -9999.4949910779251 -3333.1649972185842 0 0 0 -3333.1649972185842 0 0 0 -9999.4949916556943 -3333.1649974286556 0 0 0 -3333.1649974286556 0 0 0 -9999.4949922860833 -3333.1649976570334 0 0 0 -3333.1649976570334 0 0 0 -9999.4949929711875 -3333.1649981633527 0 0 0 -3333.1649981633527 0 0 0 -9999.4949944900582 -3333.1649979049107 0 0 0 -3333.1649979049107 0 0 0 -9999.4949937147321 -3333.1740962768672 0 0 0 -3333.1740962768672 0 0 0 -9999.5222888302524 -3333.1735776271671 0 0 0 -3333.1735776271671 0 0 0 -9999.5207328815013 -3333.1746428244514 0 0 0 -3333.1746428244514 0 0 0 -9999.5239284734707 -3333.1752184970537 0 0 0 -3333.1752184970537 0 0 0 -9999.5256554912776 -3333.1758245824603 0 0 0 -3333.1758245824603 0 0 0 -9999.5274737472646 -3333.17646237195 0 0 0 -3333.17646237195 0 0 0 -9999.5293871157337 -3333.1771331573837 0 0 0 -3333.1771331573837 0 0 0 -9999.5313994723838 -3333.1702964113792 0 0 0 -3333.1702964113792 0 0 0 -9999.510889234487 -3333.1706320237136 0 0 0 -3333.1706320237136 0 0 0 -9999.5118960707914 -3333.1709869428305 0 0 0 -3333.1709869428305 0 0 0 -9999.5129608288407 -3333.171362122288 0 0 0 -3333.171362122288 0 0 0 -9999.5140863666311 -3333.1717585478909 0 0 0 -3333.1717585478909 0 0 0 -9999.5152756436728 -3333.1721772410674 0 0 0 -3333.1721772410674 0 0 0 -9999.5165317230858 -3333.1730856812792 0 0 0 -3333.1730856812792 0 0 0 -9999.5192570441868 -3333.1726192611968 0 0 0 -3333.1726192611968 0 0 0 -9999.517857783474 -3333.1684148403583 0 0 0 -3333.1684148403583 0 0 0 -9999.5052445211913 -3333.1682033819379 0 0 0 -3333.1682033819379 0 0 0 -9999.5046101454645 -3333.168639165815 0 0 0 -3333.168639165815 0 0 0 -9999.5059174972121 -3333.1688770520268 0 0 0 -3333.1688770520268 0 0 0 -9999.5066311561968 -3333.1691292234464 0 0 0 -3333.1691292234464 0 0 0 -9999.5073876704555 -3333.1693964365404 0 0 0 -3333.1693964365404 0 0 0 -9999.5081893093884 -3333.1696794793243 0 0 0 -3333.1696794793243 0 0 0 -9999.5090384378564 -3333.169979186845 0 0 0 -3333.169979186845 0 0 0 -9999.5099375604186 -3333.166900941229 0 0 0 -3333.166900941229 0 0 0 -9999.5007028237451 -3333.1670310714981 0 0 0 -3333.1670310714981 0 0 0 -9999.5010932143778 -3333.1671695027035 0 0 0 -3333.1671695027035 0 0 0 -9999.5015085081104 -3333.1673167170957 0 0 0 -3333.1673167170957 0 0 0 -9999.501950151287 -3333.1674732558895 0 0 0 -3333.1674732558895 0 0 0 -9999.5024197674356 -3333.1676396491239 0 0 0 -3333.1676396491239 0 0 0 -9999.5029189474881 -3333.1680041240761 0 0 0 -3333.1680041240761 0 0 0 -9999.5040123725776 -3333.167816416244 0 0 0 -3333.167816416244 0 0 0 -9999.5034492488485 -3333.1661870172247 0 0 0 -3333.1661870172247 0 0 0 -9999.4985610516742 -3333.1661086591193 0 0 0 -3333.1661086591193 0 0 0 -9999.4983259774745 -3333.1662705850322 0 0 0 -3333.1662705850322 0 0 0 -9999.4988117550965 -3333.1663596815779 0 0 0 -3333.1663596815779 0 0 0 -9999.4990790446755 -3333.1664546803222 0 0 0 -3333.1664546803222 0 0 0 -9999.4993640410248 -3333.166555937496 0 0 0 -3333.166555937496 0 0 0 -9999.4996678123716 -3333.166663791344 0 0 0 -3333.166663791344 0 0 0 -9999.4999913738575 -3333.166778654384 0 0 0 -3333.166778654384 0 0 0 -9999.5003359634429 -3333.1656825109385 0 0 0 -3333.1656825109385 0 0 0 -9999.4970475330483 -3333.1657320228405 0 0 0 -3333.1657320228405 0 0 0 -9999.4971960685216 -3333.165784931276 0 0 0 -3333.165784931276 0 0 0 -9999.497354793828 -3333.1658414535341 0 0 0 -3333.1658414535341 0 0 0 -9999.4975243606605 -3333.1659018489881 0 0 0 -3333.1659018489881 0 0 0 -9999.497705547139 -3333.1660352064646 0 0 0 -3333.1660352064646 0 0 0 -9999.4981056193355 -3333.1659663607716 0 0 0 -3333.1659663607716 0 0 0 -9999.4978990822565 -3333.1654151495895 0 0 0 -3333.1654151495895 0 0 0 -9999.4962454489432 -3333.1653863144456 0 0 0 -3333.1653863144456 0 0 0 -9999.4961589435115 -3333.1654460274149 0 0 0 -3333.1654460274149 0 0 0 -9999.4963380822446 -3333.1654790838365 0 0 0 -3333.1654790838365 0 0 0 -9999.4964372515678 -3333.1655144731048 0 0 0 -3333.1655144731048 0 0 0 -9999.4965434190817 -3333.1655523484224 0 0 0 -3333.1655523484224 0 0 0 -9999.4966570453253 -3333.1655928636901 0 0 0 -3333.1655928636901 0 0 0 -9999.4967785910703 -3333.1656361903879 0 0 0 -3333.1656361903879 0 0 0 -9999.4969085711055 -3333.165215184039 0 0 0 -3333.165215184039 0 0 0 -9999.4956455521751 -3333.1652317230473 0 0 0 -3333.1652317230473 0 0 0 -9999.4956951690838 -3333.1652494683512 0 0 0 -3333.1652494683512 0 0 0 -9999.495748405112 -3333.1652685033623 0 0 0 -3333.1652685033623 0 0 0 -9999.4958055100869 -3333.1652889164397 0 0 0 -3333.1652889164397 0 0 0 -9999.4958667492028 -3333.1653108021128 0 0 0 -3333.1653108021128 0 0 0 -9999.495932406513 -3333.1653593935189 0 0 0 -3333.1653593935189 0 0 0 -9999.4960781808477 -3333.1653342609643 0 0 0 -3333.1653342609643 0 0 0 -9999.4960027826019 -3333.1921252213651 0 0 0 -3333.1921252213651 0 0 0 -9999.5763756644446 -3333.193520881352 0 0 0 -3333.193520881352 0 0 0 -9999.5805626439396 -3333.1895020185038 0 0 0 -3333.1895020185038 0 0 0 -9999.5685060552787 -3333.1907860918436 0 0 0 -3333.1907860918436 0 0 0 -9999.5723582755309 -3333.1870930134319 0 0 0 -3333.1870930134319 0 0 0 -9999.5612790405285 -3333.188271495048 0 0 0 -3333.188271495048 0 0 0 -9999.5648144851439 -3333.1848861429607 0 0 0 -3333.1848861429607 0 0 0 -9999.5546584287658 -3333.1859650701517 0 0 0 -3333.1859650701517 0 0 0 -9999.5578952103388 -3333.1828692522831 0 0 0 -3333.1828692522831 0 0 0 -9999.5486077568494 -3333.1838547097286 0 0 0 -3333.1838547097286 0 0 0 -9999.5515641293023 -3333.1810302298982 0 0 0 -3333.1810302298982 0 0 0 -9999.5430906896945 -3333.1819282592041 0 0 0 -3333.1819282592041 0 0 0 -9999.5457847777288 -3333.1793571342714 0 0 0 -3333.1793571342714 0 0 0 -9999.5380714028142 -3333.1801736782072 0 0 0 -3333.1801736782072 0 0 0 -9999.5405210345052 -3333.1778382898774 0 0 0 -3333.1778382898774 0 0 0 -9999.5335148693994 -3333.1785791475559 0 0 0 -3333.1785791475559 0 0 0 -9999.5357374423184 -3333.1996974711074 0 0 0 -3333.1996974711074 0 0 0 -9999.5990924136713 -3333.1980614684289 0 0 0 -3333.1980614684289 0 0 0 -9999.5941844049376 -3333.1964875897393 0 0 0 -3333.1964875897393 0 0 0 -9999.589462768985 -3333.1949745215243 0 0 0 -3333.1949745215243 0 0 0 -9999.5849235642236 -3333.2013968899846 0 0 0 -3333.2013968899846 0 0 0 -9999.604190669721 -3333.2031609631376 0 0 0 -3333.2031609631376 0 0 0 -9999.6094828895293 -3333.2049908641493 0 0 0 -3333.2049908641493 0 0 0 -9999.6149725927971 -3333.206887701177 0 0 0 -3333.206887701177 0 0 0 -9999.6206631031819 -3333.2088525050785 0 0 0 -3333.2088525050785 0 0 0 -9999.6265575154684 -3333.2108862239402 0 0 0 -3333.2108862239402 0 0 0 -9999.6326586715877 -3333.2151637440547 0 0 0 -3333.2151637440547 0 0 0 -9999.6454912321642 -3333.2129897159757 0 0 0 -3333.2129897159757 0 0 0 -9999.6389691475779 -3333.2197259232635 0 0 0 -3333.2197259232635 0 0 0 -9999.6591777699068 -3333.2174089639448 0 0 0 -3333.2174089639448 0 0 0 -9999.6522268913686 -3333.2221150503028 0 0 0 -3333.2221150503028 0 0 0 -9999.6663451506756 -3333.2245766457636 0 0 0 -3333.2245766457636 0 0 0 -9999.6737299375236 -3333.2271108865971 0 0 0 -3333.2271108865971 0 0 0 -9999.6813326599076 -3333.2297178024892 0 0 0 -3333.2297178024892 0 0 0 -9999.6891534077004 -3333.232397286105 0 0 0 -3333.232397286105 0 0 0 -9999.6971918586642 -3333.2351490781875 0 0 0 -3333.2351490781875 0 0 0 -9999.705447234679 -3333.2379727660445 0 0 0 -3333.2379727660445 0 0 0 -9999.7139182980172 -3333.2408677767962 0 0 0 -3333.2408677767962 0 0 0 -9999.7226033303887 -3333.2468686557841 0 0 0 -3333.2468686557841 0 0 0 -9999.740605967585 -3333.2438333742321 0 0 0 -3333.2438333742321 0 0 0 -9999.7315001231618 -3333.2699551113183 0 0 0 -3333.2699551113183 0 0 0 -9999.8098653340712 -3333.2664717168082 0 0 0 -3333.2664717168082 0 0 0 -9999.7994151506573 -3333.2630468441639 0 0 0 -3333.2630468441639 0 0 0 -9999.7891405327246 -3333.2596826094668 0 0 0 -3333.2596826094668 0 0 0 -9999.7790478286333 -3333.2563810065622 0 0 0 -3333.2563810065622 0 0 0 -9999.7691430193372 -3333.2531438049627 0 0 0 -3333.2531438049627 0 0 0 -9999.7594314147718 -3333.2499725477537 0 0 0 -3333.2499725477537 0 0 0 -9999.7499176431447 -3333.2996207576944 0 0 0 -3333.2996207576944 0 0 0 -9999.8988622734323 -3333.2957648492884 0 0 0 -3333.2957648492884 0 0 0 -9999.887294548098 -3333.2919448218308 0 0 0 -3333.2919448218308 0 0 0 -9999.8758344654925 -3333.2881640042178 0 0 0 -3333.2881640042178 0 0 0 -9999.8644920131192 -3333.2844255964737 0 0 0 -3333.2844255964737 0 0 0 -9999.853276789654 -3333.2807326642796 0 0 0 -3333.2807326642796 0 0 0 -9999.8421979933046 -3333.2770881307079 0 0 0 -3333.2770881307079 0 0 0 -9999.8312643915415 -3333.2734947409481 0 0 0 -3333.2734947409481 0 0 0 -9999.8204842228442 -3333.3074263335438 0 0 0 -3333.3074263335438 0 0 0 -9999.9222790007479 -3333.3035091002239 0 0 0 -3333.3035091002239 0 0 0 -9999.9105273010209 -3333.311368809198 0 0 0 -3333.311368809198 0 0 0 -9999.9341064281762 -3333.3153327817563 0 0 0 -3333.3153327817563 0 0 0 -9999.9459983450361 -3333.3193144437391 0 0 0 -3333.3193144437391 0 0 0 -9999.9579433309846 -3333.3233099267818 0 0 0 -3333.3233099267818 0 0 0 -9999.9699297803454 -3333.3273153168848 0 0 0 -3333.3273153168848 0 0 0 -9999.9819459505379 -3333.3313266655896 0 0 0 -3333.3313266655896 0 0 0 -9999.9939799970016 
</DataArray>
</CellData>
</Piece>
</UnstructuredGrid>
</VTKFile>
