<?xml version="1.0"?>
<VTKFile type="UnstructuredGrid" version="0.1" byte_order="LittleEndian">
<UnstructuredGrid>
<Piece NumberOfPoints="500" NumberOfCells="250">
<Points>
<DataArray type="Float64" NumberOfComponents="3" format="ascii">
0 0 0 0 0 -0.00099999999999810158 0 0 -0.00099999999999810158 0 0 -0.001999999999996204 0 0 -0.001999999999996204 0 0 -0.0029999999999943271 0 0 -0.0029999999999943271 0 0 -0.0039999999999924488 0 0 -0.0039999999999924488 0 0 -0.004999999999990571 0 0 -0.004999999999990571 0 0 -0.0059999999999886811 0 0 -0.0059999999999886811 0 0 -0.0069999999999867156 0 0 -0.0069999999999867156 0 0 -0.007999999999984719 0 0 -0.007999999999984719 0 0 -0.008999999999982581 0 0 -0.008999999999982581 0 0 -0.0099999999999804221 0 0 -0.0099999999999804221 0 0 -0.010999999999978201 0 0 -0.010999999999978201 0 0 -0.011999999999975971 0 0 -0.011999999999975971 0 0 -0.01299999999997375 0 0 -0.01299999999997375 0 0 -0.01399999999997158 0 0 -0.01399999999997158 0 0 -0.014999999999969531 0 0 -0.014999999999969531 0 0 -0.01599999999996761 0 0 -0.01599999999996761 0 0 -0.0169999999999659 0 0 -0.0169999999999659 0 0 -0.01799999999996427 0 0 -0.01799999999996427 0 0 -0.018999999999962731 0 0 -0.018999999999962731 0 0 -0.019999999999961209 0 0 -0.019999999999961209 0 0 -0.020999999999959669 0 0 -0.020999999999959669 0 0 -0.02199999999995814 0 0 -0.02199999999995814 0 0 -0.022999999999956611 0 0 -0.022999999999956611 0 0 -0.023999999999955082 0 0 -0.023999999999955082 0 0 -0.024999999999953549 0 0 -0.024999999999953549 0 0 -0.02599999999995202 0 0 -0.02599999999995202 0 0 -0.02699999999995048 0 0 -0.02699999999995048 0 0 -0.027999999999948951 0 0 -0.027999999999948951 0 0 -0.028999999999947419 0 0 -0.028999999999947419 0 0 -0.02999999999994565 0 0 -0.02999999999994565 0 0 -0.03099999999994377 0 0 -0.03099999999994377 0 0 -0.031999999999941367 0 0 -0.031999999999941367 0 0 -0.032999999999938787 0 0 -0.032999999999938787 0 0 -0.033999999999935943 0 0 -0.033999999999935943 0 0 -0.034999999999933022 0 0 -0.034999999999933022 0 0 -0.035999999999930102 0 0 -0.035999999999930102 0 0 -0.036999999999927188 0 0 -0.036999999999927188 0 0 -0.037999999999924268 0 0 -0.037999999999924268 0 0 -0.038999999999921348 0 0 -0.038999999999921348 0 0 -0.039999999999918427 0 0 -0.039999999999918427 0 0 -0.040999999999915507 0 0 -0.040999999999915507 0 0 -0.041999999999912593 0 0 -0.041999999999912593 0 0 -0.042999999999909673 0 0 -0.042999999999909673 0 0 -0.043999999999906753 0 0 -0.043999999999906753 0 0 -0.044999999999903832 0 0 -0.044999999999903832 0 0 -0.045999999999900919 0 0 -0.045999999999900919 0 0 -0.046999999999897998 0 0 -0.046999999999897998 0 0 -0.047999999999895078 0 0 -0.047999999999895078 0 0 -0.048999999999892158 0 0 -0.048999999999892158 0 0 -0.049999999999889237 0 0 -0.049999999999889237 0 0 -0.050999999999886317 0 0 -0.050999999999886317 0 0 -0.051999999999883403 0 0 -0.051999999999883403 0 0 -0.052999999999880483 0 0 -0.052999999999880483 0 0 -0.053999999999877563 0 0 -0.053999999999877563 0 0 -0.054999999999874642 0 0 -0.054999999999874642 0 0 -0.055999999999871722 0 0 -0.055999999999871722 0 0 -0.056999999999868801 0 0 -0.056999999999868801 0 0 -0.057999999999865881 0 0 -0.057999999999865881 0 0 -0.058999999999862961 0 0 -0.058999999999862961 0 0 -0.059999999999860047 0 0 -0.059999999999860047 0 0 -0.060999999999857127 0 0 -0.060999999999857127 0 0 -0.061999999999854213 0 0 -0.061999999999854213 0 0 -0.062999999999851286 0 0 -0.062999999999851286 0 0 -0.063999999999848373 0 0 -0.063999999999848373 0 0 -0.064999999999845445 0 0 -0.064999999999845445 0 0 -0.065999999999842532 0 0 -0.065999999999842532 0 0 -0.066999999999839618 0 0 -0.066999999999839618 0 0 -0.067999999999836705 0 0 -0.067999999999836705 0 0 -0.068999999999833792 0 0 -0.068999999999833792 0 0 -0.069999999999830878 0 0 -0.069999999999830878 0 0 -0.070999999999827965 0 0 -0.070999999999827965 0 0 -0.071999999999825051 0 0 -0.071999999999825051 0 0 -0.072999999999822124 0 0 -0.072999999999822124 0 0 -0.07399999999981921 0 0 -0.07399999999981921 0 0 -0.074999999999816297 0 0 -0.074999999999816297 0 0 -0.075999999999813383 0 0 -0.075999999999813383 0 0 -0.07699999999981047 0 0 -0.07699999999981047 0 0 -0.077999999999807557 0 0 -0.077999999999807557 0 0 -0.078999999999804643 0 0 -0.078999999999804643 0 0 -0.07999999999980173 0 0 -0.07999999999980173 0 0 -0.080999999999798802 0 0 -0.080999999999798802 0 0 -0.081999999999795889 0 0 -0.081999999999795889 0 0 -0.082999999999792975 0 0 -0.082999999999792975 0 0 -0.083999999999790062 0 0 -0.083999999999790062 0 0 -0.084999999999787149 0 0 -0.084999999999787149 0 0 -0.085999999999784235 0 0 -0.085999999999784235 0 0 -0.086999999999781322 0 0 -0.086999999999781322 0 0 -0.087999999999778394 0 0 -0.087999999999778394 0 0 -0.088999999999775481 0 0 -0.088999999999775481 0 0 -0.089999999999772567 0 0 -0.089999999999772567 0 0 -0.090999999999769654 0 0 -0.090999999999769654 0 0 -0.091999999999766741 0 0 -0.091999999999766741 0 0 -0.092999999999763827 0 0 -0.092999999999763827 0 0 -0.093999999999760914 0 0 -0.093999999999760914 0 0 -0.094999999999758 0 0 -0.094999999999758 0 0 -0.095999999999755073 0 0 -0.095999999999755073 0 0 -0.096999999999752159 0 0 -0.096999999999752159 0 0 -0.097999999999749246 0 0 -0.097999999999749246 0 0 -0.098999999999746333 0 0 -0.098999999999746333 0 0 -0.099999999999743419 0 0 -0.099999999999743419 0 0 -0.10099999999974051 0 0 -0.10099999999974051 0 0 -0.10199999999973761 0 0 -0.10199999999973761 0 0 -0.10299999999973471 0 0 -0.10299999999973471 0 0 -0.10399999999973179 0 0 -0.10399999999973179 0 0 -0.1049999999997288 0 0 -0.1049999999997288 0 0 -0.1059999999997259 0 0 -0.1059999999997259 0 0 -0.106999999999723 0 0 -0.106999999999723 0 0 -0.1079999999997201 0 0 -0.1079999999997201 0 0 -0.1089999999997172 0 0 -0.1089999999997172 0 0 -0.1099999999997143 0 0 -0.1099999999997143 0 0 -0.1109999999997113 0 0 -0.1109999999997113 0 0 -0.1119999999997084 0 0 -0.1119999999997084 0 0 -0.1129999999997055 0 0 -0.1129999999997055 0 0 -0.1139999999997026 0 0 -0.1139999999997026 0 0 -0.1149999999996997 0 0 -0.1149999999996997 0 0 -0.1159999999996968 0 0 -0.1159999999996968 0 0 -0.11699999999969379 0 0 -0.11699999999969379 0 0 -0.11799999999969089 0 0 -0.11799999999969089 0 0 -0.11899999999968799 0 0 -0.11899999999968799 0 0 -0.11999999999968509 0 0 -0.11999999999968509 0 0 -0.1209999999996822 0 0 -0.1209999999996822 0 0 -0.1219999999996793 0 0 -0.1219999999996793 0 0 -0.1229999999996764 0 0 -0.1229999999996764 0 0 -0.1239999999996748 0 0 -0.1239999999996748 0 0 -0.12499999999967321 0 0 -0.12499999999967321 0 0 -0.12599999999967451 0 0 -0.12599999999967451 0 0 -0.12699999999967579 0 0 -0.12699999999967579 0 0 -0.1279999999996784 0 0 -0.1279999999996784 0 0 -0.12899999999968109 0 0 -0.12899999999968109 0 0 -0.1299999999996837 0 0 -0.1299999999996837 0 0 -0.13099999999968631 0 0 -0.13099999999968631 0 0 -0.13199999999968889 0 0 -0.13199999999968889 0 0 -0.13299999999969159 0 0 -0.13299999999969159 0 0 -0.1339999999996942 0 0 -0.1339999999996942 0 0 -0.13499999999969689 0 0 -0.13499999999969689 0 0 -0.1359999999996995 0 0 -0.1359999999996995 0 0 -0.13699999999970211 0 0 -0.13699999999970211 0 0 -0.1379999999997048 0 0 -0.1379999999997048 0 0 -0.13899999999970741 0 0 -0.13899999999970741 0 0 -0.13999999999971011 0 0 -0.13999999999971011 0 0 -0.14099999999971269 0 0 -0.14099999999971269 0 0 -0.1419999999997153 0 0 -0.1419999999997153 0 0 -0.14299999999971799 0 0 -0.14299999999971799 0 0 -0.1439999999997206 0 0 -0.1439999999997206 0 0 -0.14499999999972321 0 0 -0.14499999999972321 0 0 -0.14599999999972579 0 0 -0.14599999999972579 0 0 -0.14699999999972849 0 0 -0.14699999999972849 0 0 -0.1479999999997311 0 0 -0.1479999999997311 0 0 -0.14899999999973379 0 0 -0.14899999999973379 0 0 -0.1499999999997364 0 0 -0.1499999999997364 0 0 -0.15099999999973901 0 0 -0.15099999999973901 0 0 -0.1519999999997417 0 0 -0.1519999999997417 0 0 -0.15299999999974431 0 0 -0.15299999999974431 0 0 -0.15399999999974701 0 0 -0.15399999999974701 0 0 -0.15499999999974959 0 0 -0.15499999999974959 0 0 -0.1559999999997522 0 0 -0.1559999999997522 0 0 -0.15699999999975489 0 0 -0.15699999999975489 0 0 -0.1579999999997575 0 0 -0.1579999999997575 0 0 -0.15899999999976011 0 0 -0.15899999999976011 0 0 -0.1599999999997628 0 0 -0.1599999999997628 0 0 -0.16099999999976539 0 0 -0.16099999999976539 0 0 -0.161999999999768 0 0 -0.161999999999768 0 0 -0.16299999999977069 0 0 -0.16299999999977069 0 0 -0.1639999999997733 0 0 -0.1639999999997733 0 0 -0.16499999999977599 0 0 -0.16499999999977599 0 0 -0.1659999999997786 0 0 -0.1659999999997786 0 0 -0.16699999999978121 0 0 -0.16699999999978121 0 0 -0.16799999999978391 0 0 -0.16799999999978391 0 0 -0.16899999999978649 0 0 -0.16899999999978649 0 0 -0.1699999999997891 0 0 -0.1699999999997891 0 0 -0.17099999999979171 0 0 -0.17099999999979171 0 0 -0.1719999999997944 0 0 -0.1719999999997944 0 0 -0.17299999999979701 0 0 -0.17299999999979701 0 0 -0.1739999999997997 0 0 -0.1739999999997997 0 0 -0.17499999999980231 0 0 -0.17499999999980231 0 0 -0.17599999999980501 0 0 -0.17599999999980501 0 0 -0.17699999999980759 0 0 -0.17699999999980759 0 0 -0.1779999999998102 0 0 -0.1779999999998102 0 0 -0.17899999999981281 0 0 -0.17899999999981281 0 0 -0.1799999999998155 0 0 -0.1799999999998155 0 0 -0.18099999999981811 0 0 -0.18099999999981811 0 0 -0.18199999999982069 0 0 -0.18199999999982069 0 0 -0.18299999999982339 0 0 -0.18299999999982339 0 0 -0.183999999999826 0 0 -0.183999999999826 0 0 -0.18499999999982869 0 0 -0.18499999999982869 0 0 -0.1859999999998313 0 0 -0.1859999999998313 0 0 -0.18699999999983391 0 0 -0.18699999999983391 0 0 -0.1879999999998366 0 0 -0.1879999999998366 0 0 -0.18899999999983921 0 0 -0.18899999999983921 0 0 -0.18999999999984191 0 0 -0.18999999999984191 0 0 -0.19099999999984449 0 0 -0.19099999999984449 0 0 -0.1919999999998471 0 0 -0.1919999999998471 0 0 -0.19299999999984971 0 0 -0.19299999999984971 0 0 -0.1939999999998524 0 0 -0.1939999999998524 0 0 -0.19499999999985501 0 0 -0.19499999999985501 0 0 -0.1959999999998577 0 0 -0.1959999999998577 0 0 -0.19699999999986029 0 0 -0.19699999999986029 0 0 -0.19799999999986301 0 0 -0.19799999999986301 0 0 -0.19899999999986559 0 0 -0.19899999999986559 0 0 -0.1999999999998682 0 0 -0.1999999999998682 0 0 -0.20099999999987081 0 0 -0.20099999999987081 0 0 -0.2019999999998735 0 0 -0.2019999999998735 0 0 -0.20299999999987611 0 0 -0.20299999999987611 0 0 -0.20399999999987881 0 0 -0.20399999999987881 0 0 -0.20499999999988139 0 0 -0.20499999999988139 0 0 -0.205999999999884 0 0 -0.205999999999884 0 0 -0.20699999999988669 0 0 -0.20699999999988669 0 0 -0.2079999999998893 0 0 -0.2079999999998893 0 0 -0.20899999999989191 0 0 -0.20899999999989191 0 0 -0.2099999999998946 0 0 -0.2099999999998946 0 0 -0.21099999999989719 0 0 -0.21099999999989719 0 0 -0.21199999999989991 0 0 -0.21199999999989991 0 0 -0.21299999999990249 0 0 -0.21299999999990249 0 0 -0.2139999999999051 0 0 -0.2139999999999051 0 0 -0.21499999999990771 0 0 -0.21499999999990771 0 0 -0.2159999999999104 0 0 -0.2159999999999104 0 0 -0.21699999999991301 0 0 -0.21699999999991301 0 0 -0.21799999999991571 0 0 -0.21799999999991571 0 0 -0.21899999999991829 0 0 -0.21899999999991829 0 0 -0.2199999999999209 0 0 -0.2199999999999209 0 0 -0.22099999999992359 0 0 -0.22099999999992359 0 0 -0.2219999999999262 0 0 -0.2219999999999262 0 0 -0.22299999999992881 0 0 -0.22299999999992881 0 0 -0.22399999999993139 0 0 -0.22399999999993139 0 0 -0.22499999999993411 0 0 -0.22499999999993411 0 0 -0.2259999999999367 0 0 -0.2259999999999367 0 0 -0.22699999999993939 0 0 -0.22699999999993939 0 0 -0.227999999999942 0 0 -0.227999999999942 0 0 -0.22899999999994469 0 0 -0.22899999999994469 0 0 -0.2299999999999473 0 0 -0.2299999999999473 0 0 -0.23099999999994991 0 0 -0.23099999999994991 0 0 -0.23199999999995249 0 0 -0.23199999999995249 0 0 -0.23299999999995519 0 0 -0.23299999999995519 0 0 -0.2339999999999578 0 0 -0.2339999999999578 0 0 -0.23499999999996049 0 0 -0.23499999999996049 0 0 -0.2359999999999631 0 0 -0.2359999999999631 0 0 -0.23699999999996571 0 0 -0.23699999999996571 0 0 -0.2379999999999684 0 0 -0.2379999999999684 0 0 -0.23899999999997101 0 0 -0.23899999999997101 0 0 -0.2399999999999736 0 0 -0.2399999999999736 0 0 -0.24099999999997629 0 0 -0.24099999999997629 0 0 -0.2419999999999789 0 0 -0.2419999999999789 0 0 -0.24299999999998159 0 0 -0.24299999999998159 0 0 -0.2439999999999842 0 0 -0.2439999999999842 0 0 -0.24499999999998681 0 0 -0.24499999999998681 0 0 -0.24599999999998939 0 0 -0.24599999999998939 0 0 -0.24699999999999209 0 0 -0.24699999999999209 0 0 -0.2479999999999947 0 0 -0.2479999999999947 0 0 -0.24899999999999739 0 0 -0.24899999999999739 0 0 -0.25 
</DataArray>
</Points>
<Cells>
<DataArray type="UInt32" Name="connectivity" format="ascii">
0 1 2 3 4 5 6 7 8 9 10 11 12 13 14 15 16 17 18 19 20 21 22 23 24 25 26 27 28 29 30 31 32 33 34 35 36 37 38 39 40 41 42 43 44 45 46 47 48 49 50 51 52 53 54 55 56 57 58 59 60 61 62 63 64 65 66 67 68 69 70 71 72 73 74 75 76 77 78 79 80 81 82 83 84 85 86 87 88 89 90 91 92 93 94 95 96 97 98 99 100 101 102 103 104 105 106 107 108 109 110 111 112 113 114 115 116 117 118 119 120 121 122 123 124 125 126 127 128 129 130 131 132 133 134 135 136 137 138 139 140 141 142 143 144 145 146 147 148 149 150 151 152 153 154 155 156 157 158 159 160 161 162 163 164 165 166 167 168 169 170 171 172 173 174 175 176 177 178 179 180 181 182 183 184 185 186 187 188 189 190 191 192 193 194 195 196 197 198 199 200 201 202 203 204 205 206 207 208 209 210 211 212 213 214 215 216 217 218 219 220 221 222 223 224 225 226 227 228 229 230 231 232 233 234 235 236 237 238 239 240 241 242 243 244 245 246 247 248 249 250 251 252 253 254 255 256 257 258 259 260 261 262 263 264 265 266 267 268 269 270 271 272 273 274 275 276 277 278 279 280 281 282 283 284 285 286 287 288 289 290 291 292 293 294 295 296 297 298 299 300 301 302 303 304 305 306 307 308 309 310 311 312 313 314 315 316 317 318 319 320 321 322 323 324 325 326 327 328 329 330 331 332 333 334 335 336 337 338 339 340 341 342 343 344 345 346 347 348 349 350 351 352 353 354 355 356 357 358 359 360 361 362 363 364 365 366 367 368 369 370 371 372 373 374 375 376 377 378 379 380 381 382 383 384 385 386 387 388 389 390 391 392 393 394 395 396 397 398 399 400 401 402 403 404 405 406 407 408 409 410 411 412 413 414 415 416 417 418 419 420 421 422 423 424 425 426 427 428 429 430 431 432 433 434 435 436 437 438 439 440 441 442 443 444 445 446 447 448 449 450 451 452 453 454 455 456 457 458 459 460 461 462 463 464 465 466 467 468 469 470 471 472 473 474 475 476 477 478 479 480 481 482 483 484 485 486 487 488 489 490 491 492 493 494 495 496 497 498 499 
</DataArray>
<DataArray type="UInt32" Name="offsets" format="ascii">
2 4 6 8 10 12 14 16 18 20 22 24 26 28 30 32 34 36 38 40 42 44 46 48 50 52 54 56 58 60 62 64 66 68 70 72 74 76 78 80 82 84 86 88 90 92 94 96 98 100 102 104 106 108 110 112 114 116 118 120 122 124 126 128 130 132 134 136 138 140 142 144 146 148 150 152 154 156 158 160 162 164 166 168 170 172 174 176 178 180 182 184 186 188 190 192 194 196 198 200 202 204 206 208 210 212 214 216 218 220 222 224 226 228 230 232 234 236 238 240 242 244 246 248 250 252 254 256 258 260 262 264 266 268 270 272 274 276 278 280 282 284 286 288 290 292 294 296 298 300 302 304 306 308 310 312 314 316 318 320 322 324 326 328 330 332 334 336 338 340 342 344 346 348 350 352 354 356 358 360 362 364 366 368 370 372 374 376 378 380 382 384 386 388 390 392 394 396 398 400 402 404 406 408 410 412 414 416 418 420 422 424 426 428 430 432 434 436 438 440 442 444 446 448 450 452 454 456 458 460 462 464 466 468 470 472 474 476 478 480 482 484 486 488 490 492 494 496 498 500 
</DataArray>
<DataArray type="UInt32" Name="types" format="ascii">
3 3 3 3 3 3 3 3 3 3 3 3 3 3 3 3 3 3 3 3 3 3 3 3 3 3 3 3 3 3 3 3 3 3 3 3 3 3 3 3 3 3 3 3 3 3 3 3 3 3 3 3 3 3 3 3 3 3 3 3 3 3 3 3 3 3 3 3 3 3 3 3 3 3 3 3 3 3 3 3 3 3 3 3 3 3 3 3 3 3 3 3 3 3 3 3 3 3 3 3 3 3 3 3 3 3 3 3 3 3 3 3 3 3 3 3 3 3 3 3 3 3 3 3 3 3 3 3 3 3 3 3 3 3 3 3 3 3 3 3 3 3 3 3 3 3 3 3 3 3 3 3 3 3 3 3 3 3 3 3 3 3 3 3 3 3 3 3 3 3 3 3 3 3 3 3 3 3 3 3 3 3 3 3 3 3 3 3 3 3 3 3 3 3 3 3 3 3 3 3 3 3 3 3 3 3 3 3 3 3 3 3 3 3 3 3 3 3 3 3 3 3 3 3 3 3 3 3 3 3 3 3 3 3 3 3 3 3 3 3 3 3 3 3 3 3 3 3 3 3 
</DataArray>
</Cells>
<PointData Scalars="" Vectors="displacement," Tensors="">
<DataArray type="Float64" Name="displacement" NumberOfComponents="3" format="ascii">
0 0 -0.00044767231596306721 0 0 -0.00044536823015650998 0 0 -0.00044536823015650998 0 0 -0.00044307135665913106 0 0 -0.00044307135665913106 0 0 -0.00044078169339224169 0 0 -0.00044078169339224169 0 0 -0.00043849923689322218 0 0 -0.00043849923689322218 0 0 -0.00043622398231830999 0 0 -0.00043622398231830999 0 0 -0.00043395592344649519 0 0 -0.00043395592344649519 0 0 -0.00043169505268451279 0 0 -0.00043169505268451279 0 0 -0.00042944136107292229 0 0 -0.00042944136107292229 0 0 -0.00042719483829326222 0 0 -0.00042719483829326222 0 0 -0.00042495547267626046 0 0 -0.00042495547267626046 0 0 -0.00042272325121109003 0 0 -0.00042272325121109003 0 0 -0.00042049815955564067 0 0 -0.00042049815955564067 0 0 -0.00041828018204779517 0 0 -0.00041828018204779517 0 0 -0.00041606930171768038 0 0 -0.00041606930171768038 0 0 -0.00041386550030087166 0 0 -0.00041386550030087166 0 0 -0.00041166875825252339 0 0 -0.00041166875825252339 0 0 -0.0004094790547623969 0 0 -0.0004094790547623969 0 0 -0.00040729636777076054 0 0 -0.00040729636777076054 0 0 -0.00040512067398512636 0 0 -0.00040512067398512636 0 0 -0.00040295194889779673 0 0 -0.00040295194889779673 0 0 -0.00040079016680418872 0 0 -0.00040079016680418872 0 0 -0.00039863530082190059 0 0 -0.00039863530082190059 0 0 -0.00039648732291048963 0 0 -0.00039648732291048963 0 0 -0.00039434620389192679 0 0 -0.00039434620389192679 0 0 -0.0003922119134716926 0 0 -0.0003922119134716926 0 0 -0.00039008442026048111 0 0 -0.00039008442026048111 0 0 -0.00038796369179647531 0 0 -0.00038796369179647531 0 0 -0.00038584969456816 0 0 -0.00038584969456816 0 0 -0.00038374239403763592 0 0 -0.00038374239403763592 0 0 -0.00038164175466440177 0 0 -0.00038164175466440177 0 0 -0.00037954773992956444 0 0 -0.00037954773992956444 0 0 -0.00037746031236044923 0 0 -0.00037746031236044923 0 0 -0.00037537943355556792 0 0 -0.00037537943355556792 0 0 -0.00037330506420991716 0 0 -0.00037330506420991716 0 0 -0.00037123716414056844 0 0 -0.00037123716414056844 0 0 -0.00036917569231251733 0 0 -0.00036917569231251733 0 0 -0.00036712060686475986 0 0 -0.00036712060686475986 0 0 -0.00036507186513656266 0 0 -0.00036507186513656266 0 0 -0.00036302942369389422 0 0 -0.00036302942369389422 0 0 -0.00036099323835598782 0 0 -0.00036099323835598782 0 0 -0.00035896326422200393 0 0 -0.00035896326422200393 0 0 -0.00035693945569776296 0 0 -0.00035693945569776296 0 0 -0.00035492176652251914 0 0 -0.00035492176652251914 0 0 -0.00035291014979574629 0 0 -0.00035291014979574629 0 0 -0.0003509045580039103 0 0 -0.0003509045580039103 0 0 -0.00034890494304719831 0 0 -0.00034890494304719831 0 0 -0.0003469112562661816 0 0 -0.0003469112562661816 0 0 -0.00034492344846838517 0 0 -0.00034492344846838517 0 0 -0.00034294146995474101 0 0 -0.00034294146995474101 0 0 -0.00034096527054590202 0 0 -0.00034096527054590202 0 0 -0.00033899479960839275 0 0 -0.00033899479960839275 0 0 -0.0003370300060805769 0 0 -0.0003370300060805769 0 0 -0.00033507083849842052 0 0 -0.00033507083849842052 0 0 -0.00033311724502103104 0 0 -0.00033311724502103104 0 0 -0.00033116917345595411 0 0 -0.00033116917345595411 0 0 -0.0003292265712842094 0 0 -0.0003292265712842094 0 0 -0.00032728938568504909 0 0 -0.00032728938568504909 0 0 -0.00032535756356042258 0 0 -0.00032535756356042258 0 0 -0.00032343105155913261 0 0 -0.00032343105155913261 0 0 -0.00032150979610066818 0 0 -0.00032150979610066818 0 0 -0.00031959374339870041 0 0 -0.00031959374339870041 0 0 -0.00031768283948422997 0 0 -0.00031768283948422997 0 0 -0.00031577703022837232 0 0 -0.00031577703022837232 0 0 -0.00031387626136477188 0 0 -0.00031387626136477188 0 0 -0.00031198047851163386 0 0 -0.00031198047851163386 0 0 -0.00031008962719336348 0 0 -0.00031008962719336348 0 0 -0.00030820365286180623 0 0 -0.00030820365286180623 0 0 -0.00030632250091707858 0 0 -0.00030632250091707858 0 0 -0.00030444611672798475 0 0 -0.00030444611672798475 0 0 -0.00030257444565201064 0 0 -0.00030257444565201064 0 0 -0.00030070743305489071 0 0 -0.00030070743305489071 0 0 -0.00029884502432974265 0 0 -0.00029884502432974265 0 0 -0.0002969871649157645 0 0 -0.0002969871649157645 0 0 -0.00029513380031649146 0 0 -0.00029513380031649146 0 0 -0.00029328487611760896 0 0 -0.00029328487611760896 0 0 -0.00029144033800431861 0 0 -0.00029144033800431861 0 0 -0.00028960013177825632 0 0 -0.00028960013177825632 0 0 -0.00028776420337396072 0 0 -0.00028776420337396072 0 0 -0.00028593249887489021 0 0 -0.00028593249887489021 0 0 -0.00028410496452898953 0 0 -0.00028410496452898953 0 0 -0.0002822815467638054 0 0 -0.0002822815467638054 0 0 -0.00028046219220115087 0 0 -0.00028046219220115087 0 0 -0.00027864684767132177 0 0 -0.00027864684767132177 0 0 -0.00027683546022686407 0 0 -0.00027683546022686407 0 0 -0.00027502797715589549 0 0 -0.00027502797715589549 0 0 -0.00027322434599498415 0 0 -0.00027322434599498415 0 0 -0.00027142451454158537 0 0 -0.00027142451454158537 0 0 -0.00026962843086604093 0 0 -0.00026962843086604093 0 0 -0.0002678360433231435 0 0 -0.0002678360433231435 0 0 -0.00026604730056327072 0 0 -0.00026604730056327072 0 0 -0.00026426215154309114 0 0 -0.00026426215154309114 0 0 -0.00026248054553584869 0 0 -0.00026248054553584869 0 0 -0.00026070243214122799 0 0 -0.00026070243214122799 0 0 -0.00025892776129480736 0 0 -0.00025892776129480736 0 0 -0.00025715648327710245 0 0 -0.00025715648327710245 0 0 -0.00025538854872220754 0 0 -0.00025538854872220754 0 0 -0.00025362390862603907 0 0 -0.00025362390862603907 0 0 -0.000251862514354187 0 0 -0.000251862514354187 0 0 -0.00025010431764937991 0 0 -0.00025010431764937991 0 0 -0.0002483492706385705 0 0 -0.0002483492706385705 0 0 -0.00024659732583964616 0 0 -0.00024659732583964616 0 0 -0.00024484843616777273 0 0 -0.00024484843616777273 0 0 -0.00024310255494137592 0 0 -0.00024310255494137592 0 0 -0.00024135963588776857 0 0 -0.00024135963588776857 0 0 -0.00023961963314842903 0 0 -0.00023961963314842903 0 0 -0.00023788250128393786 0 0 -0.00023788250128393786 0 0 -0.00023614819527858038 0 0 -0.00023614819527858038 0 0 -0.00023441667054462009 0 0 -0.00023441667054462009 0 0 -0.00023268788292625129 0 0 -0.00023268788292625129 0 0 -0.00023096178870323739 0 0 -0.00023096178870323739 0 0 -0.0002292383445942421 0 0 -0.0002292383445942421 0 0 -0.00022751750775985873 0 0 -0.00022751750775985873 0 0 -0.00022579923580534817 0 0 -0.00022579923580534817 0 0 -0.00022408348678308864 0 0 -0.00022408348678308864 0 0 -0.00022237021919474656 0 0 -0.00022237021919474656 0 0 -0.00022065939199317485 0 0 -0.00022065939199317485 0 0 -0.00021895096458404559 0 0 -0.00021895096458404559 0 0 -0.0002172448968272235 0 0 -0.0002172448968272235 0 0 -0.00021554114903788932 0 0 -0.00021554114903788932 0 0 -0.00021383968198741588 0 0 -0.00021383968198741588 0 0 -0.00021214045690400742 0 0 -0.00021214045690400742 0 0 -0.00021044343547310781 0 0 -0.00021044343547310781 0 0 -0.00020874857983758341 0 0 -0.00020874857983758341 0 0 -0.00020705585259768637 0 0 -0.00020705585259768637 0 0 -0.00020536521681081507 0 0 -0.00020536521681081507 0 0 -0.00020367663599105178 0 0 -0.00020367663599105178 0 0 -0.00020199007410853068 0 0 -0.00020199007410853068 0 0 -0.00020030549558857903 0 0 -0.00020030549558857903 0 0 -0.00019862286531070248 0 0 -0.00019862286531070248 0 0 -0.00019694214860737261 0 0 -0.00019694214860737261 0 0 -0.00019526331126264881 0 0 -0.00019526331126264881 0 0 -0.00019358631951063221 0 0 -0.00019358631951063221 0 0 -0.00019191114003375725 0 0 -0.00019191114003375725 0 0 -0.00019023773996092934 0 0 -0.00019023773996092934 0 0 -0.00018856608686551056 0 0 -0.00018856608686551056 0 0 -0.0001868961487631642 0 0 -0.0001868961487631642 0 0 -0.00018522789410955852 0 0 -0.00018522789410955852 0 0 -0.00018356129179793927 0 0 -0.00018356129179793927 0 0 -0.00018189631115657465 0 0 -0.00018189631115657465 0 0 -0.00018023292194607645 0 0 -0.00018023292194607645 0 0 -0.00017857109435660666 0 0 -0.00017857109435660666 0 0 -0.00017691079900496968 0 0 -0.00017691079900496968 0 0 -0.00017525200693159945 0 0 -0.00017525200693159945 0 0 -0.00017359468959744388 0 0 -0.00017359468959744388 0 0 -0.00017193881888075095 0 0 -0.00017193881888075095 0 0 -0.00017028436707376343 0 0 -0.00017028436707376343 0 0 -0.00016863130687932458 0 0 -0.00016863130687932458 0 0 -0.00016697961140740101 0 0 -0.00016697961140740101 0 0 -0.00016532925417152441 0 0 -0.00016532925417152441 0 0 -0.00016368020908516013 0 0 -0.00016368020908516013 0 0 -0.00016203245045800314 0 0 -0.00016203245045800314 0 0 -0.00016038595299220748 0 0 -0.00016038595299220748 0 0 -0.00015874069177855305 0 0 -0.00015874069177855305 0 0 -0.00015709664229255146 0 0 -0.00015709664229255146 0 0 -0.0001554537803904981 0 0 -0.0001554537803904981 0 0 -0.00015381208230547038 0 0 -0.00015381208230547038 0 0 -0.0001521715246432789 0 0 -0.0001521715246432789 0 0 -0.0001505320843783725 0 0 -0.0001505320843783725 0 0 -0.00014889373884970081 0 0 -0.00014889373884970081 0 0 -0.00014725646575653933 0 0 -0.00014725646575653933 0 0 -0.00014562024315427856 0 0 -0.00014562024315427856 0 0 -0.00014398504945017885 0 0 -0.00014398504945017885 0 0 -0.00014235086339909792 0 0 -0.00014235086339909792 0 0 -0.00014071766409918981 0 0 -0.00014071766409918981 0 0 -0.00013908543098757923 0 0 -0.00013908543098757923 0 0 -0.0001374541438360157 0 0 -0.0001374541438360157 0 0 -0.00013582378274650683 0 0 -0.00013582378274650683 0 0 -0.00013419432814693608 0 0 -0.00013419432814693608 0 0 -0.00013256576078666613 0 0 -0.00013256576078666613 0 0 -0.00013093806173212829 0 0 -0.00013093806173212829 0 0 -0.00012931121236240461 0 0 -0.00012931121236240461 0 0 -0.00012768519436479964 0 0 -0.00012768519436479964 0 0 -0.00012605998973040826 0 0 -0.00012605998973040826 0 0 -0.00012443558074967735 0 0 -0.00012443558074967735 0 0 -0.00012281195000796762 0 0 -0.00012281195000796762 0 0 -0.0001211890803811127 0 0 -0.0001211890803811127 0 0 -0.00011956695503098165 0 0 -0.00011956695503098165 0 0 -0.0001179455574010423 0 0 -0.0001179455574010423 0 0 -0.00011632487121193063 0 0 -0.00011632487121193063 0 0 -0.00011470488045702482 0 0 -0.00011470488045702482 0 0 -0.00011308556939802755 0 0 -0.00011308556939802755 0 0 -0.00011146692256055529 0 0 -0.00011146692256055529 0 0 -0.0001098489247297388 0 0 -0.0001098489247297388 0 0 -0.00010823156094583449 0 0 -0.00010823156094583449 0 0 -0.00010661481649984622 0 0 -0.00010661481649984622 0 0 -0.00010499867692916252 0 0 -0.00010499867692916252 0 0 -0.00010338312801320579 0 0 -0.00010338312801320579 0 0 -0.00010176815576909778 0 0 -0.00010176815576909778 0 0 -0.00010015374644734106 0 0 -0.00010015374644734106 0 0 -9.8539886527515555e-05 0 0 -9.8539886527515555e-05 0 0 -9.6926562713994812e-05 0 0 -9.6926562713994812e-05 0 0 -9.5313761931678016e-05 0 0 -9.5313761931678016e-05 0 0 -9.3701471321742746e-05 0 0 -9.3701471321742746e-05 0 0 -9.2089678237415658e-05 0 0 -9.2089678237415658e-05 0 0 -9.0478370239764286e-05 0 0 -9.0478370239764286e-05 0 0 -8.8867535093507374e-05 0 0 -8.8867535093507374e-05 0 0 -8.7257160762848287e-05 0 0 -8.7257160762848287e-05 0 0 -8.5647235407327124e-05 0 0 -8.5647235407327124e-05 0 0 -8.4037747377697133e-05 0 0 -8.4037747377697133e-05 0 0 -8.2428685211819784e-05 0 0 -8.2428685211819784e-05 0 0 -8.0820037630584645e-05 0 0 -8.0820037630584645e-05 0 0 -7.9211793533849807e-05 0 0 -7.9211793533849807e-05 0 0 -7.7603941996405977e-05 0 0 -7.7603941996405977e-05 0 0 -7.5996472263961494e-05 0 0 -7.5996472263961494e-05 0 0 -7.4389373749152106e-05 0 0 -7.4389373749152106e-05 0 0 -7.2782636027571209e-05 0 0 -7.2782636027571209e-05 0 0 -7.1176248833824799e-05 0 0 -7.1176248833824799e-05 0 0 -6.9570202057608207e-05 0 0 -6.9570202057608207e-05 0 0 -6.7964485739805029e-05 0 0 -6.7964485739805029e-05 0 0 -6.6359090068609342e-05 0 0 -6.6359090068609342e-05 0 0 -6.4754005375670744e-05 0 0 -6.4754005375670744e-05 0 0 -6.314922213225984e-05 0 0 -6.314922213225984e-05 0 0 -6.1544730945458734e-05 0 0 -6.1544730945458734e-05 0 0 -5.9940522554370189e-05 0 0 -5.9940522554370189e-05 0 0 -5.8336587826351077e-05 0 0 -5.8336587826351077e-05 0 0 -5.6732917753265729e-05 0 0 -5.6732917753265729e-05 0 0 -5.5129503447761473e-05 0 0 -5.5129503447761473e-05 0 0 -5.352633613956335e-05 0 0 -5.352633613956335e-05 0 0 -5.1923407171791466e-05 0 0 -5.1923407171791466e-05 0 0 -5.0320707997296131e-05 0 0 -5.0320707997296131e-05 0 0 -4.871823017501455e-05 0 0 -4.871823017501455e-05 0 0 -4.7115965366346281e-05 0 0 -4.7115965366346281e-05 0 0 -4.5513905331546597e-05 0 0 -4.5513905331546597e-05 0 0 -4.391204192613968e-05 0 0 -4.391204192613968e-05 0 0 -4.2310367097348586e-05 0 0 -4.2310367097348586e-05 0 0 -4.0708872880544223e-05 0 0 -4.0708872880544223e-05 0 0 -3.9107551395708799e-05 0 0 -3.9107551395708799e-05 0 0 -3.7506394843918686e-05 0 0 -3.7506394843918686e-05 0 0 -3.5905395503840415e-05 0 0 -3.5905395503840415e-05 0 0 -3.4304545728244396e-05 0 0 -3.4304545728244396e-05 0 0 -3.2703837940531396e-05 0 0 -3.2703837940531396e-05 0 0 -3.1103264631274742e-05 0 0 -3.1103264631274742e-05 0 0 -2.9502818354775082e-05 0 0 -2.9502818354775082e-05 0 0 -2.790249172562941e-05 0 0 -2.790249172562941e-05 0 0 -2.6302277415310569e-05 0 0 -2.6302277415310569e-05 0 0 -2.4702168148760667e-05 0 0 -2.4702168148760667e-05 0 0 -2.3102156700993724e-05 0 0 -2.3102156700993724e-05 0 0 -2.1502235893709963e-05 0 0 -2.1502235893709963e-05 0 0 -1.9902398591920002e-05 0 0 -1.9902398591920002e-05 0 0 -1.8302637700576994e-05 0 0 -1.8302637700576994e-05 0 0 -1.6702946161218266e-05 0 0 -1.6702946161218266e-05 0 0 -1.5103316948615139e-05 0 0 -1.5103316948615139e-05 0 0 -1.350374306742809e-05 0 0 -1.350374306742809e-05 0 0 -1.1904217548870557e-05 0 0 -1.1904217548870557e-05 0 0 -1.0304733447376418e-05 0 0 -1.0304733447376418e-05 0 0 -8.7052838372739754e-06 0 0 -8.7052838372739754e-06 0 0 -7.1058618094632117e-06 0 0 -7.1058618094632117e-06 0 0 -5.5064604680978957e-06 0 0 -5.5064604680978957e-06 0 0 -3.9070729272686306e-06 0 0 -3.9070729272686306e-06 0 0 -2.3076923076902943e-06 
</DataArray>
</PointData>
<CellData Scalars="" Vectors="" Tensors="stress,">
<DataArray type="Float64" Name="stress" NumberOfComponents="9" format="ascii">
-53762002.153102875 0 0 0 -53762002.153102875 0 0 0 -99843718.28433609 -53593714.938943863 0 0 0 -53593714.938943863 0 0 0 -99531184.886608124 -53425476.227519989 0 0 0 -53425476.227519989 0 0 0 -99218741.565391541 -53257318.310556412 0 0 0 -53257318.310556412 0 0 0 -98906448.291030884 -53089273.414716721 0 0 0 -53089273.414716721 0 0 0 -98594364.913043976 -52921373.675777435 0 0 0 -52921373.675777435 0 0 0 -98282551.112163544 -52753651.113027573 0 0 0 -52753651.113027573 0 0 0 -97971066.35276413 -52586137.603883743 0 0 0 -52586137.603883743 0 0 0 -97659969.835784912 -52418864.858846664 0 0 0 -52418864.858846664 0 0 0 -97349320.452144623 -52251864.396820068 0 0 0 -52251864.396820068 0 0 0 -97039176.736949921 -52085167.520759583 0 0 0 -52085167.520759583 0 0 0 -96729596.824268341 -51918805.293933868 0 0 0 -51918805.293933868 0 0 0 -96420638.403022766 -51752808.51651001 0 0 0 -51752808.51651001 0 0 0 -96112358.673519135 -51587207.702791214 0 0 0 -51587207.702791214 0 0 0 -95804814.305183411 -51422033.05897522 0 0 0 -51422033.05897522 0 0 0 -95498061.395240784 -51257314.461559296 0 0 0 -51257314.461559296 0 0 0 -95192155.428607941 -51093081.436372757 0 0 0 -51093081.436372757 0 0 0 -94887151.238975525 -50929363.13826561 0 0 0 -50929363.13826561 0 0 0 -94583102.971061707 -50766188.331542969 0 0 0 -50766188.331542969 0 0 0 -94280064.04429245 -50603585.371101379 0 0 0 -50603585.371101379 0 0 0 -93978087.117759705 -50441582.184263229 0 0 0 -50441582.184263229 0 0 0 -93677224.056491852 -50280206.25346756 0 0 0 -50280206.25346756 0 0 0 -93377525.899291992 -50119484.599664688 0 0 0 -50119484.599664688 0 0 0 -93079042.827953339 -49959443.766542435 0 0 0 -49959443.766542435 0 0 0 -92781824.137863159 -49800109.805541992 0 0 0 -49800109.805541992 0 0 0 -92485918.210289001 -49641508.261676788 0 0 0 -49641508.261676788 0 0 0 -92191372.485971451 -49483664.160211563 0 0 0 -49483664.160211563 0 0 0 -91898233.440393448 -49326601.994100571 0 0 0 -49326601.994100571 0 0 0 -91606546.560470581 -49170345.712305069 0 0 0 -49170345.712305069 0 0 0 -91316356.322849274 -49014918.708883286 0 0 0 -49014918.708883286 0 0 0 -91027706.173641205 -48860343.812963486 0 0 0 -48860343.812963486 0 0 0 -90740638.509788513 -48706643.279472351 0 0 0 -48706643.279472351 0 0 0 -90455194.661876678 -48553838.78068924 0 0 0 -48553838.78068924 0 0 0 -90171414.878421783 -48401951.398654938 0 0 0 -48401951.398654938 0 0 0 -89889338.311788559 -48251001.618278503 0 0 0 -48251001.618278503 0 0 0 -89609003.005373001 -48101009.321332932 0 0 0 -48101009.321332932 0 0 0 -89330445.882474899 -47951993.781147003 0 0 0 -47951993.781147003 0 0 0 -89053702.736415863 -47803973.658074379 0 0 0 -47803973.658074379 0 0 0 -88778808.222137451 -47656966.995736122 0 0 0 -47656966.995736122 0 0 0 -88505795.849224091 -47510991.217954636 0 0 0 -47510991.217954636 0 0 0 -88234697.976202011 -47366063.126429558 0 0 0 -47366063.126429558 0 0 0 -87965545.806224823 -47222198.899093628 0 0 0 -47222198.899093628 0 0 0 -87698369.384031296 -47079414.089159966 0 0 0 -47079414.089159966 0 0 0 -87433197.594154358 -46937723.624836922 0 0 0 -46937723.624836922 0 0 0 -87170058.160411835 -46797141.809642792 0 0 0 -46797141.809642792 0 0 0 -86908977.64648056 -46657682.323415756 0 0 0 -46657682.323415756 0 0 0 -86649981.457773209 -46519358.223859787 0 0 0 -46519358.223859787 0 0 0 -86393093.844308853 -46382181.948719025 0 0 0 -46382181.948719025 0 0 0 -86138337.904764175 -46246165.318498611 0 0 0 -46246165.318498611 0 0 0 -85885735.591497421 -46111319.539710999 0 0 0 -46111319.539710999 0 0 0 -85635307.71660614 -45977655.208683968 0 0 0 -45977655.208683968 0 0 0 -85387073.958984375 -45845182.315835953 0 0 0 -45845182.315835953 0 0 0 -85141052.872266769 -45713910.250449181 0 0 0 -45713910.250449181 0 0 0 -84897261.893690109 -45583847.805887222 0 0 0 -45583847.805887222 0 0 0 -84655717.353792191 -45455003.185260773 0 0 0 -45455003.185260773 0 0 0 -84416434.486913681 -45327384.007509232 0 0 0 -45327384.007509232 0 0 0 -84179427.442516327 -45200997.313872337 0 0 0 -45200997.313872337 0 0 0 -83944709.29719162 -45075849.5747509 0 0 0 -45075849.5747509 0 0 0 -83712292.067394257 -44951946.696896553 0 0 0 -44951946.696896553 0 0 0 -83482186.722808838 -44829294.030967712 0 0 0 -44829294.030967712 0 0 0 -83254403.200368881 -44707896.379378319 0 0 0 -44707896.379378319 0 0 0 -83028950.418844223 -44587758.004440308 0 0 0 -44587758.004440308 0 0 0 -82805836.293960571 -44468882.636808395 0 0 0 -44468882.636808395 0 0 0 -82585067.754072189 -44351273.484139442 0 0 0 -44351273.484139442 0 0 0 -82366650.756258011 -44234933.240016937 0 0 0 -44234933.240016937 0 0 0 -82150590.30288887 -44119864.093103409 0 0 0 -44119864.093103409 0 0 0 -81936890.458621979 -44006067.7364645 0 0 0 -44006067.7364645 0 0 0 -81725554.36771965 -43893545.377105713 0 0 0 -43893545.377105713 0 0 0 -81516584.27176857 -43782297.745650291 0 0 0 -43782297.745650291 0 0 0 -81309981.527637482 -43672325.106190681 0 0 0 -43672325.106190681 0 0 0 -81105746.625780106 -43563627.26625824 0 0 0 -43563627.26625824 0 0 0 -80903879.20876503 -43456203.586914062 0 0 0 -43456203.586914062 0 0 0 -80704378.089984894 -43350052.992950439 0 0 0 -43350052.992950439 0 0 0 -80507241.272623062 -43245173.983163834 0 0 0 -43245173.983163834 0 0 0 -80312465.968732834 -43141564.640716553 0 0 0 -43141564.640716553 0 0 0 -80120048.61847496 -43039222.643567085 0 0 0 -43039222.643567085 0 0 0 -79929984.909481049 -42938145.27491188 0 0 0 -42938145.27491188 0 0 0 -79742269.796264648 -42838329.433689117 0 0 0 -42838329.433689117 0 0 0 -79556897.519708633 -42739771.645102501 0 0 0 -42739771.645102501 0 0 0 -79373861.626619339 -42642468.071140289 0 0 0 -42642468.071140289 0 0 0 -79193154.98925972 -42546414.521086693 0 0 0 -42546414.521086693 0 0 0 -79014769.824876785 -42451606.462062836 0 0 0 -42451606.462062836 0 0 0 -78838697.715259552 -42358039.02946949 0 0 0 -42358039.02946949 0 0 0 -78664929.626155853 -42265707.037469864 0 0 0 -42265707.037469864 0 0 0 -78493455.926729202 -42174604.98938942 0 0 0 -42174604.98938942 0 0 0 -78324266.408866882 -42084727.088053703 0 0 0 -42084727.088053703 0 0 0 -78157350.30638504 -41996067.24609375 0 0 0 -41996067.24609375 0 0 0 -77992696.314174652 -41908619.096159935 0 0 0 -41908619.096159935 0 0 0 -77830292.607152939 -41822376.001062393 0 0 0 -41822376.001062393 0 0 0 -77670126.859115601 -41737331.063819885 0 0 0 -41737331.063819885 0 0 0 -77512186.261379242 -41653477.137644768 0 0 0 -41653477.137644768 0 0 0 -77356457.541339874 -41570806.835778236 0 0 0 -41570806.835778236 0 0 0 -77202926.980731964 -41489312.541270256 0 0 0 -41489312.541270256 0 0 0 -77051580.4337883 -41408986.416602135 0 0 0 -41408986.416602135 0 0 0 -76902403.345117569 -41329820.413234711 0 0 0 -41329820.413234711 0 0 0 -76755380.767436981 -41251806.281002045 0 0 0 -41251806.281002045 0 0 0 -76610497.379003525 -41174935.577384949 0 0 0 -41174935.577384949 0 0 0 -76467737.5008564 -41099199.676667213 0 0 0 -41099199.676667213 0 0 0 -76327085.113811493 -41024589.778952599 0 0 0 -41024589.778952599 0 0 0 -76188523.875196457 -40951096.919005394 0 0 0 -40951096.919005394 0 0 0 -76052037.135295868 -40878711.975020409 0 0 0 -40878711.975020409 0 0 0 -75917607.953609467 -40807425.677164078 0 0 0 -40807425.677164078 0 0 0 -75785219.11473465 -40737228.616044044 0 0 0 -40737228.616044044 0 0 0 -75654853.144081116 -40668111.250957489 0 0 0 -40668111.250957489 0 0 0 -75526492.323205948 -40600063.91804409 0 0 0 -40600063.91804409 0 0 0 -75400118.704940796 -40533076.838244438 0 0 0 -40533076.838244438 0 0 0 -75275714.128168106 -40467140.125124931 0 0 0 -40467140.125124931 0 0 0 -75153260.232376099 -40402243.792524338 0 0 0 -40402243.792524338 0 0 0 -75032738.471830368 -40338377.762055397 0 0 0 -40338377.762055397 0 0 0 -74914130.129529953 -40275531.870441437 0 0 0 -40275531.870441437 0 0 0 -74797416.330820084 -40213695.876677513 0 0 0 -40213695.876677513 0 0 0 -74682578.056686401 -40152859.469061852 0 0 0 -40152859.469061852 0 0 0 -74569596.156829834 -40093012.272029877 0 0 0 -40093012.272029877 0 0 0 -74458451.36233902 -40034143.852838516 0 0 0 -40034143.852838516 0 0 0 -74349124.298130035 -39976243.728097916 0 0 0 -39976243.728097916 0 0 0 -74241595.495038986 -39919301.370121956 0 0 0 -39919301.370121956 0 0 0 -74135845.401655197 -39863306.213135719 0 0 0 -39863306.213135719 0 0 0 -74031854.395824432 -39808247.659297943 0 0 0 -39808247.659297943 0 0 0 -73929602.79583931 -39754115.084579468 0 0 0 -39754115.084579468 0 0 0 -73829070.871360779 -39700897.844495773 0 0 0 -39700897.844495773 0 0 0 -73730238.854063034 -39648585.279644966 0 0 0 -39648585.279644966 0 0 0 -73633086.947914124 -39597166.721105576 0 0 0 -39597166.721105576 0 0 0 -73537595.339195251 -39546631.495684624 0 0 0 -39546631.495684624 0 0 0 -73443744.206270218 -39496968.930994034 0 0 0 -39496968.930994034 0 0 0 -73351513.728988647 -39448168.360393524 0 0 0 -39448168.360393524 0 0 0 -73260884.09787178 -39400219.12775898 0 0 0 -39400219.12775898 0 0 0 -73171835.522981644 -39353110.592108727 0 0 0 -39353110.592108727 0 0 0 -73084348.242486954 -39306832.132102966 0 0 0 -39306832.132102966 0 0 0 -72998402.531047821 -39261373.150346756 0 0 0 -39261373.150346756 0 0 0 -72913978.707788467 -39216723.077594757 0 0 0 -39216723.077594757 0 0 0 -72831057.144104004 -39172871.376786232 0 0 0 -39172871.376786232 0 0 0 -72749618.271175385 -39129807.546953201 0 0 0 -39129807.546953201 0 0 0 -72669642.587199211 -39087521.126976967 0 0 0 -39087521.126976967 0 0 0 -72591110.664386749 -39046001.699215889 0 0 0 -39046001.699215889 0 0 0 -72514003.155687332 -39005238.892999649 0 0 0 -39005238.892999649 0 0 0 -72438300.80128479 -38965222.387980461 0 0 0 -38965222.387980461 0 0 0 -72363984.434820175 -38925941.91736412 0 0 0 -38925941.91736412 0 0 0 -72291034.989390373 -38887387.271011353 0 0 0 -38887387.271011353 0 0 0 -72219433.503306389 -38849548.298406124 0 0 0 -38849548.298406124 0 0 0 -72149161.125612259 -38812414.911520004 0 0 0 -38812414.911520004 0 0 0 -72080199.121394157 -38775977.087528706 0 0 0 -38775977.087528706 0 0 0 -72012528.876838684 -38740224.87142849 0 0 0 -38740224.87142849 0 0 0 -71946131.904081345 -38705148.37853384 0 0 0 -38705148.37853384 0 0 0 -71880989.845849037 -38670737.796862602 0 0 0 -38670737.796862602 0 0 0 -71817084.479887962 -38636983.389400482 0 0 0 -38636983.389400482 0 0 0 -71754397.723172188 -38603875.496275425 0 0 0 -38603875.496275425 0 0 0 -71692911.635940552 -38571404.536802769 0 0 0 -38571404.536802769 0 0 0 -71632608.425490379 -38539561.011449337 0 0 0 -38539561.011449337 0 0 0 -71573470.44983387 -38508335.503683567 0 0 0 -38508335.503683567 0 0 0 -71515480.22112751 -38477718.681732655 0 0 0 -38477718.681732655 0 0 0 -71458620.408932686 -38447701.300229549 0 0 0 -38447701.300229549 0 0 0 -71402873.8432827 -38418274.201795101 0 0 0 -38418274.201795101 0 0 0 -71348223.517620087 -38389428.31850338 0 0 0 -38389428.31850338 0 0 0 -71294652.591506004 -38361154.673266888 0 0 0 -38361154.673266888 0 0 0 -71242144.393210411 -38333444.381145954 0 0 0 -38333444.381145954 0 0 0 -71190682.422128677 -38306288.650546551 0 0 0 -38306288.650546551 0 0 0 -71140250.351015091 -38279678.7843647 0 0 0 -38279678.7843647 0 0 0 -71090832.028106689 -38253606.181049824 0 0 0 -38253606.181049824 0 0 0 -71042411.479091644 -38228062.33557272 0 0 0 -38228062.33557272 0 0 0 -70994972.908921242 -38203038.840331554 0 0 0 -38203038.840331554 0 0 0 -70948500.703472137 -38178527.385986328 0 0 0 -38178527.385986328 0 0 0 -70902979.431117058 -38154519.762227058 0 0 0 -38154519.762227058 0 0 0 -70858393.844135284 -38131007.85845232 0 0 0 -38131007.85845232 0 0 0 -70814728.879982948 -38107983.664422989 0 0 0 -38107983.664422989 0 0 0 -70771969.662499428 -38085439.270810604 0 0 0 -38085439.270810604 0 0 0 -70730101.502934456 -38063366.869716167 0 0 0 -38063366.869716167 0 0 0 -70689109.900901794 -38041758.75510788 0 0 0 -38041758.75510788 0 0 0 -70648980.545199394 -38020607.323215008 0 0 0 -38020607.323215008 0 0 0 -70609699.31454277 -37999905.072866917 0 0 0 -37999905.072866917 0 0 0 -70571252.27818203 -37979644.605783463 0 0 0 -37979644.605783463 0 0 0 -70533625.696455956 -37959818.626787186 0 0 0 -37959818.626787186 0 0 0 -70496806.021175385 -37940419.944013596 0 0 0 -37940419.944013596 0 0 0 -70460779.896024704 -37921441.469033241 0 0 0 -37921441.469033241 0 0 0 -70425534.156776428 -37902876.216952324 0 0 0 -37902876.216952324 0 0 0 -70391055.831482887 -37884717.306461334 0 0 0 -37884717.306461334 0 0 0 -70357332.140571594 -37866957.95984602 0 0 0 -37866957.95984602 0 0 0 -70324350.496857643 -37849591.502960205 0 0 0 -37849591.502960205 0 0 0 -70292098.505497932 -37832611.365152836 0 0 0 -37832611.365152836 0 0 0 -70260563.96385479 -37816011.079173565 0 0 0 -37816011.079173565 0 0 0 -70229734.861322403 -37799784.281033516 0 0 0 -37799784.281033516 0 0 0 -70199599.379062653 -37783924.709837914 0 0 0 -37783924.709837914 0 0 0 -70170145.889698982 -37768426.207588673 0 0 0 -37768426.207588673 0 0 0 -70141362.956950188 -37753282.718949795 0 0 0 -37753282.718949795 0 0 0 -70113239.33519268 -37738488.291001797 0 0 0 -37738488.291001797 0 0 0 -70085763.969003677 -37724037.072957993 0 0 0 -37724037.072957993 0 0 0 -70058925.992635727 -37709923.315854549 0 0 0 -37709923.315854549 0 0 0 -70032714.72944355 -37696141.372225285 0 0 0 -37696141.372225285 0 0 0 -70007119.691275597 -37682685.695752144 0 0 0 -37682685.695752144 0 0 0 -69982130.577824593 -37669550.840891838 0 0 0 -37669550.840891838 0 0 0 -69957737.275941849 -37656731.462493896 0 0 0 -37656731.462493896 0 0 0 -69933929.858917236 -37644222.315386772 0 0 0 -37644222.315386772 0 0 0 -69910698.585718632 -37632018.253960609 0 0 0 -37632018.253960609 0 0 0 -69888033.900212288 -37620114.231724739 0 0 0 -37620114.231724739 0 0 0 -69865926.430346012 -37608505.30086422 0 0 0 -37608505.30086422 0 0 0 -69844366.987318993 -37597186.611767292 0 0 0 -37597186.611767292 0 0 0 -69823346.564710617 -37586153.412559986 0 0 0 -37586153.412559986 0 0 0 -69802856.337611198 -37575401.048614979 0 0 0 -37575401.048614979 0 0 0 -69782887.6617136 -37564924.962058306 0 0 0 -37564924.962058306 0 0 0 -69763432.072393894 -37554720.691269398 0 0 0 -37554720.691269398 0 0 0 -69744481.283786297 -37544783.870373487 0 0 0 -37544783.870373487 0 0 0 -69726027.18783617 -37535110.228722095 0 0 0 -37535110.228722095 0 0 0 -69708061.853341103 -37525695.590378523 0 0 0 -37525695.590378523 0 0 0 -69690577.524988651 -37516535.873591423 0 0 0 -37516535.873591423 0 0 0 -69673566.622384071 -37507627.090270281 0 0 0 -37507627.090270281 0 0 0 -69657021.739073277 -37498965.345455647 0 0 0 -37498965.345455647 0 0 0 -69640935.641560555 -37490546.836789608 0 0 0 -37490546.836789608 0 0 0 -69625301.268323898 -37482367.853981972 0 0 0 -37482367.853981972 0 0 0 -69610111.728823662 -37474424.778289318 0 0 0 -37474424.778289318 0 0 0 -69595360.302537441 -37466714.081976414 0 0 0 -37466714.081976414 0 0 0 -69581040.437956333 -37459232.327798367 0 0 0 -37459232.327798367 0 0 0 -69567145.751626015 -37451976.168470621 0 0 0 -37451976.168470621 0 0 0 -69553670.027159691 -37444942.346152544 0 0 0 -37444942.346152544 0 0 0 -69540607.21428299 -37438127.691929102 0 0 0 -37438127.691929102 0 0 0 -69527951.427868366 -37431529.125301838 0 0 0 -37431529.125301838 0 0 0 -69515696.946989059 -37425143.653681517 0 0 0 -37425143.653681517 0 0 0 -69503838.213979721 -37418968.371890783 0 0 0 -37418968.371890783 0 0 0 -69492369.833511353 -37413000.461668253 0 0 0 -37413000.461668253 0 0 0 -69481286.571670055 -37407237.191188812 0 0 0 -37407237.191188812 0 0 0 -69470583.355064869 -37401675.914580822 0 0 0 -37401675.914580822 0 0 0 -69460255.269935608 -37396314.071460247 0 0 0 -37396314.071460247 0 0 0 -69450297.561283112 -37391149.186469316 0 0 0 -37391149.186469316 0 0 0 -69440705.632014751 -37386178.868828535 0 0 0 -37386178.868828535 0 0 0 -69431475.042110443 -37381400.811895132 0 0 0 -37381400.811895132 0 0 0 -69422601.507805109 -37376812.792731524 0 0 0 -37376812.792731524 0 0 0 -69414080.900787115 -37372412.671690464 0 0 0 -37372412.671690464 0 0 0 -69405909.247425318 -37368198.392005205 0 0 0 -37368198.392005205 0 0 0 -69398082.728009939 -37364167.979392529 0 0 0 -37364167.979392529 0 0 0 -69390597.676014662 -37360319.541671872 0 0 0 -37360319.541671872 0 0 0 -69383450.577390432 -37356651.268392444 0 0 0 -37356651.268392444 0 0 0 -69376638.069871664 -37353161.430476308 0 0 0 -37353161.430476308 0 0 0 -69370156.942313194 -37349848.379872441 0 0 0 -37349848.379872441 0 0 0 -69364004.134048939 -37346710.549225569 0 0 0 -37346710.549225569 0 0 0 -69358176.734275818 -37343746.451558113 0 0 0 -37343746.451558113 0 0 0 -69352671.981465101 -37340954.679968238 0 0 0 -37340954.679968238 0 0 0 -69347487.262798071 -37338333.907338977 0 0 0 -37338333.907338977 0 0 0 -69342620.113629818 -37335882.886066914 0 0 0 -37335882.886066914 0 0 0 -69338068.216981292 -37333600.447797894 0 0 0 -37333600.447797894 0 0 0 -69333829.403053284 -37331485.503187239 0 0 0 -37331485.503187239 0 0 0 -69329901.648776174 -37329537.041668296 0 0 0 -37329537.041668296 0 0 0 -69326283.077383995 -37327754.131240427 0 0 0 -37327754.131240427 0 0 0 -69322971.958017945 -37326135.918269813 0 0 0 -37326135.918269813 0 0 0 -69319966.705358148 -37324681.627308846 0 0 0 -37324681.627308846 0 0 0 -69317265.879287839 -37323390.56093061 0 0 0 -37323390.56093061 0 0 0 -69314868.184585333 -37322262.099578321 0 0 0 -37322262.099578321 0 0 0 -69312772.470645487 -37321295.701432526 0 0 0 -37321295.701432526 0 0 0 -69310977.731231809 -37320490.90229395 0 0 0 -37320490.90229395 0 0 0 -69309483.104260206 -37319847.315483958 0 0 0 -37319847.315483958 0 0 0 -69308287.871613145 -37319364.631759971 0 0 0 -37319364.631759971 0 0 0 -69307391.458982825 -37319042.619249016 0 0 0 -37319042.619249016 0 0 0 -69306793.43574816 -37318881.123397104 0 0 0 -37318881.123397104 0 0 0 -69306493.514880359 
</DataArray>
</CellData>
</Piece>
</UnstructuredGrid>
</VTKFile>
