<?xml version="1.0"?>
<VTKFile type="UnstructuredGrid" version="0.1" byte_order="LittleEndian">
<UnstructuredGrid>
<Piece NumberOfPoints="500" NumberOfCells="250">
<Points>
<DataArray type="Float64" NumberOfComponents="3" format="ascii">
0 0 0 0 0 -0.00099999999999810158 0 0 -0.00099999999999810158 0 0 -0.001999999999996204 0 0 -0.001999999999996204 0 0 -0.0029999999999943271 0 0 -0.0029999999999943271 0 0 -0.0039999999999924488 0 0 -0.0039999999999924488 0 0 -0.004999999999990571 0 0 -0.004999999999990571 0 0 -0.0059999999999886811 0 0 -0.0059999999999886811 0 0 -0.0069999999999867156 0 0 -0.0069999999999867156 0 0 -0.007999999999984719 0 0 -0.007999999999984719 0 0 -0.008999999999982581 0 0 -0.008999999999982581 0 0 -0.0099999999999804221 0 0 -0.0099999999999804221 0 0 -0.010999999999978201 0 0 -0.010999999999978201 0 0 -0.011999999999975971 0 0 -0.011999999999975971 0 0 -0.01299999999997375 0 0 -0.01299999999997375 0 0 -0.01399999999997158 0 0 -0.01399999999997158 0 0 -0.014999999999969531 0 0 -0.014999999999969531 0 0 -0.01599999999996761 0 0 -0.01599999999996761 0 0 -0.0169999999999659 0 0 -0.0169999999999659 0 0 -0.01799999999996427 0 0 -0.01799999999996427 0 0 -0.018999999999962731 0 0 -0.018999999999962731 0 0 -0.019999999999961209 0 0 -0.019999999999961209 0 0 -0.020999999999959669 0 0 -0.020999999999959669 0 0 -0.02199999999995814 0 0 -0.02199999999995814 0 0 -0.022999999999956611 0 0 -0.022999999999956611 0 0 -0.023999999999955082 0 0 -0.023999999999955082 0 0 -0.024999999999953549 0 0 -0.024999999999953549 0 0 -0.02599999999995202 0 0 -0.02599999999995202 0 0 -0.02699999999995048 0 0 -0.02699999999995048 0 0 -0.027999999999948951 0 0 -0.027999999999948951 0 0 -0.028999999999947419 0 0 -0.028999999999947419 0 0 -0.02999999999994565 0 0 -0.02999999999994565 0 0 -0.03099999999994377 0 0 -0.03099999999994377 0 0 -0.031999999999941367 0 0 -0.031999999999941367 0 0 -0.032999999999938787 0 0 -0.032999999999938787 0 0 -0.033999999999935943 0 0 -0.033999999999935943 0 0 -0.034999999999933022 0 0 -0.034999999999933022 0 0 -0.035999999999930102 0 0 -0.035999999999930102 0 0 -0.036999999999927188 0 0 -0.036999999999927188 0 0 -0.037999999999924268 0 0 -0.037999999999924268 0 0 -0.038999999999921348 0 0 -0.038999999999921348 0 0 -0.039999999999918427 0 0 -0.039999999999918427 0 0 -0.040999999999915507 0 0 -0.040999999999915507 0 0 -0.041999999999912593 0 0 -0.041999999999912593 0 0 -0.042999999999909673 0 0 -0.042999999999909673 0 0 -0.043999999999906753 0 0 -0.043999999999906753 0 0 -0.044999999999903832 0 0 -0.044999999999903832 0 0 -0.045999999999900919 0 0 -0.045999999999900919 0 0 -0.046999999999897998 0 0 -0.046999999999897998 0 0 -0.047999999999895078 0 0 -0.047999999999895078 0 0 -0.048999999999892158 0 0 -0.048999999999892158 0 0 -0.049999999999889237 0 0 -0.049999999999889237 0 0 -0.050999999999886317 0 0 -0.050999999999886317 0 0 -0.051999999999883403 0 0 -0.051999999999883403 0 0 -0.052999999999880483 0 0 -0.052999999999880483 0 0 -0.053999999999877563 0 0 -0.053999999999877563 0 0 -0.054999999999874642 0 0 -0.054999999999874642 0 0 -0.055999999999871722 0 0 -0.055999999999871722 0 0 -0.056999999999868801 0 0 -0.056999999999868801 0 0 -0.057999999999865881 0 0 -0.057999999999865881 0 0 -0.058999999999862961 0 0 -0.058999999999862961 0 0 -0.059999999999860047 0 0 -0.059999999999860047 0 0 -0.060999999999857127 0 0 -0.060999999999857127 0 0 -0.061999999999854213 0 0 -0.061999999999854213 0 0 -0.062999999999851286 0 0 -0.062999999999851286 0 0 -0.063999999999848373 0 0 -0.063999999999848373 0 0 -0.064999999999845445 0 0 -0.064999999999845445 0 0 -0.065999999999842532 0 0 -0.065999999999842532 0 0 -0.066999999999839618 0 0 -0.066999999999839618 0 0 -0.067999999999836705 0 0 -0.067999999999836705 0 0 -0.068999999999833792 0 0 -0.068999999999833792 0 0 -0.069999999999830878 0 0 -0.069999999999830878 0 0 -0.070999999999827965 0 0 -0.070999999999827965 0 0 -0.071999999999825051 0 0 -0.071999999999825051 0 0 -0.072999999999822124 0 0 -0.072999999999822124 0 0 -0.07399999999981921 0 0 -0.07399999999981921 0 0 -0.074999999999816297 0 0 -0.074999999999816297 0 0 -0.075999999999813383 0 0 -0.075999999999813383 0 0 -0.07699999999981047 0 0 -0.07699999999981047 0 0 -0.077999999999807557 0 0 -0.077999999999807557 0 0 -0.078999999999804643 0 0 -0.078999999999804643 0 0 -0.07999999999980173 0 0 -0.07999999999980173 0 0 -0.080999999999798802 0 0 -0.080999999999798802 0 0 -0.081999999999795889 0 0 -0.081999999999795889 0 0 -0.082999999999792975 0 0 -0.082999999999792975 0 0 -0.083999999999790062 0 0 -0.083999999999790062 0 0 -0.084999999999787149 0 0 -0.084999999999787149 0 0 -0.085999999999784235 0 0 -0.085999999999784235 0 0 -0.086999999999781322 0 0 -0.086999999999781322 0 0 -0.087999999999778394 0 0 -0.087999999999778394 0 0 -0.088999999999775481 0 0 -0.088999999999775481 0 0 -0.089999999999772567 0 0 -0.089999999999772567 0 0 -0.090999999999769654 0 0 -0.090999999999769654 0 0 -0.091999999999766741 0 0 -0.091999999999766741 0 0 -0.092999999999763827 0 0 -0.092999999999763827 0 0 -0.093999999999760914 0 0 -0.093999999999760914 0 0 -0.094999999999758 0 0 -0.094999999999758 0 0 -0.095999999999755073 0 0 -0.095999999999755073 0 0 -0.096999999999752159 0 0 -0.096999999999752159 0 0 -0.097999999999749246 0 0 -0.097999999999749246 0 0 -0.098999999999746333 0 0 -0.098999999999746333 0 0 -0.099999999999743419 0 0 -0.099999999999743419 0 0 -0.10099999999974051 0 0 -0.10099999999974051 0 0 -0.10199999999973761 0 0 -0.10199999999973761 0 0 -0.10299999999973471 0 0 -0.10299999999973471 0 0 -0.10399999999973179 0 0 -0.10399999999973179 0 0 -0.1049999999997288 0 0 -0.1049999999997288 0 0 -0.1059999999997259 0 0 -0.1059999999997259 0 0 -0.106999999999723 0 0 -0.106999999999723 0 0 -0.1079999999997201 0 0 -0.1079999999997201 0 0 -0.1089999999997172 0 0 -0.1089999999997172 0 0 -0.1099999999997143 0 0 -0.1099999999997143 0 0 -0.1109999999997113 0 0 -0.1109999999997113 0 0 -0.1119999999997084 0 0 -0.1119999999997084 0 0 -0.1129999999997055 0 0 -0.1129999999997055 0 0 -0.1139999999997026 0 0 -0.1139999999997026 0 0 -0.1149999999996997 0 0 -0.1149999999996997 0 0 -0.1159999999996968 0 0 -0.1159999999996968 0 0 -0.11699999999969379 0 0 -0.11699999999969379 0 0 -0.11799999999969089 0 0 -0.11799999999969089 0 0 -0.11899999999968799 0 0 -0.11899999999968799 0 0 -0.11999999999968509 0 0 -0.11999999999968509 0 0 -0.1209999999996822 0 0 -0.1209999999996822 0 0 -0.1219999999996793 0 0 -0.1219999999996793 0 0 -0.1229999999996764 0 0 -0.1229999999996764 0 0 -0.1239999999996748 0 0 -0.1239999999996748 0 0 -0.12499999999967321 0 0 -0.12499999999967321 0 0 -0.12599999999967451 0 0 -0.12599999999967451 0 0 -0.12699999999967579 0 0 -0.12699999999967579 0 0 -0.1279999999996784 0 0 -0.1279999999996784 0 0 -0.12899999999968109 0 0 -0.12899999999968109 0 0 -0.1299999999996837 0 0 -0.1299999999996837 0 0 -0.13099999999968631 0 0 -0.13099999999968631 0 0 -0.13199999999968889 0 0 -0.13199999999968889 0 0 -0.13299999999969159 0 0 -0.13299999999969159 0 0 -0.1339999999996942 0 0 -0.1339999999996942 0 0 -0.13499999999969689 0 0 -0.13499999999969689 0 0 -0.1359999999996995 0 0 -0.1359999999996995 0 0 -0.13699999999970211 0 0 -0.13699999999970211 0 0 -0.1379999999997048 0 0 -0.1379999999997048 0 0 -0.13899999999970741 0 0 -0.13899999999970741 0 0 -0.13999999999971011 0 0 -0.13999999999971011 0 0 -0.14099999999971269 0 0 -0.14099999999971269 0 0 -0.1419999999997153 0 0 -0.1419999999997153 0 0 -0.14299999999971799 0 0 -0.14299999999971799 0 0 -0.1439999999997206 0 0 -0.1439999999997206 0 0 -0.14499999999972321 0 0 -0.14499999999972321 0 0 -0.14599999999972579 0 0 -0.14599999999972579 0 0 -0.14699999999972849 0 0 -0.14699999999972849 0 0 -0.1479999999997311 0 0 -0.1479999999997311 0 0 -0.14899999999973379 0 0 -0.14899999999973379 0 0 -0.1499999999997364 0 0 -0.1499999999997364 0 0 -0.15099999999973901 0 0 -0.15099999999973901 0 0 -0.1519999999997417 0 0 -0.1519999999997417 0 0 -0.15299999999974431 0 0 -0.15299999999974431 0 0 -0.15399999999974701 0 0 -0.15399999999974701 0 0 -0.15499999999974959 0 0 -0.15499999999974959 0 0 -0.1559999999997522 0 0 -0.1559999999997522 0 0 -0.15699999999975489 0 0 -0.15699999999975489 0 0 -0.1579999999997575 0 0 -0.1579999999997575 0 0 -0.15899999999976011 0 0 -0.15899999999976011 0 0 -0.1599999999997628 0 0 -0.1599999999997628 0 0 -0.16099999999976539 0 0 -0.16099999999976539 0 0 -0.161999999999768 0 0 -0.161999999999768 0 0 -0.16299999999977069 0 0 -0.16299999999977069 0 0 -0.1639999999997733 0 0 -0.1639999999997733 0 0 -0.16499999999977599 0 0 -0.16499999999977599 0 0 -0.1659999999997786 0 0 -0.1659999999997786 0 0 -0.16699999999978121 0 0 -0.16699999999978121 0 0 -0.16799999999978391 0 0 -0.16799999999978391 0 0 -0.16899999999978649 0 0 -0.16899999999978649 0 0 -0.1699999999997891 0 0 -0.1699999999997891 0 0 -0.17099999999979171 0 0 -0.17099999999979171 0 0 -0.1719999999997944 0 0 -0.1719999999997944 0 0 -0.17299999999979701 0 0 -0.17299999999979701 0 0 -0.1739999999997997 0 0 -0.1739999999997997 0 0 -0.17499999999980231 0 0 -0.17499999999980231 0 0 -0.17599999999980501 0 0 -0.17599999999980501 0 0 -0.17699999999980759 0 0 -0.17699999999980759 0 0 -0.1779999999998102 0 0 -0.1779999999998102 0 0 -0.17899999999981281 0 0 -0.17899999999981281 0 0 -0.1799999999998155 0 0 -0.1799999999998155 0 0 -0.18099999999981811 0 0 -0.18099999999981811 0 0 -0.18199999999982069 0 0 -0.18199999999982069 0 0 -0.18299999999982339 0 0 -0.18299999999982339 0 0 -0.183999999999826 0 0 -0.183999999999826 0 0 -0.18499999999982869 0 0 -0.18499999999982869 0 0 -0.1859999999998313 0 0 -0.1859999999998313 0 0 -0.18699999999983391 0 0 -0.18699999999983391 0 0 -0.1879999999998366 0 0 -0.1879999999998366 0 0 -0.18899999999983921 0 0 -0.18899999999983921 0 0 -0.18999999999984191 0 0 -0.18999999999984191 0 0 -0.19099999999984449 0 0 -0.19099999999984449 0 0 -0.1919999999998471 0 0 -0.1919999999998471 0 0 -0.19299999999984971 0 0 -0.19299999999984971 0 0 -0.1939999999998524 0 0 -0.1939999999998524 0 0 -0.19499999999985501 0 0 -0.19499999999985501 0 0 -0.1959999999998577 0 0 -0.1959999999998577 0 0 -0.19699999999986029 0 0 -0.19699999999986029 0 0 -0.19799999999986301 0 0 -0.19799999999986301 0 0 -0.19899999999986559 0 0 -0.19899999999986559 0 0 -0.1999999999998682 0 0 -0.1999999999998682 0 0 -0.20099999999987081 0 0 -0.20099999999987081 0 0 -0.2019999999998735 0 0 -0.2019999999998735 0 0 -0.20299999999987611 0 0 -0.20299999999987611 0 0 -0.20399999999987881 0 0 -0.20399999999987881 0 0 -0.20499999999988139 0 0 -0.20499999999988139 0 0 -0.205999999999884 0 0 -0.205999999999884 0 0 -0.20699999999988669 0 0 -0.20699999999988669 0 0 -0.2079999999998893 0 0 -0.2079999999998893 0 0 -0.20899999999989191 0 0 -0.20899999999989191 0 0 -0.2099999999998946 0 0 -0.2099999999998946 0 0 -0.21099999999989719 0 0 -0.21099999999989719 0 0 -0.21199999999989991 0 0 -0.21199999999989991 0 0 -0.21299999999990249 0 0 -0.21299999999990249 0 0 -0.2139999999999051 0 0 -0.2139999999999051 0 0 -0.21499999999990771 0 0 -0.21499999999990771 0 0 -0.2159999999999104 0 0 -0.2159999999999104 0 0 -0.21699999999991301 0 0 -0.21699999999991301 0 0 -0.21799999999991571 0 0 -0.21799999999991571 0 0 -0.21899999999991829 0 0 -0.21899999999991829 0 0 -0.2199999999999209 0 0 -0.2199999999999209 0 0 -0.22099999999992359 0 0 -0.22099999999992359 0 0 -0.2219999999999262 0 0 -0.2219999999999262 0 0 -0.22299999999992881 0 0 -0.22299999999992881 0 0 -0.22399999999993139 0 0 -0.22399999999993139 0 0 -0.22499999999993411 0 0 -0.22499999999993411 0 0 -0.2259999999999367 0 0 -0.2259999999999367 0 0 -0.22699999999993939 0 0 -0.22699999999993939 0 0 -0.227999999999942 0 0 -0.227999999999942 0 0 -0.22899999999994469 0 0 -0.22899999999994469 0 0 -0.2299999999999473 0 0 -0.2299999999999473 0 0 -0.23099999999994991 0 0 -0.23099999999994991 0 0 -0.23199999999995249 0 0 -0.23199999999995249 0 0 -0.23299999999995519 0 0 -0.23299999999995519 0 0 -0.2339999999999578 0 0 -0.2339999999999578 0 0 -0.23499999999996049 0 0 -0.23499999999996049 0 0 -0.2359999999999631 0 0 -0.2359999999999631 0 0 -0.23699999999996571 0 0 -0.23699999999996571 0 0 -0.2379999999999684 0 0 -0.2379999999999684 0 0 -0.23899999999997101 0 0 -0.23899999999997101 0 0 -0.2399999999999736 0 0 -0.2399999999999736 0 0 -0.24099999999997629 0 0 -0.24099999999997629 0 0 -0.2419999999999789 0 0 -0.2419999999999789 0 0 -0.24299999999998159 0 0 -0.24299999999998159 0 0 -0.2439999999999842 0 0 -0.2439999999999842 0 0 -0.24499999999998681 0 0 -0.24499999999998681 0 0 -0.24599999999998939 0 0 -0.24599999999998939 0 0 -0.24699999999999209 0 0 -0.24699999999999209 0 0 -0.2479999999999947 0 0 -0.2479999999999947 0 0 -0.24899999999999739 0 0 -0.24899999999999739 0 0 -0.25 
</DataArray>
</Points>
<Cells>
<DataArray type="UInt32" Name="connectivity" format="ascii">
0 1 2 3 4 5 6 7 8 9 10 11 12 13 14 15 16 17 18 19 20 21 22 23 24 25 26 27 28 29 30 31 32 33 34 35 36 37 38 39 40 41 42 43 44 45 46 47 48 49 50 51 52 53 54 55 56 57 58 59 60 61 62 63 64 65 66 67 68 69 70 71 72 73 74 75 76 77 78 79 80 81 82 83 84 85 86 87 88 89 90 91 92 93 94 95 96 97 98 99 100 101 102 103 104 105 106 107 108 109 110 111 112 113 114 115 116 117 118 119 120 121 122 123 124 125 126 127 128 129 130 131 132 133 134 135 136 137 138 139 140 141 142 143 144 145 146 147 148 149 150 151 152 153 154 155 156 157 158 159 160 161 162 163 164 165 166 167 168 169 170 171 172 173 174 175 176 177 178 179 180 181 182 183 184 185 186 187 188 189 190 191 192 193 194 195 196 197 198 199 200 201 202 203 204 205 206 207 208 209 210 211 212 213 214 215 216 217 218 219 220 221 222 223 224 225 226 227 228 229 230 231 232 233 234 235 236 237 238 239 240 241 242 243 244 245 246 247 248 249 250 251 252 253 254 255 256 257 258 259 260 261 262 263 264 265 266 267 268 269 270 271 272 273 274 275 276 277 278 279 280 281 282 283 284 285 286 287 288 289 290 291 292 293 294 295 296 297 298 299 300 301 302 303 304 305 306 307 308 309 310 311 312 313 314 315 316 317 318 319 320 321 322 323 324 325 326 327 328 329 330 331 332 333 334 335 336 337 338 339 340 341 342 343 344 345 346 347 348 349 350 351 352 353 354 355 356 357 358 359 360 361 362 363 364 365 366 367 368 369 370 371 372 373 374 375 376 377 378 379 380 381 382 383 384 385 386 387 388 389 390 391 392 393 394 395 396 397 398 399 400 401 402 403 404 405 406 407 408 409 410 411 412 413 414 415 416 417 418 419 420 421 422 423 424 425 426 427 428 429 430 431 432 433 434 435 436 437 438 439 440 441 442 443 444 445 446 447 448 449 450 451 452 453 454 455 456 457 458 459 460 461 462 463 464 465 466 467 468 469 470 471 472 473 474 475 476 477 478 479 480 481 482 483 484 485 486 487 488 489 490 491 492 493 494 495 496 497 498 499 
</DataArray>
<DataArray type="UInt32" Name="offsets" format="ascii">
2 4 6 8 10 12 14 16 18 20 22 24 26 28 30 32 34 36 38 40 42 44 46 48 50 52 54 56 58 60 62 64 66 68 70 72 74 76 78 80 82 84 86 88 90 92 94 96 98 100 102 104 106 108 110 112 114 116 118 120 122 124 126 128 130 132 134 136 138 140 142 144 146 148 150 152 154 156 158 160 162 164 166 168 170 172 174 176 178 180 182 184 186 188 190 192 194 196 198 200 202 204 206 208 210 212 214 216 218 220 222 224 226 228 230 232 234 236 238 240 242 244 246 248 250 252 254 256 258 260 262 264 266 268 270 272 274 276 278 280 282 284 286 288 290 292 294 296 298 300 302 304 306 308 310 312 314 316 318 320 322 324 326 328 330 332 334 336 338 340 342 344 346 348 350 352 354 356 358 360 362 364 366 368 370 372 374 376 378 380 382 384 386 388 390 392 394 396 398 400 402 404 406 408 410 412 414 416 418 420 422 424 426 428 430 432 434 436 438 440 442 444 446 448 450 452 454 456 458 460 462 464 466 468 470 472 474 476 478 480 482 484 486 488 490 492 494 496 498 500 
</DataArray>
<DataArray type="UInt32" Name="types" format="ascii">
3 3 3 3 3 3 3 3 3 3 3 3 3 3 3 3 3 3 3 3 3 3 3 3 3 3 3 3 3 3 3 3 3 3 3 3 3 3 3 3 3 3 3 3 3 3 3 3 3 3 3 3 3 3 3 3 3 3 3 3 3 3 3 3 3 3 3 3 3 3 3 3 3 3 3 3 3 3 3 3 3 3 3 3 3 3 3 3 3 3 3 3 3 3 3 3 3 3 3 3 3 3 3 3 3 3 3 3 3 3 3 3 3 3 3 3 3 3 3 3 3 3 3 3 3 3 3 3 3 3 3 3 3 3 3 3 3 3 3 3 3 3 3 3 3 3 3 3 3 3 3 3 3 3 3 3 3 3 3 3 3 3 3 3 3 3 3 3 3 3 3 3 3 3 3 3 3 3 3 3 3 3 3 3 3 3 3 3 3 3 3 3 3 3 3 3 3 3 3 3 3 3 3 3 3 3 3 3 3 3 3 3 3 3 3 3 3 3 3 3 3 3 3 3 3 3 3 3 3 3 3 3 3 3 3 3 3 3 3 3 3 3 3 3 3 3 3 3 3 3 
</DataArray>
</Cells>
<PointData Scalars="" Vectors="displacement," Tensors="">
<DataArray type="Float64" Name="displacement" NumberOfComponents="3" format="ascii">
0 0 -0.0004190228947723844 0 0 -0.00041672815388767176 0 0 -0.00041672815388767176 0 0 -0.00041445884944460567 0 0 -0.00041445884944460567 0 0 -0.00041221406543064505 0 0 -0.00041221406543064505 0 0 -0.0004099929188205255 0 0 -0.0004099929188205255 0 0 -0.00040779455838832712 0 0 -0.00040779455838832712 0 0 -0.00040561816356232276 0 0 -0.00040561816356232276 0 0 -0.00040346294332106465 0 0 -0.00040346294332106465 0 0 -0.00040132813512922422 0 0 -0.00040132813512922422 0 0 -0.00039921300391175665 0 0 -0.00039921300391175665 0 0 -0.00039711684106500392 0 0 -0.00039711684106500392 0 0 -0.00039503896350341492 0 0 -0.00039503896350341492 0 0 -0.00039297871274058898 0 0 -0.00039297871274058898 0 0 -0.00039093545400341757 0 0 -0.00039093545400341757 0 0 -0.00038890857537812469 0 0 -0.00038890857537812469 0 0 -0.0003868974869870609 0 0 -0.0003868974869870609 0 0 -0.00038490162019514263 0 0 -0.00038490162019514263 0 0 -0.00038292042684486818 0 0 -0.00038292042684486818 0 0 -0.00038095337851888329 0 0 -0.00038095337851888329 0 0 -0.00037899996582910255 0 0 -0.00037899996582910255 0 0 -0.00037705969773142945 0 0 -0.00037705969773142945 0 0 -0.00037513210086515751 0 0 -0.00037513210086515751 0 0 -0.00037321671891615821 0 0 -0.00037321671891615821 0 0 -0.00037131311200300292 0 0 -0.00037131311200300292 0 0 -0.00036942085608519164 0 0 -0.00036942085608519164 0 0 -0.00036753954239269213 0 0 -0.00036753954239269213 0 0 -0.00036566877687602253 0 0 -0.00036566877687602253 0 0 -0.00036380817967613776 0 0 -0.00036380817967613776 0 0 -0.00036195738461340551 0 0 -0.00036195738461340551 0 0 -0.00036011603869498592 0 0 -0.00036011603869498592 0 0 -0.00035828380163995178 0 0 -0.00035828380163995178 0 0 -0.00035646034542150787 0 0 -0.00035646034542150787 0 0 -0.00035464535382569889 0 0 -0.00035464535382569889 0 0 -0.00035283852202600588 0 0 -0.00035283852202600588 0 0 -0.00035103955617326503 0 0 -0.00035103955617326503 0 0 -0.00034924817300035279 0 0 -0.00034924817300035279 0 0 -0.00034746409944110701 0 0 -0.00034746409944110701 0 0 -0.00034568707226297231 0 0 -0.00034568707226297231 0 0 -0.00034391683771287345 0 0 -0.00034391683771287345 0 0 -0.0003421531511758418 0 0 -0.0003421531511758418 0 0 -0.00034039577684593584 0 0 -0.00034039577684593584 0 0 -0.00033864448740901157 0 0 -0.00033864448740901157 0 0 -0.00033689906373691753 0 0 -0.00033689906373691753 0 0 -0.00033515929459270214 0 0 -0.00033515929459270214 0 0 -0.00033342497634643694 0 0 -0.00033342497634643694 0 0 -0.00033169591270127395 0 0 -0.00033169591270127395 0 0 -0.00032997191442936792 0 0 -0.00032997191442936792 0 0 -0.00032825279911730858 0 0 -0.00032825279911730858 0 0 -0.00032653839092072024 0 0 -0.00032653839092072024 0 0 -0.00032482852032769867 0 0 -0.00032482852032769867 0 0 -0.00032312302393076734 0 0 -0.00032312302393076734 0 0 -0.00032142174420704561 0 0 -0.00032142174420704561 0 0 -0.00031972452930633348 0 0 -0.00031972452930633348 0 0 -0.00031803123284682806 0 0 -0.00031803123284682806 0 0 -0.00031634171371819629 0 0 -0.00031634171371819629 0 0 -0.00031465583589173973 0 0 -0.00031465583589173973 0 0 -0.00031297346823739506 0 0 -0.00031297346823739506 0 0 -0.00031129448434732569 0 0 -0.00031129448434732569 0 0 -0.00030961876236586526 0 0 -0.00030961876236586526 0 0 -0.00030794618482558531 0 0 -0.00030794618482558531 0 0 -0.00030627663848926701 0 0 -0.00030627663848926701 0 0 -0.00030461001419756329 0 0 -0.00030461001419756329 0 0 -0.00030294620672214679 0 0 -0.00030294620672214679 0 0 -0.00030128511462414648 0 0 -0.00030128511462414648 0 0 -0.00029962664011768243 0 0 -0.00029962664011768243 0 0 -0.00029797068893831465 0 0 -0.00029797068893831465 0 0 -0.00029631717021622912 0 0 -0.00029631717021622912 0 0 -0.00029466599635399123 0 0 -0.00029466599635399123 0 0 -0.00029301708290870076 0 0 -0.00029301708290870076 0 0 -0.00029137034847839132 0 0 -0.00029137034847839132 0 0 -0.00028972571459252009 0 0 -0.00028972571459252009 0 0 -0.000288083105606402 0 0 -0.000288083105606402 0 0 -0.00028644244859944495 0 0 -0.00028644244859944495 0 0 -0.00028480367327704965 0 0 -0.00028480367327704965 0 0 -0.00028316671187604293 0 0 -0.00028316671187604293 0 0 -0.00028153149907351603 0 0 -0.00028153149907351603 0 0 -0.00027989797189894553 0 0 -0.00027989797189894553 0 0 -0.00027826606964947938 0 0 -0.00027826606964947938 0 0 -0.0002766357338082736 0 0 -0.0002766357338082736 0 0 -0.00027500690796576963 0 0 -0.00027500690796576963 0 0 -0.00027337953774380649 0 0 -0.00027337953774380649 0 0 -0.00027175357072246642 0 0 -0.00027175357072246642 0 0 -0.00027012895636955393 0 0 -0.00027012895636955393 0 0 -0.00026850564597261561 0 0 -0.00026850564597261561 0 0 -0.00026688359257340683 0 0 -0.00026688359257340683 0 0 -0.0002652627509047191 0 0 -0.0002652627509047191 0 0 -0.00026364307732948232 0 0 -0.00026364307732948232 0 0 -0.00026202452978205961 0 0 -0.00026202452978205961 0 0 -0.00026040706771165685 0 0 -0.00026040706771165685 0 0 -0.00025879065202776957 0 0 -0.00025879065202776957 0 0 -0.00025717524504759485 0 0 -0.00025717524504759485 0 0 -0.00025556081044533644 0 0 -0.00025556081044533644 0 0 -0.00025394731320333585 0 0 -0.00025394731320333585 0 0 -0.00025233471956496333 0 0 -0.00025233471956496333 0 0 -0.00025072299698920478 0 0 -0.00025072299698920478 0 0 -0.00024911211410688476 0 0 -0.00024911211410688476 0 0 -0.00024750204067846535 0 0 -0.00024750204067846535 0 0 -0.00024589274755336524 0 0 -0.00024589274755336524 0 0 -0.00024428420663074338 0 0 -0.00024428420663074338 0 0 -0.00024267639082169512 0 0 -0.00024267639082169512 0 0 -0.00024106927401280914 0 0 -0.00024106927401280914 0 0 -0.00023946283103103765 0 0 -0.00023946283103103765 0 0 -0.00023785703760983079 0 0 -0.00023785703760983079 0 0 -0.00023625187035649115 0 0 -0.00023625187035649115 0 0 -0.00023464730672070346 0 0 -0.00023464730672070346 0 0 -0.00023304332496419788 0 0 -0.00023304332496419788 0 0 -0.00023143990413150505 0 0 -0.00023143990413150505 0 0 -0.0002298370240217656 0 0 -0.0002298370240217656 0 0 -0.00022823466516155321 0 0 -0.00022823466516155321 0 0 -0.00022663280877867752 0 0 -0.00022663280877867752 0 0 -0.00022503143677692967 0 0 -0.00022503143677692967 0 0 -0.00022343053171173786 0 0 -0.00022343053171173786 0 0 -0.00022183007676669856 0 0 -0.00022183007676669856 0 0 -0.00022023005573095408 0 0 -0.00022023005573095408 0 0 -0.00021863045297738389 0 0 -0.00021863045297738389 0 0 -0.00021703125344158154 0 0 -0.00021703125344158154 0 0 -0.00021543244260158851 0 0 -0.00021543244260158851 0 0 -0.00021383400645835779 0 0 -0.00021383400645835779 0 0 -0.00021223593151692077 0 0 -0.00021223593151692077 0 0 -0.00021063820476823356 0 0 -0.00021063820476823356 0 0 -0.00020904081367167481 0 0 -0.00020904081367167481 0 0 -0.00020744374613817514 0 0 -0.00020744374613817514 0 0 -0.00020584699051395385 0 0 -0.00020584699051395385 0 0 -0.0002042505355648411 0 0 -0.0002042505355648411 0 0 -0.00020265437046116245 0 0 -0.00020265437046116245 0 0 -0.00020105848476317613 0 0 -0.00020105848476317613 0 0 -0.00019946286840701746 0 0 -0.00019946286840701746 0 0 -0.00019786751169117612 0 0 -0.00019786751169117612 0 0 -0.00019627240526342817 0 0 -0.00019627240526342817 0 0 -0.00019467754010826609 0 0 -0.00019467754010826609 0 0 -0.00019308290753476396 0 0 -0.00019308290753476396 0 0 -0.0001914884991648871 0 0 -0.0001914884991648871 0 0 -0.00018989430692222168 0 0 -0.00018989430692222168 0 0 -0.00018830032302110904 0 0 -0.00018830032302110904 0 0 -0.00018670653995617246 0 0 -0.00018670653995617246 0 0 -0.00018511295049221914 0 0 -0.00018511295049221914 0 0 -0.00018351954765450759 0 0 -0.00018351954765450759 0 0 -0.00018192632471936393 0 0 -0.00018192632471936393 0 0 -0.00018033327520513678 0 0 -0.00018033327520513678 0 0 -0.00017874039286347804 0 0 -0.00017874039286347804 0 0 -0.00017714767167093581 0 0 -0.00017714767167093581 0 0 -0.00017555510582085231 0 0 -0.00017555510582085231 0 0 -0.00017396268971555108 0 0 -0.00017396268971555108 0 0 -0.00017237041795880716 0 0 -0.00017237041795880716 0 0 -0.00017077828534858779 0 0 -0.00017077828534858779 0 0 -0.0001691862868700532 0 0 -0.0001691862868700532 0 0 -0.000167594417688811 0 0 -0.000167594417688811 0 0 -0.00016600267314441182 0 0 -0.00016600267314441182 0 0 -0.00016441104874408041 0 0 -0.00016441104874408041 0 0 -0.00016281954015667069 0 0 -0.00016281954015667069 0 0 -0.00016122814320683975 0 0 -0.00016122814320683975 0 0 -0.00015963685386943011 0 0 -0.00015963685386943011 0 0 -0.00015804566826405512 0 0 -0.00015804566826405512 0 0 -0.00015645458264987904 0 0 -0.00015645458264987904 0 0 -0.00015486359342058346 0 0 -0.00015486359342058346 0 0 -0.00015327269709951684 0 0 -0.00015327269709951684 0 0 -0.00015168189033501632 0 0 -0.00015168189033501632 0 0 -0.00015009116989589963 0 0 -0.00015009116989589963 0 0 -0.0001485005326671181 0 0 -0.0001485005326671181 0 0 -0.00014690997564556529 0 0 -0.00014690997564556529 0 0 -0.00014531949593603747 0 0 -0.00014531949593603747 0 0 -0.00014372909074733894 0 0 -0.00014372909074733894 0 0 -0.0001421387573885262 0 0 -0.0001421387573885262 0 0 -0.00014054849326528858 0 0 -0.00014054849326528858 0 0 -0.00013895829587645821 0 0 -0.00013895829587645821 0 0 -0.00013736816281064424 0 0 -0.00013736816281064424 0 0 -0.00013577809174298997 0 0 -0.00013577809174298997 0 0 -0.00013418808043204434 0 0 -0.00013418808043204434 0 0 -0.00013259812671674682 0 0 -0.00013259812671674682 0 0 -0.00013100822851352064 0 0 -0.00013100822851352064 0 0 -0.00012941838381346879 0 0 -0.00012941838381346879 0 0 -0.00012782859067967216 0 0 -0.00012782859067967216 0 0 -0.00012623884724458361 0 0 -0.00012623884724458361 0 0 -0.0001246491517075158 0 0 -0.0001246491517075158 0 0 -0.00012305950233221805 0 0 -0.00012305950233221805 0 0 -0.00012146989744454148 0 0 -0.00012146989744454148 0 0 -0.00011988033543018581 0 0 -0.00011988033543018581 0 0 -0.00011829081473252864 0 0 -0.00011829081473252864 0 0 -0.00011670133385053037 0 0 -0.00011670133385053037 0 0 -0.00011511189133671558 0 0 -0.00011511189133671558 0 0 -0.00011352248579522535 0 0 -0.00011352248579522535 0 0 -0.00011193311587993987 0 0 -0.00011193311587993987 0 0 -0.00011034378029266689 0 0 -0.00011034378029266689 0 0 -0.00010875447778139542 0 0 -0.00010875447778139542 0 0 -0.00010716520713861214 0 0 -0.00010716520713861214 0 0 -0.00010557596719967566 0 0 -0.00010557596719967566 0 0 -0.00010398675684125097 0 0 -0.00010398675684125097 0 0 -0.00010239757497979724 0 0 -0.00010239757497979724 0 0 -0.0001008084205701106 0 0 -0.0001008084205701106 0 0 -9.921929260391839e-05 0 0 -9.921929260391839e-05 0 0 -9.7630190108521819e-05 0 0 -9.7630190108521819e-05 0 0 -9.6041112145488368e-05 0 0 -9.6041112145488368e-05 0 0 -9.4452057809388403e-05 0 0 -9.4452057809388403e-05 0 0 -9.2863026226577789e-05 0 0 -9.2863026226577789e-05 0 0 -9.1274016554022212e-05 0 0 -9.1274016554022212e-05 0 0 -8.9685027978163575e-05 0 0 -8.9685027978163575e-05 0 0 -8.8096059713824548e-05 0 0 -8.8096059713824548e-05 0 0 -8.650711100315345e-05 0 0 -8.650711100315345e-05 0 0 -8.4918181114603379e-05 0 0 -8.4918181114603379e-05 0 0 -8.3329269341949678e-05 0 0 -8.3329269341949678e-05 0 0 -8.1740375003338224e-05 0 0 -8.1740375003338224e-05 0 0 -8.0151497440369182e-05 0 0 -8.0151497440369182e-05 0 0 -7.8562636017210806e-05 0 0 -7.8562636017210806e-05 0 0 -7.6973790119744612e-05 0 0 -7.6973790119744612e-05 0 0 -7.5384959154738254e-05 0 0 -7.5384959154738254e-05 0 0 -7.379614254904853e-05 0 0 -7.379614254904853e-05 0 0 -7.220733974884922e-05 0 0 -7.220733974884922e-05 0 0 -7.0618550218886898e-05 0 0 -7.0618550218886898e-05 0 0 -6.9029773441760785e-05 0 0 -6.9029773441760785e-05 0 0 -6.7441008917226123e-05 0 0 -6.7441008917226123e-05 0 0 -6.5852256161521539e-05 0 0 -6.5852256161521539e-05 0 0 -6.4263514706718698e-05 0 0 -6.4263514706718698e-05 0 0 -6.2674784100091594e-05 0 0 -6.2674784100091594e-05 0 0 -6.1086063903509103e-05 0 0 -6.1086063903509103e-05 0 0 -5.9497353692844045e-05 0 0 -5.9497353692844045e-05 0 0 -5.790865305740354e-05 0 0 -5.790865305740354e-05 0 0 -5.6319961599376075e-05 0 0 -5.6319961599376075e-05 0 0 -5.4731278933296912e-05 0 0 -5.4731278933296912e-05 0 0 -5.3142604685528571e-05 0 0 -5.3142604685528571e-05 0 0 -5.1553938493759247e-05 0 0 -5.1553938493759247e-05 0 0 -4.9965280006514333e-05 0 0 -4.9965280006514333e-05 0 0 -4.8376628882684256e-05 0 0 -4.8376628882684256e-05 0 0 -4.678798479106579e-05 0 0 -4.678798479106579e-05 0 0 -4.5199347409915714e-05 0 0 -4.5199347409915714e-05 0 0 -4.3610716426518571e-05 0 0 -4.3610716426518571e-05 0 0 -4.2022091536765484e-05 0 0 -4.2022091536765484e-05 0 0 -4.0433472444746048e-05 0 0 -4.0433472444746048e-05 0 0 -3.8844858862348689e-05 0 0 -3.8844858862348689e-05 0 0 -3.7256250508874648e-05 0 0 -3.7256250508874648e-05 0 0 -3.5667647110659053e-05 0 0 -3.5667647110659053e-05 0 0 -3.4079048400703804e-05 0 0 -3.4079048400703804e-05 0 0 -3.2490454118317578e-05 0 0 -3.2490454118317578e-05 0 0 -3.0901864008765583e-05 0 0 -3.0901864008765583e-05 0 0 -2.9313277822926494e-05 0 0 -2.9313277822926494e-05 0 0 -2.7724695316958088e-05 0 0 -2.7724695316958088e-05 0 0 -2.6136116251968079e-05 0 0 -2.6136116251968079e-05 0 0 -2.4547540393693834e-05 0 0 -2.4547540393693834e-05 0 0 -2.295896751218633e-05 0 0 -2.295896751218633e-05 0 0 -2.1370397381501183e-05 0 0 -2.1370397381501183e-05 0 0 -1.978182977939508e-05 0 0 -1.978182977939508e-05 0 0 -1.8193264487026037e-05 0 0 -1.8193264487026037e-05 0 0 -1.660470128865925e-05 0 0 -1.660470128865925e-05 0 0 -1.5016139971377489e-05 0 0 -1.5016139971377489e-05 0 0 -1.3427580324793569e-05 0 0 -1.3427580324793569e-05 0 0 -1.1839022140768415e-05 0 0 -1.1839022140768415e-05 0 0 -1.0250465213130131e-05 0 0 -1.0250465213130131e-05 0 0 -8.6619093373972232e-06 0 0 -8.6619093373972232e-06 0 0 -7.0733543105030516e-06 0 0 -7.0733543105030516e-06 0 0 -5.4847999305234561e-06 0 0 -5.4847999305234561e-06 0 0 -3.8962459964039895e-06 0 0 -3.8962459964039895e-06 0 0 -2.3076923076905479e-06 
</DataArray>
</PointData>
<CellData Scalars="" Vectors="" Tensors="stress,">
<DataArray type="Float64" Name="stress" NumberOfComponents="9" format="ascii">
-53543953.976728439 0 0 0 -53543953.976728439 0 0 0 -99438771.671070099 -52950437.004974365 0 0 0 -52950437.004974365 0 0 0 -98336525.866382599 -52378293.659179688 0 0 0 -52378293.659179688 0 0 0 -97273973.938476562 -51826754.236219406 0 0 0 -51826754.236219406 0 0 0 -96249686.438694 -51295076.751392365 0 0 0 -51295076.751392365 0 0 0 -95262285.395442963 -50782545.940198898 0 0 0 -50782545.940198898 0 0 0 -94310442.460365295 -50288472.296121597 0 0 0 -50288472.296121597 0 0 0 -93392877.121368408 -49812191.143041611 0 0 0 -49812191.143041611 0 0 0 -92508354.979938507 -49353061.741014481 0 0 0 -49353061.741014481 0 0 0 -91655686.090457916 -48910466.42433548 0 0 0 -48910466.42433548 0 0 0 -90833723.359481812 -48483809.770517349 0 0 0 -48483809.770517349 0 0 0 -90041361.002389908 -48072517.799379349 0 0 0 -48072517.799379349 0 0 0 -89277533.055988312 -47676037.200771332 0 0 0 -47676037.200771332 0 0 0 -88541211.944292068 -47293834.590269089 0 0 0 -47293834.590269089 0 0 0 -87831407.096216202 -46925395.791584015 0 0 0 -46925395.791584015 0 0 0 -87147163.612941742 -46570225.144849777 0 0 0 -46570225.144849777 0 0 0 -86487560.983291626 -46227844.83981514 0 0 0 -46227844.83981514 0 0 0 -85851711.845373154 -45897794.273054123 0 0 0 -45897794.273054123 0 0 0 -85238760.792818069 -45579629.428287506 0 0 0 -45579629.428287506 0 0 0 -84647883.223962784 -45272922.27910614 0 0 0 -45272922.27910614 0 0 0 -84078284.232629776 -44977260.21308136 0 0 0 -44977260.21308136 0 0 0 -83529197.538579941 -44692245.476716995 0 0 0 -44692245.476716995 0 0 0 -82999884.456764221 -44417494.640359879 0 0 0 -44417494.640359879 0 0 0 -82489632.903520584 -44152638.082330704 0 0 0 -44152638.082330704 0 0 0 -81997756.438613892 -43897319.491722107 0 0 0 -43897319.491722107 0 0 0 -81523593.341770172 -43651195.389024734 0 0 0 -43651195.389024734 0 0 0 -81066505.722473145 -43413934.66404438 0 0 0 -43413934.66404438 0 0 0 -80625878.661798477 -43185218.130484581 0 0 0 -43185218.130484581 0 0 0 -80201119.385187149 -42964738.096523285 0 0 0 -42964738.096523285 0 0 0 -79791656.464971542 -42752197.950871468 0 0 0 -42752197.950871468 0 0 0 -79396939.051620483 -42547311.763771057 0 0 0 -42547311.763771057 0 0 0 -79016436.13271904 -42349803.902311325 0 0 0 -42349803.902311325 0 0 0 -78649635.81857872 -42159408.659612656 0 0 0 -42159408.659612656 0 0 0 -78296044.653564453 -41975869.897406578 0 0 0 -41975869.897406578 0 0 0 -77955186.952325821 -41798940.701408386 0 0 0 -41798940.701408386 0 0 0 -77626604.159757614 -41628383.049189568 0 0 0 -41628383.049189568 0 0 0 -77309854.234209061 -41463967.489930153 0 0 0 -41463967.489930153 0 0 0 -77004511.052728653 -41305472.83576107 0 0 0 -41305472.83576107 0 0 0 -76710163.837841034 -41152685.864192009 0 0 0 -41152685.864192009 0 0 0 -76426416.60492897 -41005401.031258583 0 0 0 -41005401.031258583 0 0 0 -76152887.629480362 -40863420.195019722 0 0 0 -40863420.195019722 0 0 0 -75889208.933607101 -40726552.34897995 0 0 0 -40726552.34897995 0 0 0 -75635025.790962219 -40594613.36514473 0 0 0 -40594613.36514473 0 0 0 -75389996.24955368 -40467425.746306419 0 0 0 -40467425.746306419 0 0 0 -75153790.671710968 -40344818.387253761 0 0 0 -40344818.387253761 0 0 0 -74926091.290615082 -40226626.344591141 0 0 0 -40226626.344591141 0 0 0 -74706591.782812119 -40112690.614835739 0 0 0 -40112690.614835739 0 0 0 -74494996.856122971 -40002857.920511246 0 0 0 -40002857.920511246 0 0 0 -74291021.852378845 -39896980.50395298 0 0 0 -39896980.50395298 0 0 0 -74094392.364484787 -39794915.928514481 0 0 0 -39794915.928514481 0 0 0 -73904843.867238998 -39696526.886956215 0 0 0 -39696526.886956215 0 0 0 -73722121.36149025 -39601681.016731262 0 0 0 -39601681.016731262 0 0 0 -73545979.031074524 -39510250.721908569 0 0 0 -39510250.721908569 0 0 0 -73376179.912115097 -39422113.001523018 0 0 0 -39422113.001523018 0 0 0 -73212495.574256897 -39337149.284101486 0 0 0 -39337149.284101486 0 0 0 -73054705.813331604 -39255245.268157005 0 0 0 -39255245.268157005 0 0 0 -72902598.355148315 -39176290.768400192 0 0 0 -39176290.768400192 0 0 0 -72755968.569885254 -39100179.567523956 0 0 0 -39100179.567523956 0 0 0 -72614619.19683075 -39026809.273312569 0 0 0 -39026809.273312569 0 0 0 -72478360.07901001 -38956081.180873871 0 0 0 -38956081.180873871 0 0 0 -72347007.907337189 -38887900.139867783 0 0 0 -38887900.139867783 0 0 0 -72220385.974039078 -38822174.426497459 0 0 0 -38822174.426497459 0 0 0 -72098323.934925079 -38758815.620121002 0 0 0 -38758815.620121002 0 0 0 -71980657.580223083 -38697738.484272957 0 0 0 -38697738.484272957 0 0 0 -71867228.613651276 -38638860.852027893 0 0 0 -38638860.852027893 0 0 0 -71757884.439479828 -38582103.515440941 0 0 0 -38582103.515440941 0 0 0 -71652477.957248688 -38527390.11899662 0 0 0 -38527390.11899662 0 0 0 -71550867.363851547 -38474647.056889534 0 0 0 -38474647.056889534 0 0 0 -71452915.962795258 -38423803.373999596 0 0 0 -38423803.373999596 0 0 0 -71358491.98028183 -38374790.67043972 0 0 0 -38374790.67043972 0 0 0 -71267468.387962341 -38327543.009533882 0 0 0 -38327543.009533882 0 0 0 -71179722.731990814 -38281996.829109192 0 0 0 -38281996.829109192 0 0 0 -71095136.968345642 -38238090.856002808 0 0 0 -38238090.856002808 0 0 0 -71013597.304002762 -38195766.023601532 0 0 0 -38195766.023601532 0 0 0 -70934994.043830872 -38154965.39240551 0 0 0 -38154965.39240551 0 0 0 -70859221.44303894 -38115634.073423386 0 0 0 -38115634.073423386 0 0 0 -70786177.564928055 -38077719.154320717 0 0 0 -38077719.154320717 0 0 0 -70715764.1437397 -38041169.628245354 0 0 0 -38041169.628245354 0 0 0 -70647886.452455521 -38005936.325203896 0 0 0 -38005936.325203896 0 0 0 -70582453.175378799 -37971971.845916748 0 0 0 -37971971.845916748 0 0 0 -70519376.285274506 -37939230.498045921 0 0 0 -37939230.498045921 0 0 0 -70458570.924942017 -37907668.234734535 0 0 0 -37907668.234734535 0 0 0 -70399955.293079376 -37877242.595337868 0 0 0 -37877242.595337868 0 0 0 -70343450.534198761 -37847912.64831543 0 0 0 -37847912.64831543 0 0 0 -70288980.632585526 -37819638.936157227 0 0 0 -37819638.936157227 0 0 0 -70236472.310005188 -37792383.422301292 0 0 0 -37792383.422301292 0 0 0 -70185854.927131653 -37766109.439973831 0 0 0 -37766109.439973831 0 0 0 -70137060.388523102 -37740781.642841339 0 0 0 -37740781.642841339 0 0 0 -70090023.050991058 -37716365.957480431 0 0 0 -37716365.957480431 0 0 0 -70044679.635320663 -37692829.537519455 0 0 0 -37692829.537519455 0 0 0 -70000969.141107559 -37670140.719472885 0 0 0 -37670140.719472885 0 0 0 -69958832.764736176 -37648268.98012352 0 0 0 -37648268.98012352 0 0 0 -69918213.820228577 -37627184.895467758 0 0 0 -37627184.895467758 0 0 0 -69879057.663011551 -37606860.101142883 0 0 0 -37606860.101142883 0 0 0 -69841311.616409302 -37587267.254243851 0 0 0 -37587267.254243851 0 0 0 -69804924.900735855 -37568379.996562958 0 0 0 -37568379.996562958 0 0 0 -69769848.565044403 -37550172.919112206 0 0 0 -37550172.919112206 0 0 0 -69736035.421209335 -37532621.527952194 0 0 0 -37532621.527952194 0 0 0 -69703439.980482101 -37515702.211235046 0 0 0 -37515702.211235046 0 0 0 -69672018.392295837 -37499392.207448959 0 0 0 -37499392.207448959 0 0 0 -69641728.385261536 -37483669.574777603 0 0 0 -37483669.574777603 0 0 0 -69612529.210300446 -37468513.16160202 0 0 0 -37468513.16160202 0 0 0 -69584381.585830688 -37453902.578033447 0 0 0 -37453902.578033447 0 0 0 -69557247.644920349 -37439818.168488503 0 0 0 -37439818.168488503 0 0 0 -69531090.884336472 -37426240.985242844 0 0 0 -37426240.985242844 0 0 0 -69505876.115449905 -37413152.76294136 0 0 0 -37413152.76294136 0 0 0 -69481569.416891098 -37400535.894029617 0 0 0 -37400535.894029617 0 0 0 -69458138.088909149 -37388373.405063629 0 0 0 -37388373.405063629 0 0 0 -69435550.609405518 -37376648.933875084 0 0 0 -37376648.933875084 0 0 0 -69413776.591482162 -37365346.707557678 0 0 0 -37365346.707557678 0 0 0 -69392786.742607117 -37354451.521253586 0 0 0 -37354451.521253586 0 0 0 -69372552.825185776 -37343948.717692375 0 0 0 -37343948.717692375 0 0 0 -69353047.618570328 -37333824.167478561 0 0 0 -37333824.167478561 0 0 0 -69334244.882461548 -37324064.250080109 0 0 0 -37324064.250080109 0 0 0 -69316119.321577072 -37314655.835495949 0 0 0 -37314655.835495949 0 0 0 -69298646.551635742 -37305586.266612053 0 0 0 -37305586.266612053 0 0 0 -69281803.06656456 -37296843.342162132 0 0 0 -37296843.342162132 0 0 0 -69265566.206874847 -37288415.300305367 0 0 0 -37288415.300305367 0 0 0 -69249914.129138947 -37280290.802809715 0 0 0 -37280290.802809715 0 0 0 -69234825.77664566 -37272458.919812202 0 0 0 -37272458.919812202 0 0 0 -69220280.851079941 -37264909.115099907 0 0 0 -37264909.115099907 0 0 0 -69206259.785186768 -37257631.231938362 0 0 0 -37257631.231938362 0 0 0 -69192743.716457367 -37250615.479405403 0 0 0 -37250615.479405403 0 0 0 -69179714.461751938 -37243852.4192276 0 0 0 -37243852.4192276 0 0 0 -69167154.492851257 -37237332.953073502 0 0 0 -37237332.953073502 0 0 0 -69155046.912851334 -37231048.310320854 0 0 0 -37231048.310320854 0 0 0 -69143375.433452606 -37224990.036250114 0 0 0 -37224990.036250114 0 0 0 -69132124.35303688 -37219149.980688095 0 0 0 -37219149.980688095 0 0 0 -69121278.535564423 -37213520.287014961 0 0 0 -37213520.287014961 0 0 0 -69110823.390171051 -37208093.381619453 0 0 0 -37208093.381619453 0 0 0 -69100744.851577759 -37202861.96369648 0 0 0 -37202861.96369648 0 0 0 -69091029.361150742 -37197818.995429993 0 0 0 -37197818.995429993 0 0 0 -69081663.848655701 -37192957.692527771 0 0 0 -37192957.692527771 0 0 0 -69072635.714694977 -37188271.515089989 0 0 0 -37188271.515089989 0 0 0 -69063932.813737869 -37183754.158810616 0 0 0 -37183754.158810616 0 0 0 -69055543.437790871 -37179399.546505928 0 0 0 -37179399.546505928 0 0 0 -69047456.300653458 -37175201.819921494 0 0 0 -37175201.819921494 0 0 0 -69039660.522711754 -37171155.331866741 0 0 0 -37171155.331866741 0 0 0 -69032145.616323471 -37167254.638607025 0 0 0 -37167254.638607025 0 0 0 -69024901.471698761 -37163494.492551804 0 0 0 -37163494.492551804 0 0 0 -69017918.343310356 -37159869.835186005 0 0 0 -37159869.835186005 0 0 0 -69011186.836773872 -37156375.790265083 0 0 0 -37156375.790265083 0 0 0 -69004697.896206856 -37153007.657258034 0 0 0 -37153007.657258034 0 0 0 -68998442.792050362 -37149760.905022144 0 0 0 -37149760.905022144 0 0 0 -68992413.109326363 -37146631.165709972 0 0 0 -37146631.165709972 0 0 0 -68986600.736318588 -37143614.228888988 0 0 0 -37143614.228888988 0 0 0 -68980997.853650093 -37140706.035880566 0 0 0 -37140706.035880566 0 0 0 -68975596.923778534 -37137902.674303055 0 0 0 -37137902.674303055 0 0 0 -68970390.680847168 -37135200.372793198 0 0 0 -37135200.372793198 0 0 0 -68965372.120901108 -37132595.495958805 0 0 0 -37132595.495958805 0 0 0 -68960534.492494583 -37130084.539461136 0 0 0 -37130084.539461136 0 0 0 -68955871.287570953 -37127664.12531662 0 0 0 -37127664.12531662 0 0 0 -68951376.232730865 -37125330.997344971 0 0 0 -37125330.997344971 0 0 0 -68947043.2807827 -37123082.016797066 0 0 0 -37123082.016797066 0 0 0 -68942866.602622032 -37120914.158125401 0 0 0 -37120914.158125401 0 0 0 -68938840.579375267 -37118824.504914761 0 0 0 -37118824.504914761 0 0 0 -68934959.794841766 -37116810.245956421 0 0 0 -37116810.245956421 0 0 0 -68931219.028204918 -37114868.671472549 0 0 0 -37114868.671472549 0 0 0 -68927613.247019768 -37112997.16946888 0 0 0 -37112997.16946888 0 0 0 -68924137.600441933 -37111193.222215652 0 0 0 -37111193.222215652 0 0 0 -68920787.412686348 -37109454.402869701 0 0 0 -37109454.402869701 0 0 0 -68917558.176757812 -37107778.372200489 0 0 0 -37107778.372200489 0 0 0 -68914445.548372269 -37106162.875444412 0 0 0 -37106162.875444412 0 0 0 -68911445.340111732 -37104605.739278316 0 0 0 -37104605.739278316 0 0 0 -68908553.515802383 -37103104.86889267 0 0 0 -37103104.86889267 0 0 0 -68905766.185087204 -37101658.24516964 0 0 0 -37101658.24516964 0 0 0 -68903079.598172188 -37100263.921967506 0 0 0 -37100263.921967506 0 0 0 -68900490.140796661 -37098920.023508549 0 0 0 -37098920.023508549 0 0 0 -68897994.329374313 -37097624.741848469 0 0 0 -37097624.741848469 0 0 0 -68895588.806290627 -37096376.33444643 0 0 0 -37096376.33444643 0 0 0 -68893270.335400581 -37095173.121824265 0 0 0 -37095173.121824265 0 0 0 -68891035.797673225 -37094013.485299587 0 0 0 -37094013.485299587 0 0 0 -68888882.186985016 -37092895.864818573 0 0 0 -37092895.864818573 0 0 0 -68886806.606091499 -37091818.756847382 0 0 0 -37091818.756847382 0 0 0 -68884806.262717247 -37090780.712356567 0 0 0 -37090780.712356567 0 0 0 -68882878.465805054 -37089780.33486557 0 0 0 -37089780.33486557 0 0 0 -68881020.621893883 -37088816.278571606 0 0 0 -37088816.278571606 0 0 0 -68879230.231633186 -37087887.246529579 0 0 0 -37087887.246529579 0 0 0 -68877504.886411667 -37086991.988914967 0 0 0 -37086991.988914967 0 0 0 -68875842.265128136 -37086129.301338673 0 0 0 -37086129.301338673 0 0 0 -68874240.131058693 -37085298.02323103 0 0 0 -37085298.02323103 0 0 0 -68872696.328857422 -37084497.036273956 0 0 0 -37084497.036273956 0 0 0 -68871208.781651497 -37083725.262901306 0 0 0 -37083725.262901306 0 0 0 -68869775.48824501 -37082981.66484642 0 0 0 -37082981.66484642 0 0 0 -68868394.520428658 -37082265.241751194 0 0 0 -37082265.241751194 0 0 0 -68867064.020395279 -37081575.029812813 0 0 0 -37081575.029812813 0 0 0 -68865782.198224068 -37080910.100490093 0 0 0 -37080910.100490093 0 0 0 -68864547.329481125 -37080269.559255123 0 0 0 -37080269.559255123 0 0 0 -68863357.752902031 -37079652.544387817 0 0 0 -37079652.544387817 0 0 0 -68862211.868148804 -37079058.225820065 0 0 0 -37079058.225820065 0 0 0 -68861108.133666039 -37078485.804018021 0 0 0 -37078485.804018021 0 0 0 -68860045.064605236 -37077934.50890255 0 0 0 -37077934.50890255 0 0 0 -68859021.230818748 -37077403.598817348 0 0 0 -37077403.598817348 0 0 0 -68858035.254947186 -37076892.35953021 0 0 0 -37076892.35953021 0 0 0 -68857085.810555935 -37076400.103271484 0 0 0 -37076400.103271484 0 0 0 -68856171.620361328 -37075926.167810917 0 0 0 -37075926.167810917 0 0 0 -68855291.45450592 -37075469.915563107 0 0 0 -37075469.915563107 0 0 0 -68854444.128903389 -37075030.732734203 0 0 0 -37075030.732734203 0 0 0 -68853628.503649235 -37074608.028490782 0 0 0 -37074608.028490782 0 0 0 -68852843.481482506 -37074201.234170675 0 0 0 -37074201.234170675 0 0 0 -68852088.006316662 -37073809.802514076 0 0 0 -37073809.802514076 0 0 0 -68851361.061811924 -37073433.206928968 0 0 0 -37073433.206928968 0 0 0 -68850661.670011044 -37073070.940781116 0 0 0 -37073070.940781116 0 0 0 -68849988.890022278 -37072722.51671505 0 0 0 -37072722.51671505 0 0 0 -68849341.816756725 -37072387.465997934 0 0 0 -37072387.465997934 0 0 0 -68848719.579710484 -37072065.337887287 0 0 0 -37072065.337887287 0 0 0 -68848121.341790199 -37071755.699020863 0 0 0 -37071755.699020863 0 0 0 -68847546.298182011 -37071458.132845879 0 0 0 -37071458.132845879 0 0 0 -68846993.675285339 -37071172.239045382 0 0 0 -37071172.239045382 0 0 0 -68846462.729655743 -37070897.633007288 0 0 0 -37070897.633007288 0 0 0 -68845952.747013569 -37070633.945303917 0 0 0 -37070633.945303917 0 0 0 -68845463.041278839 -37070380.821198225 0 0 0 -37070380.821198225 0 0 0 -68844992.953653812 -37070137.920162439 0 0 0 -37070137.920162439 0 0 0 -68844541.85172987 -37069904.915421247 0 0 0 -37069904.915421247 0 0 0 -68844109.128639698 -37069681.493515015 0 0 0 -37069681.493515015 0 0 0 -68843694.202242374 -37069467.353874445 0 0 0 -37069467.353874445 0 0 0 -68843296.514338017 -37069262.208417177 0 0 0 -37069262.208417177 0 0 0 -68842915.52991724 -37069065.781161547 0 0 0 -37069065.781161547 0 0 0 -68842550.736443043 -37068877.807855129 0 0 0 -37068877.807855129 0 0 0 -68842201.643159866 -37068698.035617828 0 0 0 -37068698.035617828 0 0 0 -68841867.780433178 -37068526.222602129 0 0 0 -37068526.222602129 0 0 0 -68841548.699118137 -37068362.137667418 0 0 0 -37068362.137667418 0 0 0 -68841243.969954014 -37068205.560071588 0 0 0 -37068205.560071588 0 0 0 -68840953.182990074 -37068056.27917099 0 0 0 -37068056.27917099 0 0 0 -68840675.947031736 -37067914.094137788 0 0 0 -37067914.094137788 0 0 0 -68840411.889113188 -37067778.81369102 0 0 0 -37067778.81369102 0 0 0 -68840160.653997898 -37067650.255838513 0 0 0 -37067650.255838513 0 0 0 -68839921.903700113 -37067528.247630835 0 0 0 -37067528.247630835 0 0 0 -68839695.317028761 -37067412.62493062 0 0 0 -37067412.62493062 0 0 0 -68839480.589157104 -37067303.232192397 0 0 0 -37067303.232192397 0 0 0 -68839277.431214333 -37067199.922248602 0 0 0 -37067199.922248602 0 0 0 -68839085.569890261 -37067102.556117535 0 0 0 -37067102.556117535 0 0 0 -68838904.747075319 -37067011.002812266 0 0 0 -37067011.002812266 0 0 0 -68838734.71950841 -37066925.139166117 0 0 0 -37066925.139166117 0 0 0 -68838575.258451462 -37066844.849667072 0 0 0 -37066844.849667072 0 0 0 -68838426.149381638 -37066770.026302338 0 0 0 -37066770.026302338 0 0 0 -68838287.191704154 -37066700.568411708 0 0 0 -37066700.568411708 0 0 0 -68838158.198478818 -37066636.382553577 0 0 0 -37066636.382553577 0 0 0 -68838038.996170998 -37066577.382378995 0 0 0 -37066577.382378995 0 0 0 -68837929.424418211 -37066523.488515258 0 0 0 -37066523.488515258 0 0 0 -68837829.335814118 -37066474.62845856 0 0 0 -37066474.62845856 0 0 0 -68837738.595708728 -37066430.736477673 0 0 0 -37066430.736477673 0 0 0 -68837657.082029939 -37066391.753524959 0 0 0 -37066391.753524959 0 0 0 -68837584.685117841 -37066357.627156854 0 0 0 -37066357.627156854 0 0 0 -68837521.307576954 -37066328.311463207 0 0 0 -37066328.311463207 0 0 0 -68837466.864145994 -37066303.767005473 0 0 0 -37066303.767005473 0 0 0 -68837421.281581581 -37066283.96076417 0 0 0 -37066283.96076417 0 0 0 -68837384.498562038 -37066268.866093799 0 0 0 -37066268.866093799 0 0 0 -68837356.465602815 -37066258.462687716 0 0 0 -37066258.462687716 0 0 0 -68837337.144991487 -37066252.736550212 0 0 0 -37066252.736550212 0 0 0 -68837326.510736153 
</DataArray>
</CellData>
</Piece>
</UnstructuredGrid>
</VTKFile>
