<?xml version="1.0"?>
<VTKFile type="UnstructuredGrid" version="0.1" byte_order="LittleEndian">
<UnstructuredGrid>
<Piece NumberOfPoints="500" NumberOfCells="250">
<Points>
<DataArray type="Float64" NumberOfComponents="3" format="ascii">
0 0 0 0 0 -0.00099999999999810158 0 0 -0.00099999999999810158 0 0 -0.001999999999996204 0 0 -0.001999999999996204 0 0 -0.0029999999999943271 0 0 -0.0029999999999943271 0 0 -0.0039999999999924488 0 0 -0.0039999999999924488 0 0 -0.004999999999990571 0 0 -0.004999999999990571 0 0 -0.0059999999999886811 0 0 -0.0059999999999886811 0 0 -0.0069999999999867156 0 0 -0.0069999999999867156 0 0 -0.007999999999984719 0 0 -0.007999999999984719 0 0 -0.008999999999982581 0 0 -0.008999999999982581 0 0 -0.0099999999999804221 0 0 -0.0099999999999804221 0 0 -0.010999999999978201 0 0 -0.010999999999978201 0 0 -0.011999999999975971 0 0 -0.011999999999975971 0 0 -0.01299999999997375 0 0 -0.01299999999997375 0 0 -0.01399999999997158 0 0 -0.01399999999997158 0 0 -0.014999999999969531 0 0 -0.014999999999969531 0 0 -0.01599999999996761 0 0 -0.01599999999996761 0 0 -0.0169999999999659 0 0 -0.0169999999999659 0 0 -0.01799999999996427 0 0 -0.01799999999996427 0 0 -0.018999999999962731 0 0 -0.018999999999962731 0 0 -0.019999999999961209 0 0 -0.019999999999961209 0 0 -0.020999999999959669 0 0 -0.020999999999959669 0 0 -0.02199999999995814 0 0 -0.02199999999995814 0 0 -0.022999999999956611 0 0 -0.022999999999956611 0 0 -0.023999999999955082 0 0 -0.023999999999955082 0 0 -0.024999999999953549 0 0 -0.024999999999953549 0 0 -0.02599999999995202 0 0 -0.02599999999995202 0 0 -0.02699999999995048 0 0 -0.02699999999995048 0 0 -0.027999999999948951 0 0 -0.027999999999948951 0 0 -0.028999999999947419 0 0 -0.028999999999947419 0 0 -0.02999999999994565 0 0 -0.02999999999994565 0 0 -0.03099999999994377 0 0 -0.03099999999994377 0 0 -0.031999999999941367 0 0 -0.031999999999941367 0 0 -0.032999999999938787 0 0 -0.032999999999938787 0 0 -0.033999999999935943 0 0 -0.033999999999935943 0 0 -0.034999999999933022 0 0 -0.034999999999933022 0 0 -0.035999999999930102 0 0 -0.035999999999930102 0 0 -0.036999999999927188 0 0 -0.036999999999927188 0 0 -0.037999999999924268 0 0 -0.037999999999924268 0 0 -0.038999999999921348 0 0 -0.038999999999921348 0 0 -0.039999999999918427 0 0 -0.039999999999918427 0 0 -0.040999999999915507 0 0 -0.040999999999915507 0 0 -0.041999999999912593 0 0 -0.041999999999912593 0 0 -0.042999999999909673 0 0 -0.042999999999909673 0 0 -0.043999999999906753 0 0 -0.043999999999906753 0 0 -0.044999999999903832 0 0 -0.044999999999903832 0 0 -0.045999999999900919 0 0 -0.045999999999900919 0 0 -0.046999999999897998 0 0 -0.046999999999897998 0 0 -0.047999999999895078 0 0 -0.047999999999895078 0 0 -0.048999999999892158 0 0 -0.048999999999892158 0 0 -0.049999999999889237 0 0 -0.049999999999889237 0 0 -0.050999999999886317 0 0 -0.050999999999886317 0 0 -0.051999999999883403 0 0 -0.051999999999883403 0 0 -0.052999999999880483 0 0 -0.052999999999880483 0 0 -0.053999999999877563 0 0 -0.053999999999877563 0 0 -0.054999999999874642 0 0 -0.054999999999874642 0 0 -0.055999999999871722 0 0 -0.055999999999871722 0 0 -0.056999999999868801 0 0 -0.056999999999868801 0 0 -0.057999999999865881 0 0 -0.057999999999865881 0 0 -0.058999999999862961 0 0 -0.058999999999862961 0 0 -0.059999999999860047 0 0 -0.059999999999860047 0 0 -0.060999999999857127 0 0 -0.060999999999857127 0 0 -0.061999999999854213 0 0 -0.061999999999854213 0 0 -0.062999999999851286 0 0 -0.062999999999851286 0 0 -0.063999999999848373 0 0 -0.063999999999848373 0 0 -0.064999999999845445 0 0 -0.064999999999845445 0 0 -0.065999999999842532 0 0 -0.065999999999842532 0 0 -0.066999999999839618 0 0 -0.066999999999839618 0 0 -0.067999999999836705 0 0 -0.067999999999836705 0 0 -0.068999999999833792 0 0 -0.068999999999833792 0 0 -0.069999999999830878 0 0 -0.069999999999830878 0 0 -0.070999999999827965 0 0 -0.070999999999827965 0 0 -0.071999999999825051 0 0 -0.071999999999825051 0 0 -0.072999999999822124 0 0 -0.072999999999822124 0 0 -0.07399999999981921 0 0 -0.07399999999981921 0 0 -0.074999999999816297 0 0 -0.074999999999816297 0 0 -0.075999999999813383 0 0 -0.075999999999813383 0 0 -0.07699999999981047 0 0 -0.07699999999981047 0 0 -0.077999999999807557 0 0 -0.077999999999807557 0 0 -0.078999999999804643 0 0 -0.078999999999804643 0 0 -0.07999999999980173 0 0 -0.07999999999980173 0 0 -0.080999999999798802 0 0 -0.080999999999798802 0 0 -0.081999999999795889 0 0 -0.081999999999795889 0 0 -0.082999999999792975 0 0 -0.082999999999792975 0 0 -0.083999999999790062 0 0 -0.083999999999790062 0 0 -0.084999999999787149 0 0 -0.084999999999787149 0 0 -0.085999999999784235 0 0 -0.085999999999784235 0 0 -0.086999999999781322 0 0 -0.086999999999781322 0 0 -0.087999999999778394 0 0 -0.087999999999778394 0 0 -0.088999999999775481 0 0 -0.088999999999775481 0 0 -0.089999999999772567 0 0 -0.089999999999772567 0 0 -0.090999999999769654 0 0 -0.090999999999769654 0 0 -0.091999999999766741 0 0 -0.091999999999766741 0 0 -0.092999999999763827 0 0 -0.092999999999763827 0 0 -0.093999999999760914 0 0 -0.093999999999760914 0 0 -0.094999999999758 0 0 -0.094999999999758 0 0 -0.095999999999755073 0 0 -0.095999999999755073 0 0 -0.096999999999752159 0 0 -0.096999999999752159 0 0 -0.097999999999749246 0 0 -0.097999999999749246 0 0 -0.098999999999746333 0 0 -0.098999999999746333 0 0 -0.099999999999743419 0 0 -0.099999999999743419 0 0 -0.10099999999974051 0 0 -0.10099999999974051 0 0 -0.10199999999973761 0 0 -0.10199999999973761 0 0 -0.10299999999973471 0 0 -0.10299999999973471 0 0 -0.10399999999973179 0 0 -0.10399999999973179 0 0 -0.1049999999997288 0 0 -0.1049999999997288 0 0 -0.1059999999997259 0 0 -0.1059999999997259 0 0 -0.106999999999723 0 0 -0.106999999999723 0 0 -0.1079999999997201 0 0 -0.1079999999997201 0 0 -0.1089999999997172 0 0 -0.1089999999997172 0 0 -0.1099999999997143 0 0 -0.1099999999997143 0 0 -0.1109999999997113 0 0 -0.1109999999997113 0 0 -0.1119999999997084 0 0 -0.1119999999997084 0 0 -0.1129999999997055 0 0 -0.1129999999997055 0 0 -0.1139999999997026 0 0 -0.1139999999997026 0 0 -0.1149999999996997 0 0 -0.1149999999996997 0 0 -0.1159999999996968 0 0 -0.1159999999996968 0 0 -0.11699999999969379 0 0 -0.11699999999969379 0 0 -0.11799999999969089 0 0 -0.11799999999969089 0 0 -0.11899999999968799 0 0 -0.11899999999968799 0 0 -0.11999999999968509 0 0 -0.11999999999968509 0 0 -0.1209999999996822 0 0 -0.1209999999996822 0 0 -0.1219999999996793 0 0 -0.1219999999996793 0 0 -0.1229999999996764 0 0 -0.1229999999996764 0 0 -0.1239999999996748 0 0 -0.1239999999996748 0 0 -0.12499999999967321 0 0 -0.12499999999967321 0 0 -0.12599999999967451 0 0 -0.12599999999967451 0 0 -0.12699999999967579 0 0 -0.12699999999967579 0 0 -0.1279999999996784 0 0 -0.1279999999996784 0 0 -0.12899999999968109 0 0 -0.12899999999968109 0 0 -0.1299999999996837 0 0 -0.1299999999996837 0 0 -0.13099999999968631 0 0 -0.13099999999968631 0 0 -0.13199999999968889 0 0 -0.13199999999968889 0 0 -0.13299999999969159 0 0 -0.13299999999969159 0 0 -0.1339999999996942 0 0 -0.1339999999996942 0 0 -0.13499999999969689 0 0 -0.13499999999969689 0 0 -0.1359999999996995 0 0 -0.1359999999996995 0 0 -0.13699999999970211 0 0 -0.13699999999970211 0 0 -0.1379999999997048 0 0 -0.1379999999997048 0 0 -0.13899999999970741 0 0 -0.13899999999970741 0 0 -0.13999999999971011 0 0 -0.13999999999971011 0 0 -0.14099999999971269 0 0 -0.14099999999971269 0 0 -0.1419999999997153 0 0 -0.1419999999997153 0 0 -0.14299999999971799 0 0 -0.14299999999971799 0 0 -0.1439999999997206 0 0 -0.1439999999997206 0 0 -0.14499999999972321 0 0 -0.14499999999972321 0 0 -0.14599999999972579 0 0 -0.14599999999972579 0 0 -0.14699999999972849 0 0 -0.14699999999972849 0 0 -0.1479999999997311 0 0 -0.1479999999997311 0 0 -0.14899999999973379 0 0 -0.14899999999973379 0 0 -0.1499999999997364 0 0 -0.1499999999997364 0 0 -0.15099999999973901 0 0 -0.15099999999973901 0 0 -0.1519999999997417 0 0 -0.1519999999997417 0 0 -0.15299999999974431 0 0 -0.15299999999974431 0 0 -0.15399999999974701 0 0 -0.15399999999974701 0 0 -0.15499999999974959 0 0 -0.15499999999974959 0 0 -0.1559999999997522 0 0 -0.1559999999997522 0 0 -0.15699999999975489 0 0 -0.15699999999975489 0 0 -0.1579999999997575 0 0 -0.1579999999997575 0 0 -0.15899999999976011 0 0 -0.15899999999976011 0 0 -0.1599999999997628 0 0 -0.1599999999997628 0 0 -0.16099999999976539 0 0 -0.16099999999976539 0 0 -0.161999999999768 0 0 -0.161999999999768 0 0 -0.16299999999977069 0 0 -0.16299999999977069 0 0 -0.1639999999997733 0 0 -0.1639999999997733 0 0 -0.16499999999977599 0 0 -0.16499999999977599 0 0 -0.1659999999997786 0 0 -0.1659999999997786 0 0 -0.16699999999978121 0 0 -0.16699999999978121 0 0 -0.16799999999978391 0 0 -0.16799999999978391 0 0 -0.16899999999978649 0 0 -0.16899999999978649 0 0 -0.1699999999997891 0 0 -0.1699999999997891 0 0 -0.17099999999979171 0 0 -0.17099999999979171 0 0 -0.1719999999997944 0 0 -0.1719999999997944 0 0 -0.17299999999979701 0 0 -0.17299999999979701 0 0 -0.1739999999997997 0 0 -0.1739999999997997 0 0 -0.17499999999980231 0 0 -0.17499999999980231 0 0 -0.17599999999980501 0 0 -0.17599999999980501 0 0 -0.17699999999980759 0 0 -0.17699999999980759 0 0 -0.1779999999998102 0 0 -0.1779999999998102 0 0 -0.17899999999981281 0 0 -0.17899999999981281 0 0 -0.1799999999998155 0 0 -0.1799999999998155 0 0 -0.18099999999981811 0 0 -0.18099999999981811 0 0 -0.18199999999982069 0 0 -0.18199999999982069 0 0 -0.18299999999982339 0 0 -0.18299999999982339 0 0 -0.183999999999826 0 0 -0.183999999999826 0 0 -0.18499999999982869 0 0 -0.18499999999982869 0 0 -0.1859999999998313 0 0 -0.1859999999998313 0 0 -0.18699999999983391 0 0 -0.18699999999983391 0 0 -0.1879999999998366 0 0 -0.1879999999998366 0 0 -0.18899999999983921 0 0 -0.18899999999983921 0 0 -0.18999999999984191 0 0 -0.18999999999984191 0 0 -0.19099999999984449 0 0 -0.19099999999984449 0 0 -0.1919999999998471 0 0 -0.1919999999998471 0 0 -0.19299999999984971 0 0 -0.19299999999984971 0 0 -0.1939999999998524 0 0 -0.1939999999998524 0 0 -0.19499999999985501 0 0 -0.19499999999985501 0 0 -0.1959999999998577 0 0 -0.1959999999998577 0 0 -0.19699999999986029 0 0 -0.19699999999986029 0 0 -0.19799999999986301 0 0 -0.19799999999986301 0 0 -0.19899999999986559 0 0 -0.19899999999986559 0 0 -0.1999999999998682 0 0 -0.1999999999998682 0 0 -0.20099999999987081 0 0 -0.20099999999987081 0 0 -0.2019999999998735 0 0 -0.2019999999998735 0 0 -0.20299999999987611 0 0 -0.20299999999987611 0 0 -0.20399999999987881 0 0 -0.20399999999987881 0 0 -0.20499999999988139 0 0 -0.20499999999988139 0 0 -0.205999999999884 0 0 -0.205999999999884 0 0 -0.20699999999988669 0 0 -0.20699999999988669 0 0 -0.2079999999998893 0 0 -0.2079999999998893 0 0 -0.20899999999989191 0 0 -0.20899999999989191 0 0 -0.2099999999998946 0 0 -0.2099999999998946 0 0 -0.21099999999989719 0 0 -0.21099999999989719 0 0 -0.21199999999989991 0 0 -0.21199999999989991 0 0 -0.21299999999990249 0 0 -0.21299999999990249 0 0 -0.2139999999999051 0 0 -0.2139999999999051 0 0 -0.21499999999990771 0 0 -0.21499999999990771 0 0 -0.2159999999999104 0 0 -0.2159999999999104 0 0 -0.21699999999991301 0 0 -0.21699999999991301 0 0 -0.21799999999991571 0 0 -0.21799999999991571 0 0 -0.21899999999991829 0 0 -0.21899999999991829 0 0 -0.2199999999999209 0 0 -0.2199999999999209 0 0 -0.22099999999992359 0 0 -0.22099999999992359 0 0 -0.2219999999999262 0 0 -0.2219999999999262 0 0 -0.22299999999992881 0 0 -0.22299999999992881 0 0 -0.22399999999993139 0 0 -0.22399999999993139 0 0 -0.22499999999993411 0 0 -0.22499999999993411 0 0 -0.2259999999999367 0 0 -0.2259999999999367 0 0 -0.22699999999993939 0 0 -0.22699999999993939 0 0 -0.227999999999942 0 0 -0.227999999999942 0 0 -0.22899999999994469 0 0 -0.22899999999994469 0 0 -0.2299999999999473 0 0 -0.2299999999999473 0 0 -0.23099999999994991 0 0 -0.23099999999994991 0 0 -0.23199999999995249 0 0 -0.23199999999995249 0 0 -0.23299999999995519 0 0 -0.23299999999995519 0 0 -0.2339999999999578 0 0 -0.2339999999999578 0 0 -0.23499999999996049 0 0 -0.23499999999996049 0 0 -0.2359999999999631 0 0 -0.2359999999999631 0 0 -0.23699999999996571 0 0 -0.23699999999996571 0 0 -0.2379999999999684 0 0 -0.2379999999999684 0 0 -0.23899999999997101 0 0 -0.23899999999997101 0 0 -0.2399999999999736 0 0 -0.2399999999999736 0 0 -0.24099999999997629 0 0 -0.24099999999997629 0 0 -0.2419999999999789 0 0 -0.2419999999999789 0 0 -0.24299999999998159 0 0 -0.24299999999998159 0 0 -0.2439999999999842 0 0 -0.2439999999999842 0 0 -0.24499999999998681 0 0 -0.24499999999998681 0 0 -0.24599999999998939 0 0 -0.24599999999998939 0 0 -0.24699999999999209 0 0 -0.24699999999999209 0 0 -0.2479999999999947 0 0 -0.2479999999999947 0 0 -0.24899999999999739 0 0 -0.24899999999999739 0 0 -0.25 
</DataArray>
</Points>
<Cells>
<DataArray type="UInt32" Name="connectivity" format="ascii">
0 1 2 3 4 5 6 7 8 9 10 11 12 13 14 15 16 17 18 19 20 21 22 23 24 25 26 27 28 29 30 31 32 33 34 35 36 37 38 39 40 41 42 43 44 45 46 47 48 49 50 51 52 53 54 55 56 57 58 59 60 61 62 63 64 65 66 67 68 69 70 71 72 73 74 75 76 77 78 79 80 81 82 83 84 85 86 87 88 89 90 91 92 93 94 95 96 97 98 99 100 101 102 103 104 105 106 107 108 109 110 111 112 113 114 115 116 117 118 119 120 121 122 123 124 125 126 127 128 129 130 131 132 133 134 135 136 137 138 139 140 141 142 143 144 145 146 147 148 149 150 151 152 153 154 155 156 157 158 159 160 161 162 163 164 165 166 167 168 169 170 171 172 173 174 175 176 177 178 179 180 181 182 183 184 185 186 187 188 189 190 191 192 193 194 195 196 197 198 199 200 201 202 203 204 205 206 207 208 209 210 211 212 213 214 215 216 217 218 219 220 221 222 223 224 225 226 227 228 229 230 231 232 233 234 235 236 237 238 239 240 241 242 243 244 245 246 247 248 249 250 251 252 253 254 255 256 257 258 259 260 261 262 263 264 265 266 267 268 269 270 271 272 273 274 275 276 277 278 279 280 281 282 283 284 285 286 287 288 289 290 291 292 293 294 295 296 297 298 299 300 301 302 303 304 305 306 307 308 309 310 311 312 313 314 315 316 317 318 319 320 321 322 323 324 325 326 327 328 329 330 331 332 333 334 335 336 337 338 339 340 341 342 343 344 345 346 347 348 349 350 351 352 353 354 355 356 357 358 359 360 361 362 363 364 365 366 367 368 369 370 371 372 373 374 375 376 377 378 379 380 381 382 383 384 385 386 387 388 389 390 391 392 393 394 395 396 397 398 399 400 401 402 403 404 405 406 407 408 409 410 411 412 413 414 415 416 417 418 419 420 421 422 423 424 425 426 427 428 429 430 431 432 433 434 435 436 437 438 439 440 441 442 443 444 445 446 447 448 449 450 451 452 453 454 455 456 457 458 459 460 461 462 463 464 465 466 467 468 469 470 471 472 473 474 475 476 477 478 479 480 481 482 483 484 485 486 487 488 489 490 491 492 493 494 495 496 497 498 499 
</DataArray>
<DataArray type="UInt32" Name="offsets" format="ascii">
2 4 6 8 10 12 14 16 18 20 22 24 26 28 30 32 34 36 38 40 42 44 46 48 50 52 54 56 58 60 62 64 66 68 70 72 74 76 78 80 82 84 86 88 90 92 94 96 98 100 102 104 106 108 110 112 114 116 118 120 122 124 126 128 130 132 134 136 138 140 142 144 146 148 150 152 154 156 158 160 162 164 166 168 170 172 174 176 178 180 182 184 186 188 190 192 194 196 198 200 202 204 206 208 210 212 214 216 218 220 222 224 226 228 230 232 234 236 238 240 242 244 246 248 250 252 254 256 258 260 262 264 266 268 270 272 274 276 278 280 282 284 286 288 290 292 294 296 298 300 302 304 306 308 310 312 314 316 318 320 322 324 326 328 330 332 334 336 338 340 342 344 346 348 350 352 354 356 358 360 362 364 366 368 370 372 374 376 378 380 382 384 386 388 390 392 394 396 398 400 402 404 406 408 410 412 414 416 418 420 422 424 426 428 430 432 434 436 438 440 442 444 446 448 450 452 454 456 458 460 462 464 466 468 470 472 474 476 478 480 482 484 486 488 490 492 494 496 498 500 
</DataArray>
<DataArray type="UInt32" Name="types" format="ascii">
3 3 3 3 3 3 3 3 3 3 3 3 3 3 3 3 3 3 3 3 3 3 3 3 3 3 3 3 3 3 3 3 3 3 3 3 3 3 3 3 3 3 3 3 3 3 3 3 3 3 3 3 3 3 3 3 3 3 3 3 3 3 3 3 3 3 3 3 3 3 3 3 3 3 3 3 3 3 3 3 3 3 3 3 3 3 3 3 3 3 3 3 3 3 3 3 3 3 3 3 3 3 3 3 3 3 3 3 3 3 3 3 3 3 3 3 3 3 3 3 3 3 3 3 3 3 3 3 3 3 3 3 3 3 3 3 3 3 3 3 3 3 3 3 3 3 3 3 3 3 3 3 3 3 3 3 3 3 3 3 3 3 3 3 3 3 3 3 3 3 3 3 3 3 3 3 3 3 3 3 3 3 3 3 3 3 3 3 3 3 3 3 3 3 3 3 3 3 3 3 3 3 3 3 3 3 3 3 3 3 3 3 3 3 3 3 3 3 3 3 3 3 3 3 3 3 3 3 3 3 3 3 3 3 3 3 3 3 3 3 3 3 3 3 3 3 3 3 3 3 
</DataArray>
</Cells>
<PointData Scalars="" Vectors="displacement," Tensors="">
<DataArray type="Float64" Name="displacement" NumberOfComponents="3" format="ascii">
0 0 -0.00057923087573452301 0 0 -0.00057692318342683526 0 0 -0.00057692318342683526 0 0 -0.00057461549111914774 0 0 -0.00057461549111914774 0 0 -0.0005723077988114601 0 0 -0.0005723077988114601 0 0 -0.00057000010650377258 0 0 -0.00057000010650377258 0 0 -0.00056769241419608483 0 0 -0.00056769241419608483 0 0 -0.00056538472188839709 0 0 -0.00056538472188839709 0 0 -0.00056307702958070967 0 0 -0.00056307702958070967 0 0 -0.00056076933727302247 0 0 -0.00056076933727302247 0 0 -0.00055846164496533548 0 0 -0.00055846164496533548 0 0 -0.00055615395265764839 0 0 -0.00055615395265764839 0 0 -0.00055384626034996162 0 0 -0.00055384626034996162 0 0 -0.00055153856804227475 0 0 -0.00055153856804227475 0 0 -0.00054923087573458787 0 0 -0.00054923087573458787 0 0 -0.00054692318342690067 0 0 -0.00054692318342690067 0 0 -0.00054461549111921304 0 0 -0.00054461549111921304 0 0 -0.00054230779881152508 0 0 -0.00054230779881152508 0 0 -0.00054000010650383657 0 0 -0.00054000010650383657 0 0 -0.00053769241419614785 0 0 -0.00053769241419614785 0 0 -0.00053538472188845892 0 0 -0.00053538472188845892 0 0 -0.00053307702958076998 0 0 -0.00053307702958076998 0 0 -0.00053076933727308105 0 0 -0.00053076933727308105 0 0 -0.00052846164496539211 0 0 -0.00052846164496539211 0 0 -0.00052615395265770317 0 0 -0.00052615395265770317 0 0 -0.00052384626035001413 0 0 -0.00052384626035001413 0 0 -0.00052153856804232508 0 0 -0.00052153856804232508 0 0 -0.00051923087573463604 0 0 -0.00051923087573463604 0 0 -0.000516923183426947 0 0 -0.000516923183426947 0 0 -0.00051461549111925773 0 0 -0.00051461549111925773 0 0 -0.00051230779881156847 0 0 -0.00051230779881156847 0 0 -0.00051000010650387986 0 0 -0.00051000010650387986 0 0 -0.00050769241419619158 0 0 -0.00050769241419619158 0 0 -0.00050538472188850448 0 0 -0.00050538472188850448 0 0 -0.00050307702958081772 0 0 -0.00050307702958081772 0 0 -0.00050076933727313171 0 0 -0.00050076933727313171 0 0 -0.00049846164496544581 0 0 -0.00049846164496544581 0 0 -0.0004961539526577598 0 0 -0.0004961539526577598 0 0 -0.00049384626035007401 0 0 -0.00049384626035007401 0 0 -0.00049153856804238821 0 0 -0.00049153856804238821 0 0 -0.00048923087573470242 0 0 -0.00048923087573470242 0 0 -0.00048692318342701669 0 0 -0.00048692318342701669 0 0 -0.000484615491119331 0 0 -0.000484615491119331 0 0 -0.00048230779881164537 0 0 -0.00048230779881164537 0 0 -0.00048000010650396001 0 0 -0.00048000010650396001 0 0 -0.00047769241419627449 0 0 -0.00047769241419627449 0 0 -0.00047538472188858903 0 0 -0.00047538472188858903 0 0 -0.00047307702958090361 0 0 -0.00047307702958090361 0 0 -0.00047076933727321836 0 0 -0.00047076933727321836 0 0 -0.00046846164496553301 0 0 -0.00046846164496553301 0 0 -0.00046615395265784765 0 0 -0.00046615395265784765 0 0 -0.00046384626035016234 0 0 -0.00046384626035016234 0 0 -0.00046153856804247699 0 0 -0.00046153856804247699 0 0 -0.00045923087573479185 0 0 -0.00045923087573479185 0 0 -0.00045692318342710676 0 0 -0.00045692318342710676 0 0 -0.00045461549111942173 0 0 -0.00045461549111942173 0 0 -0.00045230779881173664 0 0 -0.00045230779881173664 0 0 -0.00045000010650405155 0 0 -0.00045000010650405155 0 0 -0.00044769241419636652 0 0 -0.00044769241419636652 0 0 -0.00044538472188868143 0 0 -0.00044538472188868143 0 0 -0.00044307702958099651 0 0 -0.00044307702958099651 0 0 -0.00044076933727331164 0 0 -0.00044076933727331164 0 0 -0.00043846164496562682 0 0 -0.00043846164496562682 0 0 -0.000436153952657942 0 0 -0.000436153952657942 0 0 -0.00043384626035025719 0 0 -0.00043384626035025719 0 0 -0.00043153856804257243 0 0 -0.00043153856804257243 0 0 -0.00042923087573488756 0 0 -0.00042923087573488756 0 0 -0.00042692318342720274 0 0 -0.00042692318342720274 0 0 -0.00042461549111951792 0 0 -0.00042461549111951792 0 0 -0.00042230779881183305 0 0 -0.00042230779881183305 0 0 -0.00042000010650414829 0 0 -0.00042000010650414829 0 0 -0.00041769241419646342 0 0 -0.00041769241419646342 0 0 -0.00041538472188877866 0 0 -0.00041538472188877866 0 0 -0.00041307702958109379 0 0 -0.00041307702958109379 0 0 -0.00041076933727340903 0 0 -0.00041076933727340903 0 0 -0.0004084616449657241 0 0 -0.0004084616449657241 0 0 -0.00040615395265803918 0 0 -0.00040615395265803918 0 0 -0.00040384626035035436 0 0 -0.00040384626035035436 0 0 -0.00040153856804266944 0 0 -0.00040153856804266944 0 0 -0.00039923087573498457 0 0 -0.00039923087573498457 0 0 -0.00039692318342729964 0 0 -0.00039692318342729964 0 0 -0.00039461549111961483 0 0 -0.00039461549111961483 0 0 -0.0003923077988119299 0 0 -0.0003923077988119299 0 0 -0.00039000010650424492 0 0 -0.00039000010650424492 0 0 -0.00038769241419656005 0 0 -0.00038769241419656005 0 0 -0.00038538472188887513 0 0 -0.00038538472188887513 0 0 -0.00038307702958119026 0 0 -0.00038307702958119026 0 0 -0.00038076933727350533 0 0 -0.00038076933727350533 0 0 -0.00037846164496582041 0 0 -0.00037846164496582041 0 0 -0.00037615395265813549 0 0 -0.00037615395265813549 0 0 -0.00037384626035045051 0 0 -0.00037384626035045051 0 0 -0.00037153856804276564 0 0 -0.00037153856804276564 0 0 -0.00036923087573508071 0 0 -0.00036923087573508071 0 0 -0.00036692318342739579 0 0 -0.00036692318342739579 0 0 -0.00036461549111971081 0 0 -0.00036461549111971081 0 0 -0.00036230779881202583 0 0 -0.00036230779881202583 0 0 -0.00036000010650434091 0 0 -0.00036000010650434091 0 0 -0.00035769241419665593 0 0 -0.00035769241419665593 0 0 -0.000355384721888971 0 0 -0.000355384721888971 0 0 -0.00035307702958128602 0 0 -0.00035307702958128602 0 0 -0.0003507693372736011 0 0 -0.0003507693372736011 0 0 -0.00034846164496591612 0 0 -0.00034846164496591612 0 0 -0.00034615395265823114 0 0 -0.00034615395265823114 0 0 -0.00034384626035054616 0 0 -0.00034384626035054616 0 0 -0.00034153856804286118 0 0 -0.00034153856804286118 0 0 -0.00033923087573517637 0 0 -0.00033923087573517637 0 0 -0.00033692318342749166 0 0 -0.00033692318342749166 0 0 -0.00033461549111980674 0 0 -0.00033461549111980674 0 0 -0.00033230779881212187 0 0 -0.00033230779881212187 0 0 -0.00033000010650443694 0 0 -0.00033000010650443694 0 0 -0.00032769241419675213 0 0 -0.00032769241419675213 0 0 -0.00032538472188906725 0 0 -0.00032538472188906725 0 0 -0.00032307702958138266 0 0 -0.00032307702958138266 0 0 -0.00032076933727369779 0 0 -0.00032076933727369779 0 0 -0.00031846164496601297 0 0 -0.00031846164496601297 0 0 -0.0003161539526583281 0 0 -0.0003161539526583281 0 0 -0.00031384626035064328 0 0 -0.00031384626035064328 0 0 -0.00031153856804295858 0 0 -0.00031153856804295858 0 0 -0.00030923087573527403 0 0 -0.00030923087573527403 0 0 -0.00030692318342758916 0 0 -0.00030692318342758916 0 0 -0.00030461549111990429 0 0 -0.00030461549111990429 0 0 -0.00030230779881221942 0 0 -0.00030230779881221942 0 0 -0.00030000010650453466 0 0 -0.00030000010650453466 0 0 -0.0002976924141968499 0 0 -0.0002976924141968499 0 0 -0.00029538472188916524 0 0 -0.00029538472188916524 0 0 -0.0002930770295814775 0 0 -0.0002930770295814775 0 0 -0.00029076933727378981 0 0 -0.00029076933727378981 0 0 -0.0002884616449660954 0 0 -0.0002884616449660954 0 0 -0.0002861539526584011 0 0 -0.0002861539526584011 0 0 -0.00028384626035070365 0 0 -0.00028384626035070365 0 0 -0.00028153856804300604 0 0 -0.00028153856804300604 0 0 -0.00027923087573530875 0 0 -0.00027923087573530875 0 0 -0.00027692318342761142 0 0 -0.00027692318342761142 0 0 -0.00027461549111991413 0 0 -0.00027461549111991413 0 0 -0.00027230779881221658 0 0 -0.00027230779881221658 0 0 -0.00027000010650451924 0 0 -0.00027000010650451924 0 0 -0.00026769241419682174 0 0 -0.00026769241419682174 0 0 -0.0002653847218891244 0 0 -0.0002653847218891244 0 0 -0.00026307702958142711 0 0 -0.00026307702958142711 0 0 -0.00026076933727372956 0 0 -0.00026076933727372956 0 0 -0.00025846164496603233 0 0 -0.00025846164496603233 0 0 -0.00025615395265833477 0 0 -0.00025615395265833477 0 0 -0.0002538462603506376 0 0 -0.0002538462603506376 0 0 -0.00025153856804294037 0 0 -0.00025153856804294037 0 0 -0.00024923087573524286 0 0 -0.00024923087573524286 0 0 -0.00024692318342754563 0 0 -0.00024692318342754563 0 0 -0.0002446154911198484 0 0 -0.0002446154911198484 0 0 -0.00024230779881215123 0 0 -0.00024230779881215123 0 0 -0.00024000010650445381 0 0 -0.00024000010650445381 0 0 -0.00023769241419675661 0 0 -0.00023769241419675661 0 0 -0.00023538472188905921 0 0 -0.00023538472188905921 0 0 -0.00023307702958136198 0 0 -0.00023307702958136198 0 0 -0.00023076933727366483 0 0 -0.00023076933727366483 0 0 -0.00022846164496596749 0 0 -0.00022846164496596749 0 0 -0.00022615395265827026 0 0 -0.00022615395265827026 0 0 -0.0002238462603505729 0 0 -0.0002238462603505729 0 0 -0.00022153856804287583 0 0 -0.00022153856804287583 0 0 -0.00021923087573517871 0 0 -0.00021923087573517871 0 0 -0.00021692318342748134 0 0 -0.00021692318342748134 0 0 -0.00021461549111978422 0 0 -0.00021461549111978422 0 0 -0.0002123077988120871 0 0 -0.0002123077988120871 0 0 -0.00021000010650438979 0 0 -0.00021000010650438979 0 0 -0.00020769241419669275 0 0 -0.00020769241419669275 0 0 -0.00020538472188899565 0 0 -0.00020538472188899565 0 0 -0.00020307702958129834 0 0 -0.00020307702958129834 0 0 -0.0002007693372736013 0 0 -0.0002007693372736013 0 0 -0.00019846164496590407 0 0 -0.00019846164496590407 0 0 -0.00019615395265820703 0 0 -0.00019615395265820703 0 0 -0.00019384626035051002 0 0 -0.00019384626035051002 0 0 -0.00019153856804281279 0 0 -0.00019153856804281279 0 0 -0.00018923087573511586 0 0 -0.00018923087573511586 0 0 -0.00018692318342741882 0 0 -0.00018692318342741882 0 0 -0.00018461549111972175 0 0 -0.00018461549111972175 0 0 -0.00018230779881202452 0 0 -0.00018230779881202452 0 0 -0.00018000010650432745 0 0 -0.00018000010650432745 0 0 -0.00017769241419663022 0 0 -0.00017769241419663022 0 0 -0.00017538472188893318 0 0 -0.00017538472188893318 0 0 -0.00017307702958123592 0 0 -0.00017307702958123592 0 0 -0.00017076933727353896 0 0 -0.00017076933727353896 0 0 -0.00016846164496584195 0 0 -0.00016846164496584195 0 0 -0.00016615395265814491 0 0 -0.00016615395265814491 0 0 -0.00016384626035044765 0 0 -0.00016384626035044765 0 0 -0.00016153856804275058 0 0 -0.00016153856804275058 0 0 -0.00015923087573505357 0 0 -0.00015923087573505357 0 0 -0.00015692318342735631 0 0 -0.00015692318342735631 0 0 -0.0001546154911196593 0 0 -0.0001546154911196593 0 0 -0.00015230779881196212 0 0 -0.00015230779881196212 0 0 -0.00015000010650426511 0 0 -0.00015000010650426511 0 0 -0.0001476924141965681 0 0 -0.0001476924141965681 0 0 -0.00014538472188887087 0 0 -0.00014538472188887087 0 0 -0.00014307702958117383 0 0 -0.00014307702958117383 0 0 -0.00014076933727347662 0 0 -0.00014076933727347662 0 0 -0.00013846164496577972 0 0 -0.00013846164496577972 0 0 -0.00013615395265808271 0 0 -0.00013615395265808271 0 0 -0.00013384626035038572 0 0 -0.00013384626035038572 0 0 -0.00013153856804268849 0 0 -0.00013153856804268849 0 0 -0.00012923087573499148 0 0 -0.00012923087573499148 0 0 -0.00012692318342729425 0 0 -0.00012692318342729425 0 0 -0.00012461549111959734 0 0 -0.00012461549111959734 0 0 -0.00012230779881190008 0 0 -0.00012230779881190008 0 0 -0.00012000010650420312 0 0 -0.00012000010650420312 0 0 -0.00011769241419650608 0 0 -0.00011769241419650608 0 0 -0.00011538472188880902 0 0 -0.00011538472188880902 0 0 -0.00011307702958111177 0 0 -0.00011307702958111177 0 0 -0.00011076933727341472 0 0 -0.00011076933727341472 0 0 -0.00010846164496571747 0 0 -0.00010846164496571747 0 0 -0.00010615395265802053 0 0 -0.00010615395265802053 0 0 -0.0001038462603503235 0 0 -0.0001038462603503235 0 0 -0.00010153856804262627 0 0 -0.00010153856804262627 0 0 -9.9230875734929259e-05 0 0 -9.9230875734929259e-05 0 0 -9.6923183427232232e-05 0 0 -9.6923183427232232e-05 0 0 -9.4615491119535029e-05 0 0 -9.4615491119535029e-05 0 0 -9.2307798811838083e-05 0 0 -9.2307798811838083e-05 0 0 -9.0000106504140812e-05 0 0 -9.0000106504140812e-05 0 0 -8.769241419644384e-05 0 0 -8.769241419644384e-05 0 0 -8.5384721888746786e-05 0 0 -8.5384721888746786e-05 0 0 -8.3077029581049745e-05 0 0 -8.3077029581049745e-05 0 0 -8.0769337273352515e-05 0 0 -8.0769337273352515e-05 0 0 -7.8461644965655475e-05 0 0 -7.8461644965655475e-05 0 0 -7.6153952657958231e-05 0 0 -7.6153952657958231e-05 0 0 -7.3846260350261272e-05 0 0 -7.3846260350261272e-05 0 0 -7.1538568042564204e-05 0 0 -7.1538568042564204e-05 0 0 -6.9230875734866974e-05 0 0 -6.9230875734866974e-05 0 0 -6.6923183427169933e-05 0 0 -6.6923183427169933e-05 0 0 -6.4615491119472907e-05 0 0 -6.4615491119472907e-05 0 0 -6.230779881177592e-05 0 0 -6.230779881177592e-05 0 0 -6.0000106504078616e-05 0 0 -6.0000106504078616e-05 0 0 -5.7692414196381616e-05 0 0 -5.7692414196381616e-05 0 0 -5.5384721888684379e-05 0 0 -5.5384721888684379e-05 0 0 -5.3077029580987325e-05 0 0 -5.3077029580987325e-05 0 0 -5.0769337273290081e-05 0 0 -5.0769337273290081e-05 0 0 -4.8461644965593041e-05 0 0 -4.8461644965593041e-05 0 0 -4.6153952657896e-05 0 0 -4.6153952657896e-05 0 0 -4.3846260350199021e-05 0 0 -4.3846260350199021e-05 0 0 -4.1538568042501791e-05 0 0 -4.1538568042501791e-05 0 0 -3.9230875734804743e-05 0 0 -3.9230875734804743e-05 0 0 -3.692318342710752e-05 0 0 -3.692318342710752e-05 0 0 -3.4615491119410479e-05 0 0 -3.4615491119410479e-05 0 0 -3.2307798811713446e-05 0 0 -3.2307798811713446e-05 0 0 -3.0000106504016216e-05 0 0 -3.0000106504016216e-05 0 0 -2.7692414196319182e-05 0 0 -2.7692414196319182e-05 0 0 -2.5384721888622199e-05 0 0 -2.5384721888622199e-05 0 0 -2.3077029580924976e-05 0 0 -2.3077029580924976e-05 0 0 -2.0769337273227945e-05 0 0 -2.0769337273227945e-05 0 0 -1.8461644965530722e-05 0 0 -1.8461644965530722e-05 0 0 -1.6153952657833692e-05 0 0 -1.6153952657833692e-05 0 0 -1.384626035013666e-05 0 0 -1.384626035013666e-05 0 0 -1.1538568042439689e-05 0 0 -1.1538568042439689e-05 0 0 -9.2308757347424653e-06 0 0 -9.2308757347424653e-06 0 0 -6.9231834270454333e-06 0 0 -6.9231834270454333e-06 0 0 -4.6154911193482108e-06 0 0 -4.6154911193482108e-06 0 0 -2.3077988116511801e-06 
</DataArray>
</PointData>
<CellData Scalars="" Vectors="" Tensors="stress,">
<DataArray type="Float64" Name="stress" NumberOfComponents="9" format="ascii">
-53846153.846149445 0 0 0 -53846153.846149445 0 0 0 -99999999.999992371 -53846153.846143723 0 0 0 -53846153.846143723 0 0 0 -99999999.999980927 -53846153.84614563 0 0 0 -53846153.84614563 0 0 0 -99999999.999984741 -53846153.846143723 0 0 0 -53846153.846143723 0 0 0 -99999999.999980927 -53846153.846147537 0 0 0 -53846153.846147537 0 0 0 -99999999.999988556 -53846153.846147537 0 0 0 -53846153.846147537 0 0 0 -99999999.999992371 -53846153.84614563 0 0 0 -53846153.84614563 0 0 0 -99999999.999984741 -53846153.846141815 0 0 0 -53846153.846141815 0 0 0 -99999999.999980927 -53846153.846143723 0 0 0 -53846153.846143723 0 0 0 -99999999.999984741 -53846153.846149445 0 0 0 -53846153.846149445 0 0 0 -99999999.999992371 -53846153.846143723 0 0 0 -53846153.846143723 0 0 0 -99999999.999984741 -53846153.846147537 0 0 0 -53846153.846147537 0 0 0 -99999999.999988556 -53846153.846147537 0 0 0 -53846153.846147537 0 0 0 -99999999.999988556 -53846153.846151352 0 0 0 -53846153.846151352 0 0 0 -99999999.999996185 -53846153.846155167 0 0 0 -53846153.846155167 0 0 0 -100000000.00000381 -53846153.846157074 0 0 0 -53846153.846157074 0 0 0 -100000000.00000381 -53846153.846157074 0 0 0 -53846153.846157074 0 0 0 -100000000.00000763 -53846153.846157074 0 0 0 -53846153.846157074 0 0 0 -100000000.00000763 -53846153.846158981 0 0 0 -53846153.846158981 0 0 0 -100000000.00000763 -53846153.846157074 0 0 0 -53846153.846157074 0 0 0 -100000000.00000763 -53846153.846158981 0 0 0 -53846153.846158981 0 0 0 -100000000.00000763 -53846153.846157074 0 0 0 -53846153.846157074 0 0 0 -100000000.00000763 -53846153.846157074 0 0 0 -53846153.846157074 0 0 0 -100000000.00000763 -53846153.846160889 0 0 0 -53846153.846160889 0 0 0 -100000000.00001144 -53846153.846160889 0 0 0 -53846153.846160889 0 0 0 -100000000.00001144 -53846153.846158981 0 0 0 -53846153.846158981 0 0 0 -100000000.00001144 -53846153.846160889 0 0 0 -53846153.846160889 0 0 0 -100000000.00001144 -53846153.846164703 0 0 0 -53846153.846164703 0 0 0 -100000000.00001907 -53846153.846164703 0 0 0 -53846153.846164703 0 0 0 -100000000.00002289 -53846153.846162796 0 0 0 -53846153.846162796 0 0 0 -100000000.00001907 -53846153.846160889 0 0 0 -53846153.846160889 0 0 0 -100000000.00001526 -53846153.846160889 0 0 0 -53846153.846160889 0 0 0 -100000000.00001526 -53846153.846164703 0 0 0 -53846153.846164703 0 0 0 -100000000.00001907 -53846153.846158981 0 0 0 -53846153.846158981 0 0 0 -100000000.00001144 -53846153.846160889 0 0 0 -53846153.846160889 0 0 0 -100000000.00001526 -53846153.846164703 0 0 0 -53846153.846164703 0 0 0 -100000000.00001907 -53846153.846158981 0 0 0 -53846153.846158981 0 0 0 -100000000.00000763 -53846153.846158981 0 0 0 -53846153.846158981 0 0 0 -100000000.00000763 -53846153.846158981 0 0 0 -53846153.846158981 0 0 0 -100000000.00001144 -53846153.846157074 0 0 0 -53846153.846157074 0 0 0 -100000000.00000763 -53846153.846157074 0 0 0 -53846153.846157074 0 0 0 -100000000.00000381 -53846153.846155167 0 0 0 -53846153.846155167 0 0 0 -100000000 -53846153.846149445 0 0 0 -53846153.846149445 0 0 0 -99999999.999988556 -53846153.846151352 0 0 0 -53846153.846151352 0 0 0 -100000000 -53846153.846153259 0 0 0 -53846153.846153259 0 0 0 -99999999.999996185 -53846153.846151352 0 0 0 -53846153.846151352 0 0 0 -99999999.999992371 -53846153.84614563 0 0 0 -53846153.84614563 0 0 0 -99999999.999984741 -53846153.846149445 0 0 0 -53846153.846149445 0 0 0 -99999999.999992371 -53846153.846149445 0 0 0 -53846153.846149445 0 0 0 -99999999.999988556 -53846153.846147537 0 0 0 -53846153.846147537 0 0 0 -99999999.999988556 -53846153.846149445 0 0 0 -53846153.846149445 0 0 0 -99999999.999992371 -53846153.846143723 0 0 0 -53846153.846143723 0 0 0 -99999999.999980927 -53846153.846141815 0 0 0 -53846153.846141815 0 0 0 -99999999.999980927 -53846153.846141815 0 0 0 -53846153.846141815 0 0 0 -99999999.999977112 -53846153.846141815 0 0 0 -53846153.846141815 0 0 0 -99999999.999977112 -53846153.846143723 0 0 0 -53846153.846143723 0 0 0 -99999999.999980927 -53846153.846139908 0 0 0 -53846153.846139908 0 0 0 -99999999.999977112 -53846153.846143723 0 0 0 -53846153.846143723 0 0 0 -99999999.999977112 -53846153.846138 0 0 0 -53846153.846138 0 0 0 -99999999.999973297 -53846153.846138 0 0 0 -53846153.846138 0 0 0 -99999999.999969482 -53846153.846136093 0 0 0 -53846153.846136093 0 0 0 -99999999.999965668 -53846153.846136093 0 0 0 -53846153.846136093 0 0 0 -99999999.999969482 -53846153.846136093 0 0 0 -53846153.846136093 0 0 0 -99999999.999969482 -53846153.846134186 0 0 0 -53846153.846134186 0 0 0 -99999999.999965668 -53846153.846138 0 0 0 -53846153.846138 0 0 0 -99999999.999969482 -53846153.846134186 0 0 0 -53846153.846134186 0 0 0 -99999999.999969482 -53846153.846136093 0 0 0 -53846153.846136093 0 0 0 -99999999.999965668 -53846153.846138 0 0 0 -53846153.846138 0 0 0 -99999999.999969482 -53846153.846134186 0 0 0 -53846153.846134186 0 0 0 -99999999.999965668 -53846153.846138 0 0 0 -53846153.846138 0 0 0 -99999999.999965668 -53846153.846134186 0 0 0 -53846153.846134186 0 0 0 -99999999.999965668 -53846153.846136093 0 0 0 -53846153.846136093 0 0 0 -99999999.999969482 -53846153.846136093 0 0 0 -53846153.846136093 0 0 0 -99999999.999965668 -53846153.846138 0 0 0 -53846153.846138 0 0 0 -99999999.999969482 -53846153.846138 0 0 0 -53846153.846138 0 0 0 -99999999.999973297 -53846153.846136093 0 0 0 -53846153.846136093 0 0 0 -99999999.999965668 -53846153.846138 0 0 0 -53846153.846138 0 0 0 -99999999.999969482 -53846153.846138 0 0 0 -53846153.846138 0 0 0 -99999999.999969482 -53846153.846138 0 0 0 -53846153.846138 0 0 0 -99999999.999973297 -53846153.846136093 0 0 0 -53846153.846136093 0 0 0 -99999999.999965668 -53846153.846139908 0 0 0 -53846153.846139908 0 0 0 -99999999.99997139 -53846153.846139908 0 0 0 -53846153.846139908 0 0 0 -99999999.999973297 -53846153.846138 0 0 0 -53846153.846138 0 0 0 -99999999.999969482 -53846153.846138 0 0 0 -53846153.846138 0 0 0 -99999999.99997139 -53846153.846138 0 0 0 -53846153.846138 0 0 0 -99999999.999969482 -53846153.846138 0 0 0 -53846153.846138 0 0 0 -99999999.99997139 -53846153.846138 0 0 0 -53846153.846138 0 0 0 -99999999.99997139 -53846153.846138 0 0 0 -53846153.846138 0 0 0 -99999999.99997139 -53846153.846139908 0 0 0 -53846153.846139908 0 0 0 -99999999.999973297 -53846153.846138 0 0 0 -53846153.846138 0 0 0 -99999999.999969482 -53846153.846138 0 0 0 -53846153.846138 0 0 0 -99999999.99997139 -53846153.846138 0 0 0 -53846153.846138 0 0 0 -99999999.99997139 -53846153.846139908 0 0 0 -53846153.846139908 0 0 0 -99999999.999973297 -53846153.846139908 0 0 0 -53846153.846139908 0 0 0 -99999999.999973297 -53846153.846138 0 0 0 -53846153.846138 0 0 0 -99999999.99997139 -53846153.846139908 0 0 0 -53846153.846139908 0 0 0 -99999999.999975204 -53846153.846138 0 0 0 -53846153.846138 0 0 0 -99999999.99997139 -53846153.846139908 0 0 0 -53846153.846139908 0 0 0 -99999999.999973297 -53846153.846138954 0 0 0 -53846153.846138954 0 0 0 -99999999.99997139 -53846153.846139908 0 0 0 -53846153.846139908 0 0 0 -99999999.999973297 -53846153.846138954 0 0 0 -53846153.846138954 0 0 0 -99999999.999973297 -53846153.846138954 0 0 0 -53846153.846138954 0 0 0 -99999999.99997139 -53846153.846138954 0 0 0 -53846153.846138954 0 0 0 -99999999.999973297 -53846153.846136093 0 0 0 -53846153.846136093 0 0 0 -99999999.999965668 -53846153.846138 0 0 0 -53846153.846138 0 0 0 -99999999.99997139 -53846153.846138 0 0 0 -53846153.846138 0 0 0 -99999999.999969482 -53846153.846136093 0 0 0 -53846153.846136093 0 0 0 -99999999.999967575 -53846153.846138 0 0 0 -53846153.846138 0 0 0 -99999999.999969482 -53846153.846135139 0 0 0 -53846153.846135139 0 0 0 -99999999.999965668 -53846153.846136093 0 0 0 -53846153.846136093 0 0 0 -99999999.999967575 -53846153.846136093 0 0 0 -53846153.846136093 0 0 0 -99999999.999965668 -53846153.846136093 0 0 0 -53846153.846136093 0 0 0 -99999999.999967575 -53846153.846136093 0 0 0 -53846153.846136093 0 0 0 -99999999.999965668 -53846153.846136093 0 0 0 -53846153.846136093 0 0 0 -99999999.999967575 -53846153.846135139 0 0 0 -53846153.846135139 0 0 0 -99999999.999965668 -53846153.846132278 0 0 0 -53846153.846132278 0 0 0 -99999999.999959946 -53846153.846135139 0 0 0 -53846153.846135139 0 0 0 -99999999.999965668 -53846153.846136093 0 0 0 -53846153.846136093 0 0 0 -99999999.999967575 -53846153.846136093 0 0 0 -53846153.846136093 0 0 0 -99999999.999967575 -53846153.846137047 0 0 0 -53846153.846137047 0 0 0 -99999999.999967575 -53846153.846133232 0 0 0 -53846153.846133232 0 0 0 -99999999.999961853 -53846153.846134186 0 0 0 -53846153.846134186 0 0 0 -99999999.99996376 -53846153.846131325 0 0 0 -53846153.846131325 0 0 0 -99999999.999958038 -53846153.846133232 0 0 0 -53846153.846133232 0 0 0 -99999999.999961853 -53846153.846131325 0 0 0 -53846153.846131325 0 0 0 -99999999.999958038 -53846153.846133232 0 0 0 -53846153.846133232 0 0 0 -99999999.999959946 -53846153.846131325 0 0 0 -53846153.846131325 0 0 0 -99999999.999959946 -53846153.846133232 0 0 0 -53846153.846133232 0 0 0 -99999999.999959946 -53846153.846132278 0 0 0 -53846153.846132278 0 0 0 -99999999.999959946 -53846153.846129417 0 0 0 -53846153.846129417 0 0 0 -99999999.999954224 -53846153.846131325 0 0 0 -53846153.846131325 0 0 0 -99999999.999958038 -53846153.846131325 0 0 0 -53846153.846131325 0 0 0 -99999999.999958038 -53846153.846131325 0 0 0 -53846153.846131325 0 0 0 -99999999.999958038 -53846153.846131325 0 0 0 -53846153.846131325 0 0 0 -99999999.999958038 -53846153.846130371 0 0 0 -53846153.846130371 0 0 0 -99999999.999956131 -53846153.846130371 0 0 0 -53846153.846130371 0 0 0 -99999999.999956131 -53846153.846129417 0 0 0 -53846153.846129417 0 0 0 -99999999.999956131 -53846153.846131325 0 0 0 -53846153.846131325 0 0 0 -99999999.999958038 -53846153.846128464 0 0 0 -53846153.846128464 0 0 0 -99999999.999952316 -53846153.846131325 0 0 0 -53846153.846131325 0 0 0 -99999999.999958038 -53846153.846128464 0 0 0 -53846153.846128464 0 0 0 -99999999.999952316 -53846153.84612751 0 0 0 -53846153.84612751 0 0 0 -99999999.999952316 -53846153.846130371 0 0 0 -53846153.846130371 0 0 0 -99999999.999956131 -53846153.84612751 0 0 0 -53846153.84612751 0 0 0 -99999999.999952316 -53846153.846128464 0 0 0 -53846153.846128464 0 0 0 -99999999.999952316 -53846153.846128464 0 0 0 -53846153.846128464 0 0 0 -99999999.999952316 -53846153.84612751 0 0 0 -53846153.84612751 0 0 0 -99999999.999952316 -53846153.84612751 0 0 0 -53846153.84612751 0 0 0 -99999999.999952316 -53846153.84612751 0 0 0 -53846153.84612751 0 0 0 -99999999.999950409 -53846153.846128464 0 0 0 -53846153.846128464 0 0 0 -99999999.999952316 -53846153.846126556 0 0 0 -53846153.846126556 0 0 0 -99999999.999950409 -53846153.846126556 0 0 0 -53846153.846126556 0 0 0 -99999999.999948502 -53846153.846128464 0 0 0 -53846153.846128464 0 0 0 -99999999.999952316 -53846153.846126556 0 0 0 -53846153.846126556 0 0 0 -99999999.999950409 -53846153.846126556 0 0 0 -53846153.846126556 0 0 0 -99999999.999948502 -53846153.846125603 0 0 0 -53846153.846125603 0 0 0 -99999999.999948502 -53846153.846126556 0 0 0 -53846153.846126556 0 0 0 -99999999.999950409 -53846153.846125603 0 0 0 -53846153.846125603 0 0 0 -99999999.999948502 -53846153.846125603 0 0 0 -53846153.846125603 0 0 0 -99999999.999946594 -53846153.846125603 0 0 0 -53846153.846125603 0 0 0 -99999999.999946594 -53846153.846125603 0 0 0 -53846153.846125603 0 0 0 -99999999.999946594 -53846153.846124649 0 0 0 -53846153.846124649 0 0 0 -99999999.999946594 -53846153.846125603 0 0 0 -53846153.846125603 0 0 0 -99999999.999948502 -53846153.846123695 0 0 0 -53846153.846123695 0 0 0 -99999999.999944687 -53846153.846123695 0 0 0 -53846153.846123695 0 0 0 -99999999.999944687 -53846153.846123695 0 0 0 -53846153.846123695 0 0 0 -99999999.999944687 -53846153.846122742 0 0 0 -53846153.846122742 0 0 0 -99999999.99994278 -53846153.846123695 0 0 0 -53846153.846123695 0 0 0 -99999999.999944687 -53846153.846122742 0 0 0 -53846153.846122742 0 0 0 -99999999.999941826 -53846153.846123695 0 0 0 -53846153.846123695 0 0 0 -99999999.999944687 -53846153.846124649 0 0 0 -53846153.846124649 0 0 0 -99999999.999944687 -53846153.846123695 0 0 0 -53846153.846123695 0 0 0 -99999999.999943733 -53846153.846124172 0 0 0 -53846153.846124172 0 0 0 -99999999.999945641 -53846153.846123695 0 0 0 -53846153.846123695 0 0 0 -99999999.999943733 -53846153.846123695 0 0 0 -53846153.846123695 0 0 0 -99999999.999943733 -53846153.846124649 0 0 0 -53846153.846124649 0 0 0 -99999999.999944687 -53846153.846123219 0 0 0 -53846153.846123219 0 0 0 -99999999.999943733 -53846153.846123219 0 0 0 -53846153.846123219 0 0 0 -99999999.99994278 -53846153.846123695 0 0 0 -53846153.846123695 0 0 0 -99999999.999944687 -53846153.846124649 0 0 0 -53846153.846124649 0 0 0 -99999999.999945641 -53846153.846124172 0 0 0 -53846153.846124172 0 0 0 -99999999.999944687 -53846153.846124649 0 0 0 -53846153.846124649 0 0 0 -99999999.999945641 -53846153.846124172 0 0 0 -53846153.846124172 0 0 0 -99999999.999945641 -53846153.846123219 0 0 0 -53846153.846123219 0 0 0 -99999999.99994278 -53846153.846122265 0 0 0 -53846153.846122265 0 0 0 -99999999.999941826 -53846153.846123219 0 0 0 -53846153.846123219 0 0 0 -99999999.999943733 -53846153.846122742 0 0 0 -53846153.846122742 0 0 0 -99999999.99994278 -53846153.846123695 0 0 0 -53846153.846123695 0 0 0 -99999999.999943733 -53846153.846123695 0 0 0 -53846153.846123695 0 0 0 -99999999.999943733 -53846153.846123219 0 0 0 -53846153.846123219 0 0 0 -99999999.99994278 -53846153.846122265 0 0 0 -53846153.846122265 0 0 0 -99999999.999940872 -53846153.846123219 0 0 0 -53846153.846123219 0 0 0 -99999999.99994278 -53846153.846122265 0 0 0 -53846153.846122265 0 0 0 -99999999.999941826 -53846153.846123695 0 0 0 -53846153.846123695 0 0 0 -99999999.999943733 -53846153.846123219 0 0 0 -53846153.846123219 0 0 0 -99999999.99994278 -53846153.846123695 0 0 0 -53846153.846123695 0 0 0 -99999999.999944687 -53846153.846122265 0 0 0 -53846153.846122265 0 0 0 -99999999.999940872 -53846153.846122742 0 0 0 -53846153.846122742 0 0 0 -99999999.99994278 -53846153.846123219 0 0 0 -53846153.846123219 0 0 0 -99999999.999943733 -53846153.846123695 0 0 0 -53846153.846123695 0 0 0 -99999999.999944687 -53846153.846124649 0 0 0 -53846153.846124649 0 0 0 -99999999.999944687 -53846153.846124172 0 0 0 -53846153.846124172 0 0 0 -99999999.999944687 -53846153.846123695 0 0 0 -53846153.846123695 0 0 0 -99999999.999944687 -53846153.846124172 0 0 0 -53846153.846124172 0 0 0 -99999999.999944687 -53846153.846122742 0 0 0 -53846153.846122742 0 0 0 -99999999.99994278 -53846153.846123219 0 0 0 -53846153.846123219 0 0 0 -99999999.99994278 -53846153.846123695 0 0 0 -53846153.846123695 0 0 0 -99999999.999944687 -53846153.846122742 0 0 0 -53846153.846122742 0 0 0 -99999999.999943733 -53846153.846123695 0 0 0 -53846153.846123695 0 0 0 -99999999.999943256 -53846153.846123219 0 0 0 -53846153.846123219 0 0 0 -99999999.99994278 -53846153.846123219 0 0 0 -53846153.846123219 0 0 0 -99999999.99994278 -53846153.84612298 0 0 0 -53846153.84612298 0 0 0 -99999999.99994278 -53846153.846123695 0 0 0 -53846153.846123695 0 0 0 -99999999.999943733 -53846153.846123934 0 0 0 -53846153.846123934 0 0 0 -99999999.999944687 -53846153.846123695 0 0 0 -53846153.846123695 0 0 0 -99999999.99994421 -53846153.846123695 0 0 0 -53846153.846123695 0 0 0 -99999999.99994421 -53846153.846123695 0 0 0 -53846153.846123695 0 0 0 -99999999.99994421 -53846153.846123934 0 0 0 -53846153.846123934 0 0 0 -99999999.999944687 -53846153.846123457 0 0 0 -53846153.846123457 0 0 0 -99999999.999943256 -53846153.846124411 0 0 0 -53846153.846124411 0 0 0 -99999999.999945641 -53846153.846123695 0 0 0 -53846153.846123695 0 0 0 -99999999.99994421 -53846153.846123695 0 0 0 -53846153.846123695 0 0 0 -99999999.999943733 -53846153.846123457 0 0 0 -53846153.846123457 0 0 0 -99999999.999943733 -53846153.846123934 0 0 0 -53846153.846123934 0 0 0 -99999999.999944687 -53846153.846123934 0 0 0 -53846153.846123934 0 0 0 -99999999.99994421 -53846153.846124411 0 0 0 -53846153.846124411 0 0 0 -99999999.999945164 -53846153.846123695 0 0 0 -53846153.846123695 0 0 0 -99999999.99994421 -53846153.846124172 0 0 0 -53846153.846124172 0 0 0 -99999999.999944687 -53846153.846123934 0 0 0 -53846153.846123934 0 0 0 -99999999.999944687 -53846153.846123695 0 0 0 -53846153.846123695 0 0 0 -99999999.99994421 -53846153.846123695 0 0 0 -53846153.846123695 0 0 0 -99999999.99994421 -53846153.846123695 0 0 0 -53846153.846123695 0 0 0 -99999999.99994421 -53846153.846123695 0 0 0 -53846153.846123695 0 0 0 -99999999.999943972 -53846153.846123815 0 0 0 -53846153.846123815 0 0 0 -99999999.999944448 -53846153.846123576 0 0 0 -53846153.846123576 0 0 0 -99999999.999943733 -53846153.846123695 0 0 0 -53846153.846123695 0 0 0 -99999999.999943972 -53846153.846123576 0 0 0 -53846153.846123576 0 0 0 -99999999.999943733 -53846153.846123695 0 0 0 -53846153.846123695 0 0 0 -99999999.999943972 -53846153.846123576 0 0 0 -53846153.846123576 0 0 0 -99999999.999943972 -53846153.846123815 0 0 0 -53846153.846123815 0 0 0 -99999999.99994421 -53846153.846123457 0 0 0 -53846153.846123457 0 0 0 -99999999.999943614 -53846153.846123517 0 0 0 -53846153.846123517 0 0 0 -99999999.999943614 -53846153.846123517 0 0 0 -53846153.846123517 0 0 0 -99999999.999943614 -53846153.846123457 0 0 0 -53846153.846123457 0 0 0 -99999999.999943733 -53846153.846123517 0 0 0 -53846153.846123517 0 0 0 -99999999.999943733 -53846153.846123576 0 0 0 -53846153.846123576 0 0 0 -99999999.999943852 -53846153.846123487 0 0 0 -53846153.846123487 0 0 0 -99999999.999943674 -53846153.846123546 0 0 0 -53846153.846123546 0 0 0 -99999999.999943674 -53846153.846123487 0 0 0 -53846153.846123487 0 0 0 -99999999.999943614 -53846153.846123494 0 0 0 -53846153.846123494 0 0 0 -99999999.999943674 
</DataArray>
</CellData>
</Piece>
</UnstructuredGrid>
</VTKFile>
